 Entering Gaussian System, Link 0=g16
 Input=AlH3.com
 Output=AlH3.log
 Initial command:
 /opt/g16/g16/l1.exe "/home/pnatt/scratch/Gau-1447095.inp" -scrdir="/home/pnatt/scratch/"
 Entering Link 1 = /opt/g16/g16/l1.exe PID=   1447103.
  
 Copyright (c) 1988-2019, Gaussian, Inc.  All Rights Reserved.
  
 This is part of the Gaussian(R) 16 program.  It is based on
 the Gaussian(R) 09 system (copyright 2009, Gaussian, Inc.),
 the Gaussian(R) 03 system (copyright 2003, Gaussian, Inc.),
 the Gaussian(R) 98 system (copyright 1998, Gaussian, Inc.),
 the Gaussian(R) 94 system (copyright 1995, Gaussian, Inc.),
 the Gaussian 92(TM) system (copyright 1992, Gaussian, Inc.),
 the Gaussian 90(TM) system (copyright 1990, Gaussian, Inc.),
 the Gaussian 88(TM) system (copyright 1988, Gaussian, Inc.),
 the Gaussian 86(TM) system (copyright 1986, Carnegie Mellon
 University), and the Gaussian 82(TM) system (copyright 1983,
 Carnegie Mellon University). Gaussian is a federally registered
 trademark of Gaussian, Inc.
  
 This software contains proprietary and confidential information,
 including trade secrets, belonging to Gaussian, Inc.
  
 This software is provided under written license and may be
 used, copied, transmitted, or stored only in accord with that
 written license.
  
 The following legend is applicable only to US Government
 contracts under FAR:
  
                    RESTRICTED RIGHTS LEGEND
  
 Use, reproduction and disclosure by the US Government is
 subject to restrictions as set forth in subparagraphs (a)
 and (c) of the Commercial Computer Software - Restricted
 Rights clause in FAR 52.227-19.
  
 Gaussian, Inc.
 340 Quinnipiac St., Bldg. 40, Wallingford CT 06492
  
  
 ---------------------------------------------------------------
 Warning -- This program may not be used in any manner that
 competes with the business of Gaussian, Inc. or will provide
 assistance to any competitor of Gaussian, Inc.  The licensee
 of this program is prohibited from giving any competitor of
 Gaussian, Inc. access to this program.  By using this program,
 the user acknowledges that Gaussian, Inc. is engaged in the
 business of creating and licensing software in the field of
 computational chemistry and represents and warrants to the
 licensee that it is not a competitor of Gaussian, Inc. and that
 it will not use this program in any manner prohibited above.
 ---------------------------------------------------------------
  

 Cite this work as:
 Gaussian 16, Revision C.01,
 M. J. Frisch, G. W. Trucks, H. B. Schlegel, G. E. Scuseria, 
 M. A. Robb, J. R. Cheeseman, G. Scalmani, V. Barone, 
 G. A. Petersson, H. Nakatsuji, X. Li, M. Caricato, A. V. Marenich, 
 J. Bloino, B. G. Janesko, R. Gomperts, B. Mennucci, H. P. Hratchian, 
 J. V. Ortiz, A. F. Izmaylov, J. L. Sonnenberg, D. Williams-Young, 
 F. Ding, F. Lipparini, F. Egidi, J. Goings, B. Peng, A. Petrone, 
 T. Henderson, D. Ranasinghe, V. G. Zakrzewski, J. Gao, N. Rega, 
 G. Zheng, W. Liang, M. Hada, M. Ehara, K. Toyota, R. Fukuda, 
 J. Hasegawa, M. Ishida, T. Nakajima, Y. Honda, O. Kitao, H. Nakai, 
 T. Vreven, K. Throssell, J. A. Montgomery, Jr., J. E. Peralta, 
 F. Ogliaro, M. J. Bearpark, J. J. Heyd, E. N. Brothers, K. N. Kudin, 
 V. N. Staroverov, T. A. Keith, R. Kobayashi, J. Normand, 
 K. Raghavachari, A. P. Rendell, J. C. Burant, S. S. Iyengar, 
 J. Tomasi, M. Cossi, J. M. Millam, M. Klene, C. Adamo, R. Cammi, 
 J. W. Ochterski, R. L. Martin, K. Morokuma, O. Farkas, 
 J. B. Foresman, and D. J. Fox, Gaussian, Inc., Wallingford CT, 2019.
 
 ******************************************
 Gaussian 16:  ES64L-G16RevC.01  3-Jul-2019
                10-Aug-2026 
 ******************************************
 %chk=AlH3.chk
 ----------------------------------------------
 # opt freq=hpmodes mp2/3-21g geom=connectivity
 ----------------------------------------------
 1/18=20,19=15,38=1,57=2/1,3;
 2/9=110,12=2,17=6,18=5,40=1/2;
 3/5=5,11=9,25=1,30=1,71=1/1,2,3;
 4//1;
 5/5=2,38=5/2;
 8/6=4,10=1/1;
 9/15=2,16=-3/6;
 10/5=1/2;
 6/7=2,8=2,9=2,10=2/1;
 7/12=2/1,2,3,16;
 1/18=20,19=15/3(2);
 2/9=110/2;
 99//99;
 2/9=110/2;
 3/5=5,11=9,25=1,30=1,71=1/1,2,3;
 4/5=5,16=3,69=1/1;
 5/5=2,38=5/2;
 8/6=4,10=1/1;
 9/15=2,16=-3/6;
 10/5=1/2;
 7/12=2/1,2,3,16;
 1/18=20,19=15/3(-8);
 2/9=110/2;
 6/7=2,8=2,9=2,10=2/1;
 99/9=10/99;
 -------------------
 Title Card Required
 -------------------
 Symbolic Z-matrix:
 Charge =  0 Multiplicity = 1
 Al                    0.        0.        0. 
 H                     0.        1.55      0. 
 H                     1.34234  -0.775     0. 
 H                    -1.34234  -0.775     0. 
 

 GradGradGradGradGradGradGradGradGradGradGradGradGradGradGradGradGradGrad
 Berny optimization.
 Initialization pass.
                           ----------------------------
                           !    Initial Parameters    !
                           ! (Angstroms and Degrees)  !
 --------------------------                            --------------------------
 ! Name  Definition              Value          Derivative Info.                !
 --------------------------------------------------------------------------------
 ! R1    R(1,2)                  1.55           estimate D2E/DX2                !
 ! R2    R(1,3)                  1.55           estimate D2E/DX2                !
 ! R3    R(1,4)                  1.55           estimate D2E/DX2                !
 ! A1    A(2,1,3)              120.0            estimate D2E/DX2                !
 ! A2    A(2,1,4)              120.0            estimate D2E/DX2                !
 ! A3    A(3,1,4)              120.0            estimate D2E/DX2                !
 ! D1    D(2,1,4,3)            180.0            estimate D2E/DX2                !
 --------------------------------------------------------------------------------
 Trust Radius=3.00D-01 FncErr=1.00D-07 GrdErr=1.00D-07 EigMax=2.50D+02 EigMin=1.00D-04
 Number of steps in this run=     20 maximum allowed number of steps=    100.
 GradGradGradGradGradGradGradGradGradGradGradGradGradGradGradGradGradGrad

                          Input orientation:                          
 ---------------------------------------------------------------------
 Center     Atomic      Atomic             Coordinates (Angstroms)
 Number     Number       Type             X           Y           Z
 ---------------------------------------------------------------------
      1         13           0        0.000000    0.000000    0.000000
      2          1           0        0.000000    1.550000    0.000000
      3          1           0        1.342339   -0.775000    0.000000
      4          1           0       -1.342339   -0.775000    0.000000
 ---------------------------------------------------------------------
                    Distance matrix (angstroms):
                    1          2          3          4
     1  Al   0.000000
     2  H    1.550000   0.000000
     3  H    1.550000   2.684679   0.000000
     4  H    1.550000   2.684679   2.684679   0.000000
 Stoichiometry    AlH3
 Framework group  D3H[O(Al),3C2(H)]
 Deg. of freedom     1
 Full point group                 D3H     NOp  12
 Largest Abelian subgroup         C2V     NOp   4
 Largest concise Abelian subgroup C2      NOp   2
                         Standard orientation:                         
 ---------------------------------------------------------------------
 Center     Atomic      Atomic             Coordinates (Angstroms)
 Number     Number       Type             X           Y           Z
 ---------------------------------------------------------------------
      1         13           0        0.000000    0.000000    0.000000
      2          1           0        0.000000    1.550000    0.000000
      3          1           0        1.342339   -0.775000    0.000000
      4          1           0       -1.342339   -0.775000    0.000000
 ---------------------------------------------------------------------
 Rotational constants (GHZ):         139.1481386         139.1481386          69.5740693
 Standard basis: 3-21G (6D, 7F)
 There are    11 symmetry adapted cartesian basis functions of A1  symmetry.
 There are     0 symmetry adapted cartesian basis functions of A2  symmetry.
 There are     5 symmetry adapted cartesian basis functions of B1  symmetry.
 There are     3 symmetry adapted cartesian basis functions of B2  symmetry.
 There are    11 symmetry adapted basis functions of A1  symmetry.
 There are     0 symmetry adapted basis functions of A2  symmetry.
 There are     5 symmetry adapted basis functions of B1  symmetry.
 There are     3 symmetry adapted basis functions of B2  symmetry.
    19 basis functions,    36 primitive gaussians,    19 cartesian basis functions
     8 alpha electrons        8 beta electrons
       nuclear repulsion energy        13.9061116396 Hartrees.
 NAtoms=    4 NActive=    4 NUniq=    2 SFac= 4.00D+00 NAtFMM=   60 NAOKFM=F Big=F
 Integral buffers will be    131072 words long.
 Raffenetti 1 integral format.
 Two-electron integral symmetry is turned on.
 One-electron integrals computed using PRISM.
 NBasis=    19 RedAO= T EigKep=  8.49D-02  NBF=    11     0     5     3
 NBsUse=    19 1.00D-06 EigRej= -1.00D+00 NBFU=    11     0     5     3
 ExpMin= 6.39D-02 ExpMax= 7.76D+02 ExpMxC= 7.76D+02 IAcc=3 IRadAn=         5 AccDes= 0.00D+00
 Harris functional with IExCor=  205 and IRadAn=       5 diagonalized for initial guess.
 HarFok:  IExCor=  205 AccDes= 0.00D+00 IRadAn=         5 IDoV= 1 UseB2=F ITyADJ=14
 ICtDFT=  3500011 ScaDFX=  1.000000  1.000000  1.000000  1.000000
 FoFCou: FMM=F IPFlag=           0 FMFlag=      100000 FMFlg1=           0
         NFxFlg=           0 DoJE=T BraDBF=F KetDBF=T FulRan=T
         wScrn=  0.000000 ICntrl=       500 IOpCl=  0 I1Cent=   200000004 NGrid=           0
         NMat0=    1 NMatS0=      1 NMatT0=    0 NMatD0=    1 NMtDS0=    0 NMtDT0=    0
 Petite list used in FoFCou.
 Initial guess orbital symmetries:
       Occupied  (A1') (A1') (E') (E') (A2") (A1') (E') (E')
       Virtual   (A2") (A1') (E') (E') (A1') (E') (E') (A2") (A1')
                 (E') (E')
 The electronic state of the initial guess is 1-A1'.
 Keep R1 ints in memory in symmetry-blocked form, NReq=823844.
 Requested convergence on RMS density matrix=1.00D-08 within 128 cycles.
 Requested convergence on MAX density matrix=1.00D-06.
 Requested convergence on             energy=1.00D-06.
 No special actions if energy rises.
 SCF Done:  E(RHF) =  -242.282011208     A.U. after    8 cycles
            NFock=  8  Conv=0.68D-09     -V/T= 2.0004
 ExpMin= 6.39D-02 ExpMax= 7.76D+02 ExpMxC= 7.76D+02 IAcc=3 IRadAn=         5 AccDes= 0.00D+00
 HarFok:  IExCor=  205 AccDes= 0.00D+00 IRadAn=         5 IDoV=-2 UseB2=F ITyADJ=14
 ICtDFT= 12500011 ScaDFX=  1.000000  1.000000  1.000000  1.000000
 Range of M.O.s used for correlation:     6    19
 NBasis=    19 NAE=     8 NBE=     8 NFC=     5 NFV=     0
 NROrb=     14 NOA=     3 NOB=     3 NVA=    11 NVB=    11
 Fully direct method using O(ONN) memory.
 JobTyp=1 Pass  1:  I=   6 to   8 NPSUse=  1 ParTrn=F ParDer=F DoDerP=T.
 Spin components of T(2) and E(2):
     alpha-alpha T2 =       0.5455271725D-03 E2=     -0.8365090331D-03
     alpha-beta  T2 =       0.2030777539D-01 E2=     -0.3965956848D-01
     beta-beta   T2 =       0.5455271725D-03 E2=     -0.8365090331D-03
 ANorm=    0.1010642780D+01
 E2 =    -0.4133258655D-01 EUMP2 =    -0.24232334379482D+03
          IDoAtm=1111
          Differentiating once with respect to electric field.
                with respect to dipole field.
          Differentiating once with respect to nuclear coordinates.
 Keep R1 ints in memory in symmetry-blocked form, NReq=824525.
          There are     1 degrees of freedom in the 1st order CPHF.  IDoFFX=0 NUNeed=     1.
 LinEq1:  Iter=  0 NonCon=     1 RMS=5.21D-03 Max=2.49D-02 NDo=     1
 AX will form     1 AO Fock derivatives at one time.
 LinEq1:  Iter=  1 NonCon=     1 RMS=3.81D-04 Max=1.53D-03 NDo=     1
 LinEq1:  Iter=  2 NonCon=     1 RMS=1.98D-05 Max=9.23D-05 NDo=     1
 LinEq1:  Iter=  3 NonCon=     1 RMS=2.53D-06 Max=1.13D-05 NDo=     1
 LinEq1:  Iter=  4 NonCon=     1 RMS=1.15D-07 Max=7.09D-07 NDo=     1
 LinEq1:  Iter=  5 NonCon=     1 RMS=1.93D-09 Max=9.18D-09 NDo=     1
 LinEq1:  Iter=  6 NonCon=     0 RMS=9.60D-11 Max=4.80D-10 NDo=     1
 Linear equations converged to 1.000D-10 1.000D-09 after     6 iterations.
 End of Minotr F.D. properties file   721 does not exist.
 End of Minotr F.D. properties file   722 does not exist.
 End of Minotr F.D. properties file   788 does not exist.

 **********************************************************************

            Population analysis using the SCF Density.

 **********************************************************************

 Orbital symmetries:
       Occupied  (A1') (A1') (A2") (E') (E') (A1') (E') (E')
       Virtual   (A2") (E') (E') (A1') (A1') (A2") (E') (E') (A1')
                 (E') (E')
 The electronic state is 1-A1'.
 Alpha  occ. eigenvalues --  -58.04919  -4.86426  -3.16734  -3.16651  -3.16651
 Alpha  occ. eigenvalues --   -0.57979  -0.43034  -0.43034
 Alpha virt. eigenvalues --    0.03285   0.17937   0.17937   0.19663   0.30342
 Alpha virt. eigenvalues --    0.37246   0.39725   0.39725   1.33679   1.38796
 Alpha virt. eigenvalues --    1.38796
          Condensed to atoms (all electrons):
               1          2          3          4
     1  Al  11.093230   0.362686   0.362686   0.362686
     2  H    0.362686   0.931657  -0.010720  -0.010720
     3  H    0.362686  -0.010720   0.931657  -0.010720
     4  H    0.362686  -0.010720  -0.010720   0.931657
 Mulliken charges:
               1
     1  Al   0.818712
     2  H   -0.272904
     3  H   -0.272904
     4  H   -0.272904
 Sum of Mulliken charges =   0.00000
 Mulliken charges with hydrogens summed into heavy atoms:
               1
     1  Al   0.000000
 Electronic spatial extent (au):  <R**2>=             62.5399
 Charge=              0.0000 electrons
 Dipole moment (field-independent basis, Debye):
    X=              0.0000    Y=              0.0000    Z=              0.0000  Tot=              0.0000
 Quadrupole moment (field-independent basis, Debye-Ang):
   XX=            -19.0551   YY=            -19.0551   ZZ=            -11.3890
   XY=              0.0000   XZ=              0.0000   YZ=              0.0000
 Traceless Quadrupole moment (field-independent basis, Debye-Ang):
   XX=             -2.5554   YY=             -2.5554   ZZ=              5.1108
   XY=              0.0000   XZ=              0.0000   YZ=              0.0000
 Octapole moment (field-independent basis, Debye-Ang**2):
  XXX=              0.0000  YYY=             -3.7882  ZZZ=              0.0000  XYY=             -0.0000
  XXY=              3.7882  XXZ=              0.0000  XZZ=              0.0000  YZZ=              0.0000
  YYZ=             -0.0000  XYZ=              0.0000
 Hexadecapole moment (field-independent basis, Debye-Ang**3):
 XXXX=            -62.7300 YYYY=            -62.7300 ZZZZ=            -13.0695 XXXY=              0.0000
 XXXZ=             -0.0000 YYYX=              0.0000 YYYZ=              0.0000 ZZZX=             -0.0000
 ZZZY=              0.0000 XXYY=            -20.9100 XXZZ=            -11.5871 YYZZ=            -11.5871
 XXYZ=              0.0000 YYXZ=             -0.0000 ZZXY=              0.0000
 N-N= 1.390611163961D+01 E-N=-6.068411337697D+02  KE= 2.421734477579D+02
 Symmetry A1   KE= 2.019037565269D+02
 Symmetry A2   KE= 0.000000000000D+00
 Symmetry B1   KE= 2.081399438368D+01
 Symmetry B2   KE= 1.945569684732D+01
 Calling FoFJK, ICntrl=  10002127 FMM=F ISym2X=1 I1Cent= 0 IOpClX= 0 NMat=1 NMatS=1 NMatT=0.
 ***** Axes restored to original set *****
 -------------------------------------------------------------------
 Center     Atomic                   Forces (Hartrees/Bohr)
 Number     Number              X              Y              Z
 -------------------------------------------------------------------
      1       13           0.000000000    0.000000000   -0.000000000
      2        1           0.000000000    0.017862011   -0.000000000
      3        1           0.015468955   -0.008931005    0.000000000
      4        1          -0.015468955   -0.008931005    0.000000000
 -------------------------------------------------------------------
 Cartesian Forces:  Max     0.017862011 RMS     0.008931005

 GradGradGradGradGradGradGradGradGradGradGradGradGradGradGradGradGradGrad
 Berny optimization.
 FormGI is forming the generalized inverse of G from B-inverse, IUseBI=4.
 Internal  Forces:  Max     0.017862011 RMS     0.011693431
 Search for a local minimum.
 Step number   1 out of a maximum of   20
 All quantities printed in internal units (Hartrees-Bohrs-Radians)
 Mixed Optimization -- RFO/linear search
 Second derivative matrix not updated -- first step.
 The second derivative matrix:
                          R1        R2        R3        A1        A2
           R1           0.14842
           R2           0.00000   0.14842
           R3           0.00000   0.00000   0.14842
           A1           0.00000   0.00000   0.00000   0.16000
           A2           0.00000   0.00000   0.00000   0.00000   0.16000
           A3           0.00000   0.00000   0.00000   0.00000   0.00000
           D1           0.00000   0.00000   0.00000   0.00000   0.00000
                          A3        D1
           A3           0.16000
           D1           0.00000   0.01163
 ITU=  0
     Eigenvalues ---    0.01163   0.14842   0.14842   0.14842   0.16000
     Eigenvalues ---    0.16000
 RFO step:  Lambda=-6.19060752D-03 EMin= 1.16314452D-02
 Linear search not attempted -- first point.
 Iteration  1 RMS(Cart)=  0.07562985 RMS(Int)=  0.00000000
 Iteration  2 RMS(Cart)=  0.00000000 RMS(Int)=  0.00000000
 ClnCor:  largest displacement from symmetrization is 1.10D-12 for atom     1.
 Variable       Old X    -DE/DX   Delta X   Delta X   Delta X     New X
                                 (Linear)    (Quad)   (Total)
    R1        2.92908   0.01786   0.00000   0.11553   0.11553   3.04460
    R2        2.92908   0.01786   0.00000   0.11553   0.11553   3.04460
    R3        2.92908   0.01786   0.00000   0.11553   0.11553   3.04460
    A1        2.09440  -0.00000   0.00000  -0.00000  -0.00000   2.09440
    A2        2.09440   0.00000   0.00000   0.00000   0.00000   2.09440
    A3        2.09440   0.00000   0.00000   0.00000   0.00000   2.09440
    D1        3.14159   0.00000   0.00000   0.00000   0.00000   3.14159
         Item               Value     Threshold  Converged?
 Maximum Force            0.017862     0.000450     NO 
 RMS     Force            0.011693     0.000300     NO 
 Maximum Displacement     0.115527     0.001800     NO 
 RMS     Displacement     0.075630     0.001200     NO 
 Predicted change in Energy=-3.219237D-03
 GradGradGradGradGradGradGradGradGradGradGradGradGradGradGradGradGradGrad

                          Input orientation:                          
 ---------------------------------------------------------------------
 Center     Atomic      Atomic             Coordinates (Angstroms)
 Number     Number       Type             X           Y           Z
 ---------------------------------------------------------------------
      1         13           0        0.000000   -0.000000    0.000000
      2          1           0        0.000000    1.611134    0.000000
      3          1           0        1.395283   -0.805567    0.000000
      4          1           0       -1.395283   -0.805567    0.000000
 ---------------------------------------------------------------------
                    Distance matrix (angstroms):
                    1          2          3          4
     1  Al   0.000000
     2  H    1.611134   0.000000
     3  H    1.611134   2.790566   0.000000
     4  H    1.611134   2.790566   2.790566   0.000000
 Stoichiometry    AlH3
 Framework group  D3H[O(Al),3C2(H)]
 Deg. of freedom     1
 Full point group                 D3H     NOp  12
 Largest Abelian subgroup         C2V     NOp   4
 Largest concise Abelian subgroup C2      NOp   2
                         Standard orientation:                         
 ---------------------------------------------------------------------
 Center     Atomic      Atomic             Coordinates (Angstroms)
 Number     Number       Type             X           Y           Z
 ---------------------------------------------------------------------
      1         13           0        0.000000    0.000000    0.000000
      2          1           0        0.000000    1.611134    0.000000
      3          1           0        1.395283   -0.805567    0.000000
      4          1           0       -1.395283   -0.805567    0.000000
 ---------------------------------------------------------------------
 Rotational constants (GHZ):         128.7886160         128.7886160          64.3943080
 Standard basis: 3-21G (6D, 7F)
 There are    11 symmetry adapted cartesian basis functions of A1  symmetry.
 There are     0 symmetry adapted cartesian basis functions of A2  symmetry.
 There are     5 symmetry adapted cartesian basis functions of B1  symmetry.
 There are     3 symmetry adapted cartesian basis functions of B2  symmetry.
 There are    11 symmetry adapted basis functions of A1  symmetry.
 There are     0 symmetry adapted basis functions of A2  symmetry.
 There are     5 symmetry adapted basis functions of B1  symmetry.
 There are     3 symmetry adapted basis functions of B2  symmetry.
    19 basis functions,    36 primitive gaussians,    19 cartesian basis functions
     8 alpha electrons        8 beta electrons
       nuclear repulsion energy        13.3784484403 Hartrees.
 NAtoms=    4 NActive=    4 NUniq=    2 SFac= 4.00D+00 NAtFMM=   60 NAOKFM=F Big=F
 Integral buffers will be    131072 words long.
 Raffenetti 1 integral format.
 Two-electron integral symmetry is turned on.
 One-electron integrals computed using PRISM.
 NBasis=    19 RedAO= T EigKep=  8.75D-02  NBF=    11     0     5     3
 NBsUse=    19 1.00D-06 EigRej= -1.00D+00 NBFU=    11     0     5     3
 Initial guess from the checkpoint file:  "AlH3.chk"
 B after Tr=     0.000000    0.000000    0.000000
         Rot=    1.000000   -0.000000    0.000000    0.000000 Ang=   0.00 deg.
 Initial guess orbital symmetries:
       Occupied  (A1') (A1') (A2") (E') (E') (A1') (E') (E')
       Virtual   (A2") (E') (E') (A1') (A1') (A2") (E') (E') (A1')
                 (E') (E')
 ExpMin= 6.39D-02 ExpMax= 7.76D+02 ExpMxC= 7.76D+02 IAcc=3 IRadAn=         5 AccDes= 0.00D+00
 Harris functional with IExCor=  205 and IRadAn=       5 diagonalized for initial guess.
 HarFok:  IExCor=  205 AccDes= 0.00D+00 IRadAn=         5 IDoV= 1 UseB2=F ITyADJ=14
 ICtDFT=  3500011 ScaDFX=  1.000000  1.000000  1.000000  1.000000
 FoFCou: FMM=F IPFlag=           0 FMFlag=      100000 FMFlg1=           0
         NFxFlg=           0 DoJE=T BraDBF=F KetDBF=T FulRan=T
         wScrn=  0.000000 ICntrl=       500 IOpCl=  0 I1Cent=   200000004 NGrid=           0
         NMat0=    1 NMatS0=      1 NMatT0=    0 NMatD0=    1 NMtDS0=    0 NMtDT0=    0
 Petite list used in FoFCou.
 Keep R1 ints in memory in symmetry-blocked form, NReq=823802.
 Requested convergence on RMS density matrix=1.00D-08 within 128 cycles.
 Requested convergence on MAX density matrix=1.00D-06.
 Requested convergence on             energy=1.00D-06.
 No special actions if energy rises.
 SCF Done:  E(RHF) =  -242.284004594     A.U. after    7 cycles
            NFock=  7  Conv=0.66D-08     -V/T= 2.0011
 ExpMin= 6.39D-02 ExpMax= 7.76D+02 ExpMxC= 7.76D+02 IAcc=3 IRadAn=         5 AccDes= 0.00D+00
 HarFok:  IExCor=  205 AccDes= 0.00D+00 IRadAn=         5 IDoV=-2 UseB2=F ITyADJ=14
 ICtDFT= 12500011 ScaDFX=  1.000000  1.000000  1.000000  1.000000
 Range of M.O.s used for correlation:     6    19
 NBasis=    19 NAE=     8 NBE=     8 NFC=     5 NFV=     0
 NROrb=     14 NOA=     3 NOB=     3 NVA=    11 NVB=    11
 Fully direct method using O(ONN) memory.
 JobTyp=1 Pass  1:  I=   6 to   8 NPSUse=  1 ParTrn=F ParDer=F DoDerP=T.
 Spin components of T(2) and E(2):
     alpha-alpha T2 =       0.5616082312D-03 E2=     -0.8469056332D-03
     alpha-beta  T2 =       0.2160325930D-01 E2=     -0.4056313446D-01
     beta-beta   T2 =       0.5616082312D-03 E2=     -0.8469056332D-03
 ANorm=    0.1011299400D+01
 E2 =    -0.4225694572D-01 EUMP2 =    -0.24232626153947D+03
          IDoAtm=1111
          Differentiating once with respect to electric field.
                with respect to dipole field.
          Differentiating once with respect to nuclear coordinates.
 Keep R1 ints in memory in symmetry-blocked form, NReq=824525.
          There are     1 degrees of freedom in the 1st order CPHF.  IDoFFX=0 NUNeed=     1.
 LinEq1:  Iter=  0 NonCon=     1 RMS=5.36D-03 Max=2.86D-02 NDo=     1
 AX will form     1 AO Fock derivatives at one time.
 LinEq1:  Iter=  1 NonCon=     1 RMS=4.31D-04 Max=1.70D-03 NDo=     1
 LinEq1:  Iter=  2 NonCon=     1 RMS=2.07D-05 Max=8.58D-05 NDo=     1
 LinEq1:  Iter=  3 NonCon=     1 RMS=2.88D-06 Max=1.37D-05 NDo=     1
 LinEq1:  Iter=  4 NonCon=     1 RMS=1.32D-07 Max=9.31D-07 NDo=     1
 LinEq1:  Iter=  5 NonCon=     1 RMS=2.23D-09 Max=1.13D-08 NDo=     1
 LinEq1:  Iter=  6 NonCon=     1 RMS=1.06D-10 Max=4.61D-10 NDo=     1
 LinEq1:  Iter=  7 NonCon=     0 RMS=8.09D-12 Max=3.94D-11 NDo=     1
 Linear equations converged to 1.000D-10 1.000D-09 after     7 iterations.
 End of Minotr F.D. properties file   721 does not exist.
 End of Minotr F.D. properties file   722 does not exist.
 End of Minotr F.D. properties file   788 does not exist.
 Calling FoFJK, ICntrl=  10002127 FMM=F ISym2X=1 I1Cent= 0 IOpClX= 0 NMat=1 NMatS=1 NMatT=0.
 ***** Axes restored to original set *****
 -------------------------------------------------------------------
 Center     Atomic                   Forces (Hartrees/Bohr)
 Number     Number              X              Y              Z
 -------------------------------------------------------------------
      1       13          -0.000000000   -0.000000000   -0.000000000
      2        1          -0.000000000   -0.000339125   -0.000000000
      3        1          -0.000293691    0.000169563    0.000000000
      4        1           0.000293691    0.000169563   -0.000000000
 -------------------------------------------------------------------
 Cartesian Forces:  Max     0.000339125 RMS     0.000169563

 GradGradGradGradGradGradGradGradGradGradGradGradGradGradGradGradGradGrad
 Berny optimization.
 Using GEDIIS/GDIIS optimizer.
 FormGI is forming the generalized inverse of G from B-inverse, IUseBI=4.
 Internal  Forces:  Max     0.000339125 RMS     0.000222010
 Search for a local minimum.
 Step number   2 out of a maximum of   20
 All quantities printed in internal units (Hartrees-Bohrs-Radians)
 Mixed Optimization -- En-DIIS/RFO-DIIS
 Update second derivatives using D2CorX and points    1    2
 DE= -2.92D-03 DEPred=-3.22D-03 R= 9.06D-01
 TightC=F SS=  1.41D+00  RLast= 2.00D-01 DXNew= 5.0454D-01 6.0029D-01
 Trust test= 9.06D-01 RLast= 2.00D-01 DXMaxT set to 5.05D-01
 The second derivative matrix:
                          R1        R2        R3        A1        A2
           R1           0.15147
           R2           0.00304   0.15147
           R3           0.00304   0.00304   0.15147
           A1           0.00000   0.00000   0.00000   0.16000
           A2           0.00000   0.00000   0.00000   0.00000   0.16000
           A3          -0.00000  -0.00000  -0.00000  -0.00000  -0.00000
           D1          -0.00000  -0.00000  -0.00000  -0.00000  -0.00000
                          A3        D1
           A3           0.16000
           D1           0.00000   0.01163
 ITU=  1  0
 Use linear search instead of GDIIS.
     Eigenvalues ---    0.01163   0.14842   0.14842   0.15755   0.16000
     Eigenvalues ---    0.16000
 RFO step:  Lambda= 0.00000000D+00 EMin= 1.16314452D-02
 Quartic linear search produced a step of -0.02090.
 Iteration  1 RMS(Cart)=  0.00158087 RMS(Int)=  0.00000000
 Iteration  2 RMS(Cart)=  0.00000000 RMS(Int)=  0.00000000
 ClnCor:  largest displacement from symmetrization is 4.07D-14 for atom     4.
 Variable       Old X    -DE/DX   Delta X   Delta X   Delta X     New X
                                 (Linear)    (Quad)   (Total)
    R1        3.04460  -0.00034  -0.00241  -0.00000  -0.00241   3.04219
    R2        3.04460  -0.00034  -0.00241  -0.00000  -0.00241   3.04219
    R3        3.04460  -0.00034  -0.00241   0.00000  -0.00241   3.04219
    A1        2.09440  -0.00000   0.00000  -0.00000   0.00000   2.09440
    A2        2.09440   0.00000   0.00000   0.00000   0.00000   2.09440
    A3        2.09440   0.00000   0.00000   0.00000   0.00000   2.09440
    D1        3.14159   0.00000   0.00000   0.00000   0.00000   3.14159
         Item               Value     Threshold  Converged?
 Maximum Force            0.000339     0.000450     YES
 RMS     Force            0.000222     0.000300     YES
 Maximum Displacement     0.002415     0.001800     NO 
 RMS     Displacement     0.001581     0.001200     NO 
 Predicted change in Energy=-1.078689D-06
 GradGradGradGradGradGradGradGradGradGradGradGradGradGradGradGradGradGrad

                          Input orientation:                          
 ---------------------------------------------------------------------
 Center     Atomic      Atomic             Coordinates (Angstroms)
 Number     Number       Type             X           Y           Z
 ---------------------------------------------------------------------
      1         13           0       -0.000000   -0.000000    0.000000
      2          1           0        0.000000    1.609856   -0.000000
      3          1           0        1.394176   -0.804928   -0.000000
      4          1           0       -1.394176   -0.804928   -0.000000
 ---------------------------------------------------------------------
                    Distance matrix (angstroms):
                    1          2          3          4
     1  Al   0.000000
     2  H    1.609856   0.000000
     3  H    1.609856   2.788353   0.000000
     4  H    1.609856   2.788353   2.788353   0.000000
 Stoichiometry    AlH3
 Framework group  D3H[O(Al),3C2(H)]
 Deg. of freedom     1
 Full point group                 D3H     NOp  12
 Largest Abelian subgroup         C2V     NOp   4
 Largest concise Abelian subgroup C2      NOp   2
                         Standard orientation:                         
 ---------------------------------------------------------------------
 Center     Atomic      Atomic             Coordinates (Angstroms)
 Number     Number       Type             X           Y           Z
 ---------------------------------------------------------------------
      1         13           0        0.000000    0.000000    0.000000
      2          1           0       -0.000000    1.609856    0.000000
      3          1           0        1.394176   -0.804928    0.000000
      4          1           0       -1.394176   -0.804928    0.000000
 ---------------------------------------------------------------------
 Rotational constants (GHZ):         128.9931563         128.9931563          64.4965781
 Standard basis: 3-21G (6D, 7F)
 There are    11 symmetry adapted cartesian basis functions of A1  symmetry.
 There are     0 symmetry adapted cartesian basis functions of A2  symmetry.
 There are     5 symmetry adapted cartesian basis functions of B1  symmetry.
 There are     3 symmetry adapted cartesian basis functions of B2  symmetry.
 There are    11 symmetry adapted basis functions of A1  symmetry.
 There are     0 symmetry adapted basis functions of A2  symmetry.
 There are     5 symmetry adapted basis functions of B1  symmetry.
 There are     3 symmetry adapted basis functions of B2  symmetry.
    19 basis functions,    36 primitive gaussians,    19 cartesian basis functions
     8 alpha electrons        8 beta electrons
       nuclear repulsion energy        13.3890679541 Hartrees.
 NAtoms=    4 NActive=    4 NUniq=    2 SFac= 4.00D+00 NAtFMM=   60 NAOKFM=F Big=F
 Integral buffers will be    131072 words long.
 Raffenetti 1 integral format.
 Two-electron integral symmetry is turned on.
 One-electron integrals computed using PRISM.
 NBasis=    19 RedAO= T EigKep=  8.75D-02  NBF=    11     0     5     3
 NBsUse=    19 1.00D-06 EigRej= -1.00D+00 NBFU=    11     0     5     3
 Initial guess from the checkpoint file:  "AlH3.chk"
 B after Tr=     0.000000    0.000000    0.000000
         Rot=    1.000000    0.000000    0.000000    0.000000 Ang=   0.00 deg.
 Initial guess orbital symmetries:
       Occupied  (A1') (A1') (A2") (E') (E') (A1') (E') (E')
       Virtual   (A2") (E') (E') (A1') (A1') (A2") (E') (E') (A1')
                 (E') (E')
 Keep R1 ints in memory in symmetry-blocked form, NReq=823802.
 Requested convergence on RMS density matrix=1.00D-08 within 128 cycles.
 Requested convergence on MAX density matrix=1.00D-06.
 Requested convergence on             energy=1.00D-06.
 No special actions if energy rises.
 SCF Done:  E(RHF) =  -242.284026821     A.U. after    5 cycles
            NFock=  5  Conv=0.86D-08     -V/T= 2.0011
 ExpMin= 6.39D-02 ExpMax= 7.76D+02 ExpMxC= 7.76D+02 IAcc=3 IRadAn=         5 AccDes= 0.00D+00
 HarFok:  IExCor=  205 AccDes= 0.00D+00 IRadAn=         5 IDoV=-2 UseB2=F ITyADJ=14
 ICtDFT= 12500011 ScaDFX=  1.000000  1.000000  1.000000  1.000000
 Range of M.O.s used for correlation:     6    19
 NBasis=    19 NAE=     8 NBE=     8 NFC=     5 NFV=     0
 NROrb=     14 NOA=     3 NOB=     3 NVA=    11 NVB=    11
 Fully direct method using O(ONN) memory.
 JobTyp=1 Pass  1:  I=   6 to   8 NPSUse=  1 ParTrn=F ParDer=F DoDerP=T.
 Spin components of T(2) and E(2):
     alpha-alpha T2 =       0.5612262960D-03 E2=     -0.8466205941D-03
     alpha-beta  T2 =       0.2157413344D-01 E2=     -0.4054270538D-01
     beta-beta   T2 =       0.5612262960D-03 E2=     -0.8466205941D-03
 ANorm=    0.1011284622D+01
 E2 =    -0.4223594657D-01 EUMP2 =    -0.24232626276721D+03
          IDoAtm=1111
          Differentiating once with respect to electric field.
                with respect to dipole field.
          Differentiating once with respect to nuclear coordinates.
 Keep R1 ints in memory in symmetry-blocked form, NReq=824525.
          There are     1 degrees of freedom in the 1st order CPHF.  IDoFFX=0 NUNeed=     1.
 LinEq1:  Iter=  0 NonCon=     1 RMS=5.36D-03 Max=2.86D-02 NDo=     1
 AX will form     1 AO Fock derivatives at one time.
 LinEq1:  Iter=  1 NonCon=     1 RMS=4.30D-04 Max=1.69D-03 NDo=     1
 LinEq1:  Iter=  2 NonCon=     1 RMS=2.07D-05 Max=8.59D-05 NDo=     1
 LinEq1:  Iter=  3 NonCon=     1 RMS=2.89D-06 Max=1.38D-05 NDo=     1
 LinEq1:  Iter=  4 NonCon=     1 RMS=1.32D-07 Max=9.26D-07 NDo=     1
 LinEq1:  Iter=  5 NonCon=     1 RMS=2.22D-09 Max=1.13D-08 NDo=     1
 LinEq1:  Iter=  6 NonCon=     1 RMS=1.05D-10 Max=4.59D-10 NDo=     1
 LinEq1:  Iter=  7 NonCon=     0 RMS=8.06D-12 Max=3.93D-11 NDo=     1
 Linear equations converged to 1.000D-10 1.000D-09 after     7 iterations.
 End of Minotr F.D. properties file   721 does not exist.
 End of Minotr F.D. properties file   722 does not exist.
 End of Minotr F.D. properties file   788 does not exist.
 Calling FoFJK, ICntrl=  10002127 FMM=F ISym2X=1 I1Cent= 0 IOpClX= 0 NMat=1 NMatS=1 NMatT=0.
 ***** Axes restored to original set *****
 -------------------------------------------------------------------
 Center     Atomic                   Forces (Hartrees/Bohr)
 Number     Number              X              Y              Z
 -------------------------------------------------------------------
      1       13          -0.000000000   -0.000000000   -0.000000000
      2        1           0.000000000    0.000000469   -0.000000000
      3        1           0.000000406   -0.000000234    0.000000000
      4        1          -0.000000406   -0.000000234   -0.000000000
 -------------------------------------------------------------------
 Cartesian Forces:  Max     0.000000469 RMS     0.000000234

 GradGradGradGradGradGradGradGradGradGradGradGradGradGradGradGradGradGrad
 Berny optimization.
 Using GEDIIS/GDIIS optimizer.
 FormGI is forming the generalized inverse of G from B-inverse, IUseBI=4.
 Internal  Forces:  Max     0.000000469 RMS     0.000000307
 Search for a local minimum.
 Step number   3 out of a maximum of   20
 All quantities printed in internal units (Hartrees-Bohrs-Radians)
 Mixed Optimization -- En-DIIS/RFO-DIIS
 Swapping is turned off.
 Update second derivatives using D2CorX and points    1    2    3
 DE= -1.23D-06 DEPred=-1.08D-06 R= 1.14D+00
 TightC=F SS=  1.41D+00  RLast= 4.18D-03 DXNew= 8.4853D-01 1.2548D-02
 Trust test= 1.14D+00 RLast= 4.18D-03 DXMaxT set to 5.05D-01
 The second derivative matrix:
                          R1        R2        R3        A1        A2
           R1           0.14583
           R2          -0.00260   0.14583
           R3          -0.00260  -0.00260   0.14583
           A1           0.00000   0.00000   0.00000   0.16000
           A2          -0.00000  -0.00000  -0.00000  -0.00000   0.16000
           A3          -0.00000  -0.00000  -0.00000  -0.00000   0.00000
           D1          -0.00000  -0.00000  -0.00000  -0.00000   0.00000
                          A3        D1
           A3           0.16000
           D1           0.00000   0.01163
 ITU=  1  1  0
     Eigenvalues ---    0.01163   0.14063   0.14842   0.14842   0.16000
     Eigenvalues ---    0.16000
 En-DIIS/RFO-DIIS/Sim-DIIS IScMMF=       -3 using points:     3    2
 RFO step:  Lambda=-3.68075308D-12.
 DidBck=F Rises=F RFO-DIIS coefs:    0.99862    0.00138
 Iteration  1 RMS(Cart)=  0.00000218 RMS(Int)=  0.00000000
 Iteration  2 RMS(Cart)=  0.00000000 RMS(Int)=  0.00000000
 ClnCor:  largest displacement from symmetrization is 3.16D-13 for atom     1.
 Variable       Old X    -DE/DX   Delta X   Delta X   Delta X     New X
                                 (Linear)    (Quad)   (Total)
    R1        3.04219   0.00000   0.00000   0.00000   0.00000   3.04219
    R2        3.04219   0.00000   0.00000   0.00000   0.00000   3.04219
    R3        3.04219   0.00000   0.00000  -0.00000   0.00000   3.04219
    A1        2.09440  -0.00000   0.00000  -0.00000   0.00000   2.09440
    A2        2.09440   0.00000   0.00000   0.00000   0.00000   2.09440
    A3        2.09440   0.00000   0.00000   0.00000   0.00000   2.09440
    D1        3.14159   0.00000  -0.00000   0.00000   0.00000   3.14159
         Item               Value     Threshold  Converged?
 Maximum Force            0.000000     0.000450     YES
 RMS     Force            0.000000     0.000300     YES
 Maximum Displacement     0.000003     0.001800     YES
 RMS     Displacement     0.000002     0.001200     YES
 Predicted change in Energy=-2.342496D-12
 Optimization completed.
    -- Stationary point found.
                           ----------------------------
                           !   Optimized Parameters   !
                           ! (Angstroms and Degrees)  !
 --------------------------                            --------------------------
 ! Name  Definition              Value          Derivative Info.                !
 --------------------------------------------------------------------------------
 ! R1    R(1,2)                  1.6099         -DE/DX =    0.0                 !
 ! R2    R(1,3)                  1.6099         -DE/DX =    0.0                 !
 ! R3    R(1,4)                  1.6099         -DE/DX =    0.0                 !
 ! A1    A(2,1,3)              120.0            -DE/DX =    0.0                 !
 ! A2    A(2,1,4)              120.0            -DE/DX =    0.0                 !
 ! A3    A(3,1,4)              120.0            -DE/DX =    0.0                 !
 ! D1    D(2,1,4,3)            180.0            -DE/DX =    0.0                 !
 --------------------------------------------------------------------------------
 GradGradGradGradGradGradGradGradGradGradGradGradGradGradGradGradGradGrad

                          Input orientation:                          
 ---------------------------------------------------------------------
 Center     Atomic      Atomic             Coordinates (Angstroms)
 Number     Number       Type             X           Y           Z
 ---------------------------------------------------------------------
      1         13           0       -0.000000   -0.000000   -0.000000
      2          1           0        0.000000    1.609856   -0.000000
      3          1           0        1.394176   -0.804928   -0.000000
      4          1           0       -1.394176   -0.804928   -0.000000
 ---------------------------------------------------------------------
                    Distance matrix (angstroms):
                    1          2          3          4
     1  Al   0.000000
     2  H    1.609856   0.000000
     3  H    1.609856   2.788353   0.000000
     4  H    1.609856   2.788353   2.788353   0.000000
 Stoichiometry    AlH3
 Framework group  D3H[O(Al),3C2(H)]
 Deg. of freedom     1
 Full point group                 D3H     NOp  12
 Largest Abelian subgroup         C2V     NOp   4
 Largest concise Abelian subgroup C2      NOp   2
                         Standard orientation:                         
 ---------------------------------------------------------------------
 Center     Atomic      Atomic             Coordinates (Angstroms)
 Number     Number       Type             X           Y           Z
 ---------------------------------------------------------------------
      1         13           0        0.000000    0.000000    0.000000
      2          1           0        0.000000    1.609856    0.000000
      3          1           0        1.394176   -0.804928    0.000000
      4          1           0       -1.394176   -0.804928    0.000000
 ---------------------------------------------------------------------
 Rotational constants (GHZ):         128.9931563         128.9931563          64.4965781

 **********************************************************************

            Population analysis using the SCF Density.

 **********************************************************************

 Orbital symmetries:
       Occupied  (A1') (A1') (A2") (E') (E') (A1') (E') (E')
       Virtual   (A2") (E') (E') (A1') (A1') (A2") (E') (E') (A1')
                 (E') (E')
 The electronic state is 1-A1'.
 Alpha  occ. eigenvalues --  -58.06218  -4.87372  -3.17742  -3.17597  -3.17597
 Alpha  occ. eigenvalues --   -0.57064  -0.42528  -0.42528
 Alpha virt. eigenvalues --    0.03036   0.17826   0.17826   0.18951   0.29113
 Alpha virt. eigenvalues --    0.36991   0.38749   0.38749   1.33738   1.37496
 Alpha virt. eigenvalues --    1.37496
          Condensed to atoms (all electrons):
               1          2          3          4
     1  Al  11.132761   0.359010   0.359010   0.359010
     2  H    0.359010   0.922300  -0.008953  -0.008953
     3  H    0.359010  -0.008953   0.922300  -0.008953
     4  H    0.359010  -0.008953  -0.008953   0.922300
 Mulliken charges:
               1
     1  Al   0.790210
     2  H   -0.263403
     3  H   -0.263403
     4  H   -0.263403
 Sum of Mulliken charges =  -0.00000
 Mulliken charges with hydrogens summed into heavy atoms:
               1
     1  Al  -0.000000
 Electronic spatial extent (au):  <R**2>=             65.3657
 Charge=              0.0000 electrons
 Dipole moment (field-independent basis, Debye):
    X=              0.0000    Y=             -0.0000    Z=             -0.0000  Tot=              0.0000
 Quadrupole moment (field-independent basis, Debye-Ang):
   XX=            -19.4760   YY=            -19.4760   ZZ=            -11.6227
   XY=             -0.0000   XZ=             -0.0000   YZ=              0.0000
 Traceless Quadrupole moment (field-independent basis, Debye-Ang):
   XX=             -2.6178   YY=             -2.6178   ZZ=              5.2356
   XY=             -0.0000   XZ=             -0.0000   YZ=              0.0000
 Octapole moment (field-independent basis, Debye-Ang**2):
  XXX=              0.0000  YYY=             -3.9667  ZZZ=             -0.0000  XYY=              0.0000
  XXY=              3.9667  XXZ=              0.0000  XZZ=              0.0000  YZZ=             -0.0000
  YYZ=             -0.0000  XYZ=              0.0000
 Hexadecapole moment (field-independent basis, Debye-Ang**3):
 XXXX=            -67.3110 YYYY=            -67.3110 ZZZZ=            -13.7091 XXXY=             -0.0000
 XXXZ=             -0.0000 YYYX=              0.0000 YYYZ=              0.0000 ZZZX=             -0.0000
 ZZZY=              0.0000 XXYY=            -22.4370 XXZZ=            -12.3791 YYZZ=            -12.3791
 XXYZ=              0.0000 YYXZ=             -0.0000 ZZXY=              0.0000
 N-N= 1.338906795409D+01 E-N=-6.056015078617D+02  KE= 2.420282238387D+02
 Symmetry A1   KE= 2.018077323264D+02
 Symmetry A2   KE= 0.000000000000D+00
 Symmetry B1   KE= 2.076052395805D+01
 Symmetry B2   KE= 1.945996755417D+01
 Unable to Open any file for archive entry.
 1\1\GINC-BS001\FOpt\RMP2-FC\3-21G\Al1H3\PNATT\10-Aug-2026\0\\# opt fre
 q=hpmodes mp2/3-21g geom=connectivity\\Title Card Required\\0,1\Al,0.,
 0.,0.\H,0.0000000021,1.6098561241,0.\H,1.3941762988,-0.8049280639,0.\H
 ,-1.394176301,-0.8049280602,0.\\Version=ES64L-G16RevC.01\State=1-A1'\H
 F=-242.2840268\MP2=-242.3262628\RMSD=8.597e-09\RMSF=2.343e-07\Dipole=0
 .,0.,0.\PG=D03H [O(Al1),3C2(H1)]\\@
 The archive entry for this job was punched.


 WISDOM IS KNOWING WHAT TO DO,
 SKILL IS KNOWING HOW TO DO IT,
 AND VIRTUE IS NOT DOING IT.
 Job cpu time:       0 days  0 hours  0 minutes  3.1 seconds.
 Elapsed time:       0 days  0 hours  0 minutes  2.9 seconds.
 File lengths (MBytes):  RWF=      6 Int=      0 D2E=      0 Chk=      1 Scr=      1
 Normal termination of Gaussian 16 at Mon Aug 10 15:49:14 2026.
 Link1:  Proceeding to internal job step number  2.
 -------------------------------------------------------------------
 #N Geom=AllCheck Guess=TCheck SCRF=Check GenChk RMP2(FC)/3-21G Freq
 -------------------------------------------------------------------
 1/10=4,29=7,30=1,38=1,40=1/1,3;
 2/12=2,40=1/2;
 3/5=5,11=1,14=-4,25=1,30=1,70=2,71=2,116=1,140=1/1,2,3;
 4/5=101/1;
 5/5=2,38=6,98=1/2;
 8/6=3,8=1,10=1,19=11,30=-1/1;
 9/15=3,16=-3/6;
 11/6=1,8=1,15=11,17=12,24=-1,27=1,28=-2,29=300,32=6,42=3/1,2,10;
 10/6=2,21=1/2;
 8/6=4,8=1,10=1,19=11,30=-1/11,4;
 10/5=1,20=4/2;
 11/12=2,14=11,16=1,17=2,28=-2,42=3,76=2/2,10,12;
 6/7=2,8=2,9=2,10=2/1;
 7/8=11,10=1,12=2,25=1,44=2/1,2,3,16;
 1/10=4,30=1/3;
 99//99;
 Structure from the checkpoint file:  "AlH3.chk"
 -------------------
 Title Card Required
 -------------------
 Charge =  0 Multiplicity = 1
 Redundant internal coordinates found in file.  (old form).
 Al,0,0.,0.,0.
 H,0,0.0000000021,1.6098561241,0.
 H,0,1.3941762988,-0.8049280639,0.
 H,0,-1.394176301,-0.8049280602,0.
 Recover connectivity data from disk.

 GradGradGradGradGradGradGradGradGradGradGradGradGradGradGradGradGradGrad
 Berny optimization.
 Initialization pass.
                           ----------------------------
                           !    Initial Parameters    !
                           ! (Angstroms and Degrees)  !
 --------------------------                            --------------------------
 ! Name  Definition              Value          Derivative Info.                !
 --------------------------------------------------------------------------------
 ! R1    R(1,2)                  1.6099         calculate D2E/DX2 analytically  !
 ! R2    R(1,3)                  1.6099         calculate D2E/DX2 analytically  !
 ! R3    R(1,4)                  1.6099         calculate D2E/DX2 analytically  !
 ! A1    A(2,1,3)              120.0            calculate D2E/DX2 analytically  !
 ! A2    A(2,1,4)              120.0            calculate D2E/DX2 analytically  !
 ! A3    A(3,1,4)              120.0            calculate D2E/DX2 analytically  !
 ! D1    D(2,1,4,3)            180.0            calculate D2E/DX2 analytically  !
 --------------------------------------------------------------------------------
 Trust Radius=3.00D-01 FncErr=1.00D-07 GrdErr=1.00D-07 EigMax=2.50D+02 EigMin=1.00D-04
 Number of steps in this run=      2 maximum allowed number of steps=      2.
 GradGradGradGradGradGradGradGradGradGradGradGradGradGradGradGradGradGrad

                          Input orientation:                          
 ---------------------------------------------------------------------
 Center     Atomic      Atomic             Coordinates (Angstroms)
 Number     Number       Type             X           Y           Z
 ---------------------------------------------------------------------
      1         13           0       -0.000000   -0.000000   -0.000000
      2          1           0        0.000000    1.609856   -0.000000
      3          1           0        1.394176   -0.804928   -0.000000
      4          1           0       -1.394176   -0.804928   -0.000000
 ---------------------------------------------------------------------
                    Distance matrix (angstroms):
                    1          2          3          4
     1  Al   0.000000
     2  H    1.609856   0.000000
     3  H    1.609856   2.788353   0.000000
     4  H    1.609856   2.788353   2.788353   0.000000
 Stoichiometry    AlH3
 Framework group  D3H[O(Al),3C2(H)]
 Deg. of freedom     1
 Full point group                 D3H     NOp  12
 Largest Abelian subgroup         C2V     NOp   4
 Largest concise Abelian subgroup C2      NOp   2
                         Standard orientation:                         
 ---------------------------------------------------------------------
 Center     Atomic      Atomic             Coordinates (Angstroms)
 Number     Number       Type             X           Y           Z
 ---------------------------------------------------------------------
      1         13           0        0.000000    0.000000    0.000000
      2          1           0        0.000000    1.609856    0.000000
      3          1           0        1.394176   -0.804928    0.000000
      4          1           0       -1.394176   -0.804928    0.000000
 ---------------------------------------------------------------------
 Rotational constants (GHZ):         128.9931563         128.9931563          64.4965781
 Standard basis: 3-21G (6D, 7F)
 There are    11 symmetry adapted cartesian basis functions of A1  symmetry.
 There are     0 symmetry adapted cartesian basis functions of A2  symmetry.
 There are     5 symmetry adapted cartesian basis functions of B1  symmetry.
 There are     3 symmetry adapted cartesian basis functions of B2  symmetry.
 There are    11 symmetry adapted basis functions of A1  symmetry.
 There are     0 symmetry adapted basis functions of A2  symmetry.
 There are     5 symmetry adapted basis functions of B1  symmetry.
 There are     3 symmetry adapted basis functions of B2  symmetry.
    19 basis functions,    36 primitive gaussians,    19 cartesian basis functions
     8 alpha electrons        8 beta electrons
       nuclear repulsion energy        13.3890679541 Hartrees.
 NAtoms=    4 NActive=    4 NUniq=    2 SFac= 4.00D+00 NAtFMM=   60 NAOKFM=F Big=F
 Integral buffers will be    131072 words long.
 Raffenetti 1 integral format.
 Two-electron integral symmetry is turned on.
 One-electron integrals computed using PRISM.
 NBasis=    19 RedAO= T EigKep=  8.75D-02  NBF=    11     0     5     3
 NBsUse=    19 1.00D-06 EigRej= -1.00D+00 NBFU=    11     0     5     3
 Initial guess from the checkpoint file:  "AlH3.chk"
 B after Tr=     0.000000   -0.000000    0.000000
         Rot=    1.000000    0.000000    0.000000    0.000000 Ang=   0.00 deg.
 Initial guess orbital symmetries:
       Occupied  (A1') (A1') (A2") (E') (E') (A1') (E') (E')
       Virtual   (A2") (E') (E') (A1') (A1') (A2") (E') (E') (A1')
                 (E') (E')
 Keep R1 ints in memory in symmetry-blocked form, NReq=823802.
 Requested convergence on RMS density matrix=1.00D-08 within 128 cycles.
 Requested convergence on MAX density matrix=1.00D-06.
 Requested convergence on             energy=1.00D-06.
 No special actions if energy rises.
 SCF Done:  E(RHF) =  -242.284026821     A.U. after    1 cycles
            NFock=  1  Conv=0.13D-08     -V/T= 2.0011
 ExpMin= 6.39D-02 ExpMax= 7.76D+02 ExpMxC= 7.76D+02 IAcc=3 IRadAn=         5 AccDes= 0.00D+00
 HarFok:  IExCor=  205 AccDes= 0.00D+00 IRadAn=         5 IDoV=-2 UseB2=F ITyADJ=14
 ICtDFT= 12500011 ScaDFX=  1.000000  1.000000  1.000000  1.000000
 Range of M.O.s used for correlation:     6    19
 NBasis=    19 NAE=     8 NBE=     8 NFC=     5 NFV=     0
 NROrb=     14 NOA=     3 NOB=     3 NVA=    11 NVB=    11
 Disk-based method using ON**2 memory for  3 occupieds at a time.
 Permanent disk used for amplitudes=        9284 words.
 Estimated scratch disk usage=      802450 words.
 Actual    scratch disk usage=      802450 words.
 JobTyp=1 Pass  1:  I=   6 to   8 NPSUse=  1 ParTrn=F ParDer=F DoDerP=T.
 (rs|ai) integrals will be sorted in core.
 Spin components of T(2) and E(2):
     alpha-alpha T2 =       0.5612262814D-03 E2=     -0.8466205754D-03
     alpha-beta  T2 =       0.2157413343D-01 E2=     -0.4054270536D-01
     beta-beta   T2 =       0.5612262814D-03 E2=     -0.8466205754D-03
 ANorm=    0.1011284622D+01
 E2 =    -0.4223594651D-01 EUMP2 =    -0.24232626276715D+03
 G2DrvN: will do     5 centers at a time, making    1 passes.
 Calling FoFCou, ICntrl=  3107 FMM=F I1Cent=   0 AccDes= 0.00D+00.
 End of G2Drv F.D. properties file   721 does not exist.
 End of G2Drv F.D. properties file   722 does not exist.
 End of G2Drv F.D. properties file   788 does not exist.
          IDoAtm=1111
          Differentiating once with respect to electric field.
                with respect to dipole field.
          Differentiating once with respect to nuclear coordinates.
 Keep R1 ints in memory in symmetry-blocked form, NReq=824438.
          There are    15 degrees of freedom in the 1st order CPHF.  IDoFFX=6 NUNeed=    15.
     12 vectors produced by pass  0 Test12= 5.87D-16 6.67D-09 XBig12= 7.24D+00 1.90D+00.
 AX will form    12 AO Fock derivatives at one time.
     12 vectors produced by pass  1 Test12= 5.87D-16 6.67D-09 XBig12= 1.03D-02 6.66D-02.
     12 vectors produced by pass  2 Test12= 5.87D-16 6.67D-09 XBig12= 1.28D-05 1.42D-03.
     12 vectors produced by pass  3 Test12= 5.87D-16 6.67D-09 XBig12= 1.25D-07 1.44D-04.
     11 vectors produced by pass  4 Test12= 5.87D-16 6.67D-09 XBig12= 2.63D-10 7.11D-06.
      3 vectors produced by pass  5 Test12= 5.87D-16 6.67D-09 XBig12= 8.89D-14 1.68D-07.
 InvSVY:  IOpt=1 It=  1 EMax= 4.44D-16
 Solved reduced A of dimension    62 with    12 vectors.
 End of Minotr F.D. properties file   721 does not exist.
 End of Minotr F.D. properties file   722 does not exist.
 End of Minotr F.D. properties file   788 does not exist.
 MDV=   104857600.
 Form MO integral derivatives with frozen-active canonical formalism.
 Discarding MO integrals.
 Reordered first order wavefunction length =        15488
 In DefCFB: NBatch=  1 ICI=  8 ICA= 11 LFMax= 11
            Large arrays: LIAPS=      127072 LIARS=      152152 words.
 Semi-Direct transformation.
 ModeAB=           4 MOrb=             8 LenV=     104732343
 LASXX=        16994 LTotXX=       16994 LenRXX=       37386
 LTotAB=       20392 MaxLAS=       26448 LenRXY=           0
 NonZer=       54380 LenScr=      785920 LnRSAI=       26448
 LnScr1=      785920 LExtra=           0 Total=      1635674
 MaxDsk=          -1 SrtSym=           T ITran=            4
 JobTyp=0 Pass  1:  I=   1 to   8.
 (rs|ai) integrals will be sorted in core.
 Spin components of T(2) and E(2):
     alpha-alpha T2 =       0.5612262814D-03 E2=     -0.8466205754D-03
     alpha-beta  T2 =       0.2157413343D-01 E2=     -0.4054270536D-01
     beta-beta   T2 =       0.5612262814D-03 E2=     -0.8466205754D-03
 ANorm=    0.1430172427D+01
 E2 =    -0.4223594651D-01 EUMP2 =    -0.24232626276715D+03
          IDoAtm=1111
          Differentiating once with respect to electric field.
                with respect to dipole field.
          Differentiating once with respect to nuclear coordinates.
          There are     1 degrees of freedom in the 1st order CPHF.  IDoFFX=0 NUNeed=     1.
 LinEq1:  Iter=  0 NonCon=     1 RMS=5.36D-03 Max=2.86D-02 NDo=     1
 LinEq1:  Iter=  1 NonCon=     1 RMS=4.30D-04 Max=1.69D-03 NDo=     1
 LinEq1:  Iter=  2 NonCon=     1 RMS=2.07D-05 Max=8.59D-05 NDo=     1
 LinEq1:  Iter=  3 NonCon=     1 RMS=2.89D-06 Max=1.38D-05 NDo=     1
 LinEq1:  Iter=  4 NonCon=     1 RMS=1.32D-07 Max=9.26D-07 NDo=     1
 LinEq1:  Iter=  5 NonCon=     1 RMS=2.22D-09 Max=1.13D-08 NDo=     1
 LinEq1:  Iter=  6 NonCon=     1 RMS=1.05D-10 Max=4.59D-10 NDo=     1
 LinEq1:  Iter=  7 NonCon=     0 RMS=8.06D-12 Max=3.93D-11 NDo=     1
 Linear equations converged to 1.000D-10 1.000D-09 after     7 iterations.
 End of Minotr F.D. properties file   721 does not exist.
 End of Minotr F.D. properties file   722 does not exist.
 End of Minotr F.D. properties file   788 does not exist.
 Symmetrizing basis deriv contribution to polar:
 IMax=3 JMax=2 DiffMx= 0.00D+00
 G2DrvN: will do     5 centers at a time, making    1 passes.
 Calling FoFCou, ICntrl=  3107 FMM=F I1Cent=   0 AccDes= 0.00D+00.
 End of G2Drv F.D. properties file   721 does not exist.
 End of G2Drv F.D. properties file   722 does not exist.
 End of G2Drv F.D. properties file   788 does not exist.
 R2 and R3 integrals will be kept in memory, NReq=      836290.
 DD1Dir will call FoFMem   1 times, MxPair=        72
 NAB=    36 NAA=     0 NBB=     0.
 Discarding MO integrals.

 **********************************************************************

            Population analysis using the SCF Density.

 **********************************************************************

 Orbital symmetries:
       Occupied  (A1') (A1') (A2") (E') (E') (A1') (E') (E')
       Virtual   (A2") (E') (E') (A1') (A1') (A2") (E') (E') (A1')
                 (E') (E')
 The electronic state is 1-A1'.
 Alpha  occ. eigenvalues --  -58.06218  -4.87372  -3.17742  -3.17597  -3.17597
 Alpha  occ. eigenvalues --   -0.57064  -0.42528  -0.42528
 Alpha virt. eigenvalues --    0.03036   0.17826   0.17826   0.18951   0.29113
 Alpha virt. eigenvalues --    0.36991   0.38749   0.38749   1.33738   1.37496
 Alpha virt. eigenvalues --    1.37496
          Condensed to atoms (all electrons):
               1          2          3          4
     1  Al  11.132761   0.359010   0.359010   0.359010
     2  H    0.359010   0.922300  -0.008953  -0.008953
     3  H    0.359010  -0.008953   0.922300  -0.008953
     4  H    0.359010  -0.008953  -0.008953   0.922300
 Mulliken charges:
               1
     1  Al   0.790210
     2  H   -0.263403
     3  H   -0.263403
     4  H   -0.263403
 Sum of Mulliken charges =   0.00000
 Mulliken charges with hydrogens summed into heavy atoms:
               1
     1  Al   0.000000
 APT charges:
               1
     1  Al   1.164507
     2  H   -0.388169
     3  H   -0.388169
     4  H   -0.388169
 Sum of APT charges =   0.00000
 APT charges with hydrogens summed into heavy atoms:
               1
     1  Al   0.000000
 Electronic spatial extent (au):  <R**2>=             65.3657
 Charge=              0.0000 electrons
 Dipole moment (field-independent basis, Debye):
    X=              0.0000    Y=              0.0000    Z=              0.0000  Tot=              0.0000
 Quadrupole moment (field-independent basis, Debye-Ang):
   XX=            -19.4760   YY=            -19.4760   ZZ=            -11.6227
   XY=              0.0000   XZ=              0.0000   YZ=              0.0000
 Traceless Quadrupole moment (field-independent basis, Debye-Ang):
   XX=             -2.6178   YY=             -2.6178   ZZ=              5.2356
   XY=              0.0000   XZ=              0.0000   YZ=              0.0000
 Octapole moment (field-independent basis, Debye-Ang**2):
  XXX=              0.0000  YYY=             -3.9667  ZZZ=              0.0000  XYY=             -0.0000
  XXY=              3.9667  XXZ=              0.0000  XZZ=              0.0000  YZZ=              0.0000
  YYZ=             -0.0000  XYZ=             -0.0000
 Hexadecapole moment (field-independent basis, Debye-Ang**3):
 XXXX=            -67.3110 YYYY=            -67.3110 ZZZZ=            -13.7091 XXXY=              0.0000
 XXXZ=              0.0000 YYYX=              0.0000 YYYZ=              0.0000 ZZZX=              0.0000
 ZZZY=              0.0000 XXYY=            -22.4370 XXZZ=            -12.3791 YYZZ=            -12.3791
 XXYZ=              0.0000 YYXZ=              0.0000 ZZXY=              0.0000
 N-N= 1.338906795409D+01 E-N=-6.056015078777D+02  KE= 2.420282238481D+02
 Symmetry A1   KE= 2.018077323344D+02
 Symmetry A2   KE= 0.000000000000D+00
 Symmetry B1   KE= 2.076052395541D+01
 Symmetry B2   KE= 1.945996755834D+01
  Exact polarizability:      25.980      -0.000      25.980       0.000      -0.000      13.190
 Approx polarizability:      19.792      -0.000      19.792      -0.000      -0.000       8.863
 Calling FoFJK, ICntrl=  10100127 FMM=F ISym2X=1 I1Cent= 0 IOpClX= 0 NMat=1 NMatS=1 NMatT=0.
 Full mass-weighted force constant matrix:
 Low frequencies ---   -2.0093   -2.0087   -2.0087   -0.0007    0.0034    0.0034
 Low frequencies ---  713.1189  779.9814  779.9814
 Diagonal vibrational polarizability:
       14.1952200      14.1952200      22.1932333
 Harmonic frequencies (cm**-1), IR intensities (KM/Mole), Raman scattering
 activities (A**4/AMU), depolarization ratios for plane and unpolarized
 incident light, reduced masses (AMU), force constants (mDyne/A),
 and normal coordinates:
                           1         2         3         4         5
                          A2"       E'        E'        A1'       E'
       Frequencies ---   713.1189  779.9814  779.9814 1922.5298 1935.7605
    Reduced masses ---     1.1161    1.0592    1.0592    1.0078    1.0592
   Force constants ---     0.3344    0.3797    0.3797    2.1947    2.3384
    IR Intensities ---   419.3835  281.8641  281.8641    0.0000  240.4712
 Coord Atom Element:
   1     1    13         -0.00000  -0.04062  -0.01816   0.00000  -0.01105
   2     1    13          0.00000   0.01816  -0.04062   0.00000  -0.04306
   3     1    13         -0.06456   0.00000   0.00000  -0.00000  -0.00000
   1     2     1          0.00000   0.74440   0.33280   0.00000  -0.00546
   2     2     1         -0.00000   0.00870  -0.01946   0.57735   0.78981
   3     2     1          0.57615  -0.00000  -0.00000   0.00000   0.00000
   1     3     1          0.00000   0.02363   0.40744   0.50000  -0.20058
   2     3     1          0.00000   0.08333   0.70131  -0.28868   0.09137
   3     3     1          0.57615  -0.00000  -0.00000   0.00000   0.00000
   1     4     1          0.00000   0.31938  -0.25409  -0.50000   0.50184
   2     4     1         -0.00000  -0.57819   0.40556  -0.28868   0.27161
   3     4     1          0.57615  -0.00000  -0.00000   0.00000   0.00000
                           6
                          E'
       Frequencies ---  1935.7605
    Reduced masses ---     1.0592
   Force constants ---     2.3384
    IR Intensities ---   240.4712
 Coord Atom Element:
   1     1    13         -0.04306
   2     1    13          0.01105
   3     1    13          0.00000
   1     2     1         -0.02129
   2     2     1         -0.20266
   3     2     1         -0.00000
   1     3     1          0.67715
   2     3     1         -0.39778
   3     3     1         -0.00000
   1     4     1          0.49691
   2     4     1          0.30464
   3     4     1         -0.00000
 Harmonic frequencies (cm**-1), IR intensities (KM/Mole), Raman scattering
 activities (A**4/AMU), depolarization ratios for plane and unpolarized
 incident light, reduced masses (AMU), force constants (mDyne/A),
 and normal coordinates:
                      1                      2                      3
                     A2"                    E'                     E'
 Frequencies --    713.1189               779.9814               779.9814
 Red. masses --      1.1161                 1.0592                 1.0592
 Frc consts  --      0.3344                 0.3797                 0.3797
 IR Inten    --    419.3835               281.8641               281.8641
  Atom  AN      X      Y      Z        X      Y      Z        X      Y      Z
     1  13    -0.00   0.00  -0.06    -0.04   0.02   0.00    -0.02  -0.04   0.00
     2   1     0.00  -0.00   0.58     0.74   0.01  -0.00     0.33  -0.02  -0.00
     3   1     0.00   0.00   0.58     0.02   0.08  -0.00     0.41   0.70  -0.00
     4   1     0.00  -0.00   0.58     0.32  -0.58  -0.00    -0.25   0.41  -0.00
                      4                      5                      6
                     A1'                    E'                     E'
 Frequencies --   1922.5298              1935.7605              1935.7605
 Red. masses --      1.0078                 1.0592                 1.0592
 Frc consts  --      2.1947                 2.3384                 2.3384
 IR Inten    --      0.0000               240.4712               240.4712
  Atom  AN      X      Y      Z        X      Y      Z        X      Y      Z
     1  13     0.00   0.00  -0.00    -0.01  -0.04  -0.00    -0.04   0.01   0.00
     2   1     0.00   0.58   0.00    -0.01   0.79   0.00    -0.02  -0.20  -0.00
     3   1     0.50  -0.29   0.00    -0.20   0.09   0.00     0.68  -0.40  -0.00
     4   1    -0.50  -0.29   0.00     0.50   0.27   0.00     0.50   0.30  -0.00

 -------------------
 - Thermochemistry -
 -------------------
 Temperature   298.150 Kelvin.  Pressure   1.00000 Atm.
 Atom     1 has atomic number 13 and mass  26.98154
 Atom     2 has atomic number  1 and mass   1.00783
 Atom     3 has atomic number  1 and mass   1.00783
 Atom     4 has atomic number  1 and mass   1.00783
 Molecular mass:    30.00502 amu.
 Principal axes and moments of inertia in atomic units:
                           1         2         3
     Eigenvalues --    13.99098  13.99098  27.98197
           X           -0.63399   0.77334   0.00000
           Y            0.77334   0.63399   0.00000
           Z           -0.00000   0.00000   1.00000
 This molecule is an oblate symmetric top.
 Rotational symmetry number  6.
 Rotational temperatures (Kelvin)      6.19070     6.19070     3.09535
 Rotational constants (GHZ):         128.99316   128.99316    64.49658
 Zero-point vibrational energy      48252.2 (Joules/Mol)
                                   11.53254 (Kcal/Mol)
 Vibrational temperatures:   1026.02  1122.22  1122.22  2766.09  2785.13
          (Kelvin)           2785.13
 
 Zero-point correction=                           0.018378 (Hartree/Particle)
 Thermal correction to Energy=                    0.021489
 Thermal correction to Enthalpy=                  0.022434
 Thermal correction to Gibbs Free Energy=        -0.001166
 Sum of electronic and zero-point Energies=           -242.307884
 Sum of electronic and thermal Energies=              -242.304773
 Sum of electronic and thermal Enthalpies=            -242.303829
 Sum of electronic and thermal Free Energies=         -242.327429
 
                     E (Thermal)             CV                S
                      KCal/Mol        Cal/Mol-Kelvin    Cal/Mol-Kelvin
 Total                   13.485              8.181             49.670
 Electronic               0.000              0.000              0.000
 Translational            0.889              2.981             36.130
 Rotational               0.889              2.981             12.796
 Vibrational             11.707              2.219              0.745
                       Q            Log10(Q)             Ln(Q)
 Total Bot       0.343911D+01          0.536446          1.235212
 Total V=0       0.976923D+09          8.989860         20.699918
 Vib (Bot)       0.381258D-08         -8.418781        -19.384959
 Vib (V=0)       0.108301D+01          0.034634          0.079747
 Electronic      0.100000D+01          0.000000          0.000000
 Translational   0.646018D+07          6.810245         15.681168
 Rotational      0.139631D+03          2.144982          4.939003
 ***** Axes restored to original set *****
 -------------------------------------------------------------------
 Center     Atomic                   Forces (Hartrees/Bohr)
 Number     Number              X              Y              Z
 -------------------------------------------------------------------
      1       13          -0.000000000    0.000000000    0.000000000
      2        1           0.000000000    0.000000469    0.000000000
      3        1           0.000000406   -0.000000234   -0.000000000
      4        1          -0.000000406   -0.000000234    0.000000000
 -------------------------------------------------------------------
 Cartesian Forces:  Max     0.000000469 RMS     0.000000234
 FormGI is forming the generalized inverse of G from B-inverse, IUseBI=4.

 GradGradGradGradGradGradGradGradGradGradGradGradGradGradGradGradGradGrad
 Berny optimization.
 Internal  Forces:  Max     0.000000469 RMS     0.000000307
 Search for a local minimum.
 Step number   1 out of a maximum of    2
 All quantities printed in internal units (Hartrees-Bohrs-Radians)
 Second derivative matrix not updated -- analytic derivatives used.
 The second derivative matrix:
                          R1        R2        R3        A1        A2
           R1           0.13741
           R2           0.00178   0.13741
           R3           0.00178   0.00178   0.13741
           A1           0.00248   0.00248  -0.00495   0.04549
           A2           0.00248  -0.00495   0.00248  -0.02274   0.04549
           A3          -0.00495   0.00248   0.00248  -0.02274  -0.02274
           D1           0.00000  -0.00000  -0.00000  -0.00000   0.00000
                          A3        D1
           A3           0.04549
           D1          -0.00000   0.04035
 ITU=  0
     Eigenvalues ---    0.04035   0.06742   0.06742   0.13645   0.13645
     Eigenvalues ---    0.14097
 Angle between quadratic step and forces=   0.00 degrees.
 Linear search not attempted -- first point.
 Iteration  1 RMS(Cart)=  0.00000218 RMS(Int)=  0.00000000
 Iteration  2 RMS(Cart)=  0.00000000 RMS(Int)=  0.00000000
 ClnCor:  largest displacement from symmetrization is 9.96D-14 for atom     4.
 Variable       Old X    -DE/DX   Delta X   Delta X   Delta X     New X
                                 (Linear)    (Quad)   (Total)
    R1        3.04219   0.00000   0.00000   0.00000   0.00000   3.04219
    R2        3.04219   0.00000   0.00000   0.00000   0.00000   3.04219
    R3        3.04219   0.00000   0.00000   0.00000   0.00000   3.04219
    A1        2.09440  -0.00000   0.00000  -0.00000   0.00000   2.09440
    A2        2.09440   0.00000   0.00000   0.00000   0.00000   2.09440
    A3        2.09440   0.00000   0.00000   0.00000   0.00000   2.09440
    D1        3.14159  -0.00000   0.00000   0.00000   0.00000   3.14159
         Item               Value     Threshold  Converged?
 Maximum Force            0.000000     0.000450     YES
 RMS     Force            0.000000     0.000300     YES
 Maximum Displacement     0.000003     0.001800     YES
 RMS     Displacement     0.000002     0.001200     YES
 Predicted change in Energy=-2.336371D-12
 Optimization completed.
    -- Stationary point found.
                           ----------------------------
                           !   Optimized Parameters   !
                           ! (Angstroms and Degrees)  !
 --------------------------                            --------------------------
 ! Name  Definition              Value          Derivative Info.                !
 --------------------------------------------------------------------------------
 ! R1    R(1,2)                  1.6099         -DE/DX =    0.0                 !
 ! R2    R(1,3)                  1.6099         -DE/DX =    0.0                 !
 ! R3    R(1,4)                  1.6099         -DE/DX =    0.0                 !
 ! A1    A(2,1,3)              120.0            -DE/DX =    0.0                 !
 ! A2    A(2,1,4)              120.0            -DE/DX =    0.0                 !
 ! A3    A(3,1,4)              120.0            -DE/DX =    0.0                 !
 ! D1    D(2,1,4,3)            180.0            -DE/DX =    0.0                 !
 --------------------------------------------------------------------------------
 GradGradGradGradGradGradGradGradGradGradGradGradGradGradGradGradGradGrad

 Dipole is zero, so no output in dipole orientation.

 ----------------------------------------------------------------------

 Electric dipole moment (input orientation):
 (Debye = 10**-18 statcoulomb cm , SI units = C m)
                  (au)            (Debye)         (10**-30 SI)
   Tot        0.000000D+00      0.000000D+00      0.000000D+00
   x          0.000000D+00      0.000000D+00      0.000000D+00
   y          0.000000D+00      0.000000D+00      0.000000D+00
   z          0.000000D+00      0.000000D+00      0.000000D+00

 Dipole polarizability, Alpha (input orientation).
 (esu units = cm**3 , SI units = C**2 m**2 J**-1)
 Alpha(0;0):
               (au)            (10**-24 esu)      (10**-40 SI)
   iso        0.217168D+02      0.321809D+01      0.358061D+01
   aniso      0.127903D+02      0.189533D+01      0.210884D+01
   xx         0.259802D+02      0.384987D+01      0.428355D+01
   yx         0.000000D+00      0.000000D+00      0.000000D+00
   yy         0.259802D+02      0.384987D+01      0.428355D+01
   zx         0.000000D+00      0.000000D+00      0.000000D+00
   zy         0.000000D+00      0.000000D+00      0.000000D+00
   zz         0.131899D+02      0.195454D+01      0.217472D+01

 ----------------------------------------------------------------------
 Unable to Open any file for archive entry.
 1\1\GINC-BS001\Freq\RMP2-FC\3-21G\Al1H3\PNATT\10-Aug-2026\0\\#N Geom=A
 llCheck Guess=TCheck SCRF=Check GenChk RMP2(FC)/3-21G Freq\\Title Card
  Required\\0,1\Al,0.,0.,0.\H,0.0000000021,1.6098561241,0.\H,1.39417629
 88,-0.8049280639,0.\H,-1.394176301,-0.8049280602,0.\\Version=ES64L-G16
 RevC.01\State=1-A1'\HF=-242.2840268\MP2=-242.3262628\RMSD=1.331e-09\RM
 SF=2.343e-07\ZeroPoint=0.0183783\Thermal=0.0214895\ETot=-242.3047733\H
 Tot=-242.3038291\GTot=-242.327429\Dipole=0.,0.,0.\DipoleDeriv=1.206018
 3,0.,0.,0.,1.2060183,0.,0.,0.,1.081483,-0.4186587,0.,0.,0.,-0.3853535,
 0.,0.,0.,-0.3604943,-0.3936798,-0.0144215,0.,-0.0144215,-0.4103324,0.,
 0.,0.,-0.3604943,-0.3936798,0.0144215,0.,0.0144215,-0.4103324,0.,0.,0.
 ,-0.3604943\Polar=25.9801874,0.,25.9801874,0.,0.,13.189876\PG=D03H [O(
 Al1),3C2(H1)]\NImag=0\\0.22393921,0.,0.22393921,0.,0.,0.05232324,-0.01
 788590,0.,0.,0.01474430,0.,-0.13140690,0.,0.,0.13741459,0.,0.,-0.01744
 108,0.,0.,0.00581359,-0.10302665,0.04915604,0.,0.00157080,0.00031771,0
 .,0.10674702,0.04915604,-0.04626615,0.,0.00760581,-0.00300384,0.,-0.05
 311780,0.04541187,0.,0.,-0.01744108,0.,0.,0.00581374,0.,0.,0.00581359,
 -0.10302665,-0.04915604,0.,0.00157080,-0.00031771,0.,-0.00529116,-0.00
 364405,0.,0.10674702,-0.04915604,-0.04626615,0.,-0.00760581,-0.0030038
 4,0.,0.00364405,0.00385812,0.,0.05311780,0.04541187,0.,0.,-0.01744108,
 0.,0.,0.00581374,0.,0.,0.00581374,0.,0.,0.00581359\\0.,0.,0.,0.,-0.000
 00047,0.,-0.00000041,0.00000023,0.,0.00000041,0.00000023,0.\\\@
 The archive entry for this job was punched.


 HE THAT IS UNAWARE OF HIS IGNORANCE WILL BE MISLED BY HIS KNOWLEDGE.

                                        -- WHATLEY
 Job cpu time:       0 days  0 hours  0 minutes  2.4 seconds.
 Elapsed time:       0 days  0 hours  0 minutes  2.3 seconds.
 File lengths (MBytes):  RWF=     20 Int=      0 D2E=      0 Chk=      1 Scr=      1
 Normal termination of Gaussian 16 at Mon Aug 10 15:49:16 2026.
