 Entering Gaussian System, Link 0=g16
 Input=B3N3H6.com
 Output=B3N3H6.log
 Initial command:
 /opt/g16/g16/l1.exe "/home/pnatt/scratch/Gau-2761545.inp" -scrdir="/home/pnatt/scratch/"
 Entering Link 1 = /opt/g16/g16/l1.exe PID=   2761547.
  
 Copyright (c) 1988-2019, Gaussian, Inc.  All Rights Reserved.
  
 This is part of the Gaussian(R) 16 program.  It is based on
 the Gaussian(R) 09 system (copyright 2009, Gaussian, Inc.),
 the Gaussian(R) 03 system (copyright 2003, Gaussian, Inc.),
 the Gaussian(R) 98 system (copyright 1998, Gaussian, Inc.),
 the Gaussian(R) 94 system (copyright 1995, Gaussian, Inc.),
 the Gaussian 92(TM) system (copyright 1992, Gaussian, Inc.),
 the Gaussian 90(TM) system (copyright 1990, Gaussian, Inc.),
 the Gaussian 88(TM) system (copyright 1988, Gaussian, Inc.),
 the Gaussian 86(TM) system (copyright 1986, Carnegie Mellon
 University), and the Gaussian 82(TM) system (copyright 1983,
 Carnegie Mellon University). Gaussian is a federally registered
 trademark of Gaussian, Inc.
  
 This software contains proprietary and confidential information,
 including trade secrets, belonging to Gaussian, Inc.
  
 This software is provided under written license and may be
 used, copied, transmitted, or stored only in accord with that
 written license.
  
 The following legend is applicable only to US Government
 contracts under FAR:
  
                    RESTRICTED RIGHTS LEGEND
  
 Use, reproduction and disclosure by the US Government is
 subject to restrictions as set forth in subparagraphs (a)
 and (c) of the Commercial Computer Software - Restricted
 Rights clause in FAR 52.227-19.
  
 Gaussian, Inc.
 340 Quinnipiac St., Bldg. 40, Wallingford CT 06492
  
  
 ---------------------------------------------------------------
 Warning -- This program may not be used in any manner that
 competes with the business of Gaussian, Inc. or will provide
 assistance to any competitor of Gaussian, Inc.  The licensee
 of this program is prohibited from giving any competitor of
 Gaussian, Inc. access to this program.  By using this program,
 the user acknowledges that Gaussian, Inc. is engaged in the
 business of creating and licensing software in the field of
 computational chemistry and represents and warrants to the
 licensee that it is not a competitor of Gaussian, Inc. and that
 it will not use this program in any manner prohibited above.
 ---------------------------------------------------------------
  

 Cite this work as:
 Gaussian 16, Revision C.01,
 M. J. Frisch, G. W. Trucks, H. B. Schlegel, G. E. Scuseria, 
 M. A. Robb, J. R. Cheeseman, G. Scalmani, V. Barone, 
 G. A. Petersson, H. Nakatsuji, X. Li, M. Caricato, A. V. Marenich, 
 J. Bloino, B. G. Janesko, R. Gomperts, B. Mennucci, H. P. Hratchian, 
 J. V. Ortiz, A. F. Izmaylov, J. L. Sonnenberg, D. Williams-Young, 
 F. Ding, F. Lipparini, F. Egidi, J. Goings, B. Peng, A. Petrone, 
 T. Henderson, D. Ranasinghe, V. G. Zakrzewski, J. Gao, N. Rega, 
 G. Zheng, W. Liang, M. Hada, M. Ehara, K. Toyota, R. Fukuda, 
 J. Hasegawa, M. Ishida, T. Nakajima, Y. Honda, O. Kitao, H. Nakai, 
 T. Vreven, K. Throssell, J. A. Montgomery, Jr., J. E. Peralta, 
 F. Ogliaro, M. J. Bearpark, J. J. Heyd, E. N. Brothers, K. N. Kudin, 
 V. N. Staroverov, T. A. Keith, R. Kobayashi, J. Normand, 
 K. Raghavachari, A. P. Rendell, J. C. Burant, S. S. Iyengar, 
 J. Tomasi, M. Cossi, J. M. Millam, M. Klene, C. Adamo, R. Cammi, 
 J. W. Ochterski, R. L. Martin, K. Morokuma, O. Farkas, 
 J. B. Foresman, and D. J. Fox, Gaussian, Inc., Wallingford CT, 2019.
 
 ******************************************
 Gaussian 16:  ES64L-G16RevC.01  3-Jul-2019
                 6-Aug-2026 
 ******************************************
 %chk=B3N3H6.chk
 ----------------------------------------------------
 # opt=tight freq=hpmodes mp2/3-21g geom=connectivity
 ----------------------------------------------------
 1/7=10,18=20,19=15,38=1,57=2/1,3;
 2/9=110,12=2,17=6,18=5,40=1/2;
 3/5=5,11=9,25=1,30=1,71=1/1,2,3;
 4//1;
 5/5=2,38=5/2;
 8/6=4,10=1/1;
 9/15=2,16=-3/6;
 10/5=1/2;
 6/7=2,8=2,9=2,10=2/1;
 7/12=2/1,2,3,16;
 1/7=10,18=20,19=15/3(2);
 2/9=110/2;
 99//99;
 2/9=110/2;
 3/5=5,11=9,25=1,30=1,71=1/1,2,3;
 4/5=5,16=3,69=1/1;
 5/5=2,38=5/2;
 8/6=4,10=1/1;
 9/15=2,16=-3/6;
 10/5=1/2;
 7/12=2/1,2,3,16;
 1/7=10,18=20,19=15/3(-8);
 2/9=110/2;
 6/7=2,8=2,9=2,10=2/1;
 99/9=10/99;
 -------------------
 Title Card Required
 -------------------
 Symbolic Z-matrix:
 Charge =  0 Multiplicity = 1
 N                     0.        1.43309   0. 
 N                    -1.24109  -0.71655   0. 
 N                     1.24109  -0.71655   0. 
 B                    -1.27872   0.73827   0. 
 B                     1.27872   0.73827   0. 
 B                     0.       -1.47653   0. 
 H                     0.        2.45195   0. 
 H                     2.31731   1.3379    0. 
 H                     2.12345  -1.22597   0. 
 H                     0.       -2.67579   0. 
 H                    -2.12345  -1.22597   0. 
 H                    -2.31731   1.3379    0. 
 

 GradGradGradGradGradGradGradGradGradGradGradGradGradGradGradGradGradGrad
 Berny optimization.
 Initialization pass.
                           ----------------------------
                           !    Initial Parameters    !
                           ! (Angstroms and Degrees)  !
 --------------------------                            --------------------------
 ! Name  Definition              Value          Derivative Info.                !
 --------------------------------------------------------------------------------
 ! R1    R(1,4)                  1.4553         estimate D2E/DX2                !
 ! R2    R(1,5)                  1.4553         estimate D2E/DX2                !
 ! R3    R(1,7)                  1.0189         estimate D2E/DX2                !
 ! R4    R(2,4)                  1.4553         estimate D2E/DX2                !
 ! R5    R(2,6)                  1.4553         estimate D2E/DX2                !
 ! R6    R(2,11)                 1.0189         estimate D2E/DX2                !
 ! R7    R(3,5)                  1.4553         estimate D2E/DX2                !
 ! R8    R(3,6)                  1.4553         estimate D2E/DX2                !
 ! R9    R(3,9)                  1.0189         estimate D2E/DX2                !
 ! R10   R(4,12)                 1.1993         estimate D2E/DX2                !
 ! R11   R(5,8)                  1.1993         estimate D2E/DX2                !
 ! R12   R(6,10)                 1.1993         estimate D2E/DX2                !
 ! A1    A(4,1,5)              122.9627         estimate D2E/DX2                !
 ! A2    A(4,1,7)              118.5187         estimate D2E/DX2                !
 ! A3    A(5,1,7)              118.5187         estimate D2E/DX2                !
 ! A4    A(4,2,6)              122.9627         estimate D2E/DX2                !
 ! A5    A(4,2,11)             118.5187         estimate D2E/DX2                !
 ! A6    A(6,2,11)             118.5187         estimate D2E/DX2                !
 ! A7    A(5,3,6)              122.9627         estimate D2E/DX2                !
 ! A8    A(5,3,9)              118.5187         estimate D2E/DX2                !
 ! A9    A(6,3,9)              118.5187         estimate D2E/DX2                !
 ! A10   A(1,4,2)              117.0373         estimate D2E/DX2                !
 ! A11   A(1,4,12)             121.4813         estimate D2E/DX2                !
 ! A12   A(2,4,12)             121.4813         estimate D2E/DX2                !
 ! A13   A(1,5,3)              117.0373         estimate D2E/DX2                !
 ! A14   A(1,5,8)              121.4813         estimate D2E/DX2                !
 ! A15   A(3,5,8)              121.4813         estimate D2E/DX2                !
 ! A16   A(2,6,3)              117.0373         estimate D2E/DX2                !
 ! A17   A(2,6,10)             121.4813         estimate D2E/DX2                !
 ! A18   A(3,6,10)             121.4813         estimate D2E/DX2                !
 ! D1    D(5,1,4,2)              0.0            estimate D2E/DX2                !
 ! D2    D(5,1,4,12)           180.0            estimate D2E/DX2                !
 ! D3    D(7,1,4,2)            180.0            estimate D2E/DX2                !
 ! D4    D(7,1,4,12)             0.0            estimate D2E/DX2                !
 ! D5    D(4,1,5,3)              0.0            estimate D2E/DX2                !
 ! D6    D(4,1,5,8)            180.0            estimate D2E/DX2                !
 ! D7    D(7,1,5,3)            180.0            estimate D2E/DX2                !
 ! D8    D(7,1,5,8)              0.0            estimate D2E/DX2                !
 ! D9    D(6,2,4,1)              0.0            estimate D2E/DX2                !
 ! D10   D(6,2,4,12)           180.0            estimate D2E/DX2                !
 ! D11   D(11,2,4,1)           180.0            estimate D2E/DX2                !
 ! D12   D(11,2,4,12)            0.0            estimate D2E/DX2                !
 ! D13   D(4,2,6,3)              0.0            estimate D2E/DX2                !
 ! D14   D(4,2,6,10)           180.0            estimate D2E/DX2                !
 ! D15   D(11,2,6,3)           180.0            estimate D2E/DX2                !
 ! D16   D(11,2,6,10)            0.0            estimate D2E/DX2                !
 ! D17   D(6,3,5,1)              0.0            estimate D2E/DX2                !
 ! D18   D(6,3,5,8)            180.0            estimate D2E/DX2                !
 ! D19   D(9,3,5,1)            180.0            estimate D2E/DX2                !
 ! D20   D(9,3,5,8)              0.0            estimate D2E/DX2                !
 ! D21   D(5,3,6,2)              0.0            estimate D2E/DX2                !
 ! D22   D(5,3,6,10)           180.0            estimate D2E/DX2                !
 ! D23   D(9,3,6,2)            180.0            estimate D2E/DX2                !
 ! D24   D(9,3,6,10)             0.0            estimate D2E/DX2                !
 --------------------------------------------------------------------------------
 Trust Radius=3.00D-01 FncErr=1.00D-07 GrdErr=1.00D-07 EigMax=2.50D+02 EigMin=1.00D-04
 Number of steps in this run=     64 maximum allowed number of steps=    100.
 GradGradGradGradGradGradGradGradGradGradGradGradGradGradGradGradGradGrad

                          Input orientation:                          
 ---------------------------------------------------------------------
 Center     Atomic      Atomic             Coordinates (Angstroms)
 Number     Number       Type             X           Y           Z
 ---------------------------------------------------------------------
      1          7           0        0.000000    1.433092    0.000000
      2          7           0       -1.241094   -0.716546    0.000000
      3          7           0        1.241094   -0.716546    0.000000
      4          5           0       -1.278715    0.738267    0.000000
      5          5           0        1.278715    0.738267    0.000000
      6          5           0        0.000000   -1.476533    0.000000
      7          1           0        0.000000    2.451947    0.000000
      8          1           0        2.317306    1.337897    0.000000
      9          1           0        2.123448   -1.225973    0.000000
     10          1           0        0.000000   -2.675794    0.000000
     11          1           0       -2.123448   -1.225973    0.000000
     12          1           0       -2.317306    1.337897    0.000000
 ---------------------------------------------------------------------
                    Distance matrix (angstroms):
                    1          2          3          4          5
     1  N    0.000000
     2  N    2.482188   0.000000
     3  N    2.482188   2.482188   0.000000
     4  B    1.455299   1.455299   2.909625   0.000000
     5  B    1.455299   2.909625   1.455299   2.557430   0.000000
     6  B    2.909625   1.455299   1.455299   2.557430   2.557430
     7  H    1.018855   3.402890   3.402890   2.138180   2.138180
     8  H    2.319260   4.108886   2.319260   3.645672   1.199261
     9  H    3.402890   3.402890   1.018855   3.928480   2.138180
    10  H    4.108886   2.319260   2.319260   3.645672   3.645672
    11  H    3.402890   1.018855   3.402890   2.138180   3.928480
    12  H    2.319260   2.319260   4.108886   1.199261   3.645672
                    6          7          8          9         10
     6  B    0.000000
     7  H    3.928480   0.000000
     8  H    3.645672   2.571189   0.000000
     9  H    2.138180   4.246897   2.571189   0.000000
    10  H    1.199261   5.127741   4.634612   2.571189   0.000000
    11  H    2.138180   4.246897   5.127741   4.246897   2.571189
    12  H    3.645672   2.571189   4.634612   5.127741   4.634612
                   11         12
    11  H    0.000000
    12  H    2.571189   0.000000
 Stoichiometry    B3H6N3
 Framework group  D3H[3C2(HB.NH)]
 Deg. of freedom     4
 Full point group                 D3H     NOp  12
 Largest Abelian subgroup         C2V     NOp   4
 Largest concise Abelian subgroup C2      NOp   2
                         Standard orientation:                         
 ---------------------------------------------------------------------
 Center     Atomic      Atomic             Coordinates (Angstroms)
 Number     Number       Type             X           Y           Z
 ---------------------------------------------------------------------
      1          7           0        0.000000    1.433092    0.000000
      2          7           0        1.241094   -0.716546    0.000000
      3          7           0       -1.241094   -0.716546    0.000000
      4          5           0        1.278715    0.738267    0.000000
      5          5           0       -1.278715    0.738267   -0.000000
      6          5           0       -0.000000   -1.476533    0.000000
      7          1           0        0.000000    2.451947    0.000000
      8          1           0       -2.317306    1.337897   -0.000000
      9          1           0       -2.123448   -1.225973    0.000000
     10          1           0       -0.000000   -2.675794   -0.000000
     11          1           0        2.123448   -1.225973    0.000000
     12          1           0        2.317306    1.337897    0.000000
 ---------------------------------------------------------------------
 Rotational constants (GHZ):           5.1020729           5.1020729           2.5510364
 Standard basis: 3-21G (6D, 7F)
 There are    32 symmetry adapted cartesian basis functions of A1  symmetry.
 There are     4 symmetry adapted cartesian basis functions of A2  symmetry.
 There are    22 symmetry adapted cartesian basis functions of B1  symmetry.
 There are     8 symmetry adapted cartesian basis functions of B2  symmetry.
 There are    32 symmetry adapted basis functions of A1  symmetry.
 There are     4 symmetry adapted basis functions of A2  symmetry.
 There are    22 symmetry adapted basis functions of B1  symmetry.
 There are     8 symmetry adapted basis functions of B2  symmetry.
    66 basis functions,   108 primitive gaussians,    66 cartesian basis functions
    21 alpha electrons       21 beta electrons
       nuclear repulsion energy       194.7199561923 Hartrees.
 NAtoms=   12 NActive=   12 NUniq=    4 SFac= 4.00D+00 NAtFMM=   60 NAOKFM=F Big=F
 Integral buffers will be    131072 words long.
 Raffenetti 1 integral format.
 Two-electron integral symmetry is turned on.
 One-electron integrals computed using PRISM.
 NBasis=    66 RedAO= T EigKep=  1.50D-02  NBF=    32     4    22     8
 NBsUse=    66 1.00D-06 EigRej= -1.00D+00 NBFU=    32     4    22     8
 ExpMin= 1.24D-01 ExpMax= 2.43D+02 ExpMxC= 2.43D+02 IAcc=3 IRadAn=         5 AccDes= 0.00D+00
 Harris functional with IExCor=  205 and IRadAn=       5 diagonalized for initial guess.
 HarFok:  IExCor=  205 AccDes= 0.00D+00 IRadAn=         5 IDoV= 1 UseB2=F ITyADJ=14
 ICtDFT=  3500011 ScaDFX=  1.000000  1.000000  1.000000  1.000000
 FoFCou: FMM=F IPFlag=           0 FMFlag=      100000 FMFlg1=           0
         NFxFlg=           0 DoJE=T BraDBF=F KetDBF=T FulRan=T
         wScrn=  0.000000 ICntrl=       500 IOpCl=  0 I1Cent=   200000004 NGrid=           0
         NMat0=    1 NMatS0=      1 NMatT0=    0 NMatD0=    1 NMtDS0=    0 NMtDT0=    0
 Petite list used in FoFCou.
 Initial guess orbital symmetries:
       Occupied  (A1') (E') (E') (A1') (E') (E') (A1') (E') (E')
                 (A1') (E') (E') (A2') (E') (E') (A1') (A2") (E')
                 (E') (E") (E")
       Virtual   (E") (E") (A2") (A1') (E') (E') (A1') (E') (E')
                 (A2') (E') (E') (A1') (E') (E') (A2") (E') (E')
                 (E") (E") (A1') (E') (E') (A2') (A1') (E') (E')
                 (A1') (E") (E") (E') (E') (E') (E') (A1') (A2")
                 (A1') (E') (E') (A2') (E') (E') (E') (E') (A1')
 The electronic state of the initial guess is 1-A1'.
 Keep R1 ints in memory in symmetry-blocked form, NReq=3277947.
 Requested convergence on RMS density matrix=1.00D-08 within 128 cycles.
 Requested convergence on MAX density matrix=1.00D-06.
 Requested convergence on             energy=1.00D-06.
 No special actions if energy rises.
 SCF Done:  E(RHF) =  -239.840663775     A.U. after   10 cycles
            NFock= 10  Conv=0.39D-08     -V/T= 2.0053
 ExpMin= 1.24D-01 ExpMax= 2.43D+02 ExpMxC= 2.43D+02 IAcc=3 IRadAn=         5 AccDes= 0.00D+00
 HarFok:  IExCor=  205 AccDes= 0.00D+00 IRadAn=         5 IDoV=-2 UseB2=F ITyADJ=14
 ICtDFT= 12500011 ScaDFX=  1.000000  1.000000  1.000000  1.000000
 Range of M.O.s used for correlation:     7    66
 NBasis=    66 NAE=    21 NBE=    21 NFC=     6 NFV=     0
 NROrb=     60 NOA=    15 NOB=    15 NVA=    45 NVB=    45
 Fully direct method using O(ONN) memory.
 JobTyp=1 Pass  1:  I=   7 to  21 NPSUse=  1 ParTrn=F ParDer=F DoDerP=T.
 Spin components of T(2) and E(2):
     alpha-alpha T2 =       0.2033099582D-01 E2=     -0.5528024797D-01
     alpha-beta  T2 =       0.1267589508D+00 E2=     -0.3536005165D+00
     beta-beta   T2 =       0.2033099582D-01 E2=     -0.5528024797D-01
 ANorm=    0.1080472555D+01
 E2 =    -0.4641610124D+00 EUMP2 =    -0.24030482478775D+03
          IDoAtm=111111111111
          Differentiating once with respect to electric field.
                with respect to dipole field.
          Differentiating once with respect to nuclear coordinates.
 Keep R1 ints in memory in symmetry-blocked form, NReq=3280077.
          There are     1 degrees of freedom in the 1st order CPHF.  IDoFFX=0 NUNeed=     1.
 LinEq1:  Iter=  0 NonCon=     1 RMS=8.68D-03 Max=1.35D-01 NDo=     1
 AX will form     1 AO Fock derivatives at one time.
 LinEq1:  Iter=  1 NonCon=     1 RMS=1.29D-03 Max=1.37D-02 NDo=     1
 LinEq1:  Iter=  2 NonCon=     1 RMS=3.65D-04 Max=4.41D-03 NDo=     1
 LinEq1:  Iter=  3 NonCon=     1 RMS=1.16D-04 Max=9.00D-04 NDo=     1
 LinEq1:  Iter=  4 NonCon=     1 RMS=2.73D-05 Max=2.77D-04 NDo=     1
 LinEq1:  Iter=  5 NonCon=     1 RMS=2.70D-06 Max=3.70D-05 NDo=     1
 LinEq1:  Iter=  6 NonCon=     1 RMS=1.94D-07 Max=1.72D-06 NDo=     1
 LinEq1:  Iter=  7 NonCon=     1 RMS=1.74D-08 Max=1.48D-07 NDo=     1
 LinEq1:  Iter=  8 NonCon=     1 RMS=1.82D-09 Max=2.01D-08 NDo=     1
 LinEq1:  Iter=  9 NonCon=     1 RMS=1.43D-10 Max=1.40D-09 NDo=     1
 LinEq1:  Iter= 10 NonCon=     0 RMS=1.04D-11 Max=1.02D-10 NDo=     1
 Linear equations converged to 1.000D-10 1.000D-09 after    10 iterations.
 End of Minotr F.D. properties file   721 does not exist.
 End of Minotr F.D. properties file   722 does not exist.
 End of Minotr F.D. properties file   788 does not exist.

 **********************************************************************

            Population analysis using the SCF Density.

 **********************************************************************

 Orbital symmetries:
       Occupied  (A1') (E') (E') (A1') (E') (E') (A1') (E') (E')
                 (A1') (E') (E') (A2') (E') (E') (A1') (A2") (E')
                 (E') (E") (E")
       Virtual   (E") (E") (A1') (A2") (E') (E') (A1') (E') (E')
                 (A2') (E') (E') (A1') (E') (E') (E') (E') (A2")
                 (E") (E") (A1') (E') (E') (A2') (A1') (E') (E')
                 (A1') (E') (E') (E') (E') (A1') (E") (E") (A2")
                 (A1') (E') (E') (A2') (E') (E') (E') (E') (A1')
 The electronic state is 1-A1'.
 Alpha  occ. eigenvalues --  -15.46424 -15.46414 -15.46414  -7.57075  -7.57062
 Alpha  occ. eigenvalues --   -7.57062  -1.17896  -1.11238  -1.11238  -0.72515
 Alpha  occ. eigenvalues --   -0.71643  -0.71643  -0.58979  -0.58882  -0.58882
 Alpha  occ. eigenvalues --   -0.55176  -0.50204  -0.46142  -0.46142  -0.39829
 Alpha  occ. eigenvalues --   -0.39829
 Alpha virt. eigenvalues --    0.17249   0.17249   0.27208   0.28353   0.30455
 Alpha virt. eigenvalues --    0.30455   0.34245   0.36915   0.36915   0.39683
 Alpha virt. eigenvalues --    0.44975   0.44975   0.50683   0.54660   0.54660
 Alpha virt. eigenvalues --    0.66157   0.66157   0.66807   0.71660   0.71660
 Alpha virt. eigenvalues --    0.74636   0.84092   0.84092   0.98726   0.99288
 Alpha virt. eigenvalues --    1.19103   1.19103   1.38628   1.39748   1.39748
 Alpha virt. eigenvalues --    1.43620   1.43620   1.46365   1.47794   1.47794
 Alpha virt. eigenvalues --    1.59368   1.72676   1.82873   1.82873   1.93833
 Alpha virt. eigenvalues --    1.98923   1.98923   2.86015   2.86015   2.95717
          Condensed to atoms (all electrons):
               1          2          3          4          5          6
     1  N    7.081182  -0.027815  -0.027815   0.357760   0.357760  -0.000298
     2  N   -0.027815   7.081182  -0.027815   0.357760  -0.000298   0.357760
     3  N   -0.027815  -0.027815   7.081182  -0.000298   0.357760   0.357760
     4  B    0.357760   0.357760  -0.000298   3.194107  -0.012011  -0.012011
     5  B    0.357760  -0.000298   0.357760  -0.012011   3.194107  -0.012011
     6  B   -0.000298   0.357760   0.357760  -0.012011  -0.012011   3.194107
     7  H    0.331216   0.001042   0.001042  -0.023129  -0.023129   0.000236
     8  H   -0.031838   0.000019  -0.031838   0.001831   0.408122   0.001831
     9  H    0.001042   0.001042   0.331216   0.000236  -0.023129  -0.023129
    10  H    0.000019  -0.031838  -0.031838   0.001831   0.001831   0.408122
    11  H    0.001042   0.331216   0.001042  -0.023129   0.000236  -0.023129
    12  H   -0.031838  -0.031838   0.000019   0.408122   0.001831   0.001831
               7          8          9         10         11         12
     1  N    0.331216  -0.031838   0.001042   0.000019   0.001042  -0.031838
     2  N    0.001042   0.000019   0.001042  -0.031838   0.331216  -0.031838
     3  N    0.001042  -0.031838   0.331216  -0.031838   0.001042   0.000019
     4  B   -0.023129   0.001831   0.000236   0.001831  -0.023129   0.408122
     5  B   -0.023129   0.408122  -0.023129   0.001831   0.000236   0.001831
     6  B    0.000236   0.001831  -0.023129   0.408122  -0.023129   0.001831
     7  H    0.385970  -0.002527  -0.000034   0.000002  -0.000034  -0.002527
     8  H   -0.002527   0.727370  -0.002527  -0.000028   0.000002  -0.000028
     9  H   -0.000034  -0.002527   0.385970  -0.002527  -0.000034   0.000002
    10  H    0.000002  -0.000028  -0.002527   0.727370  -0.002527  -0.000028
    11  H   -0.000034   0.000002  -0.000034  -0.002527   0.385970  -0.002527
    12  H   -0.002527  -0.000028   0.000002  -0.000028  -0.002527   0.727370
 Mulliken charges:
               1
     1  N   -1.010416
     2  N   -1.010416
     3  N   -1.010416
     4  B    0.748932
     5  B    0.748932
     6  B    0.748932
     7  H    0.331873
     8  H   -0.070388
     9  H    0.331873
    10  H   -0.070388
    11  H    0.331873
    12  H   -0.070388
 Sum of Mulliken charges =  -0.00000
 Mulliken charges with hydrogens summed into heavy atoms:
               1
     1  N   -0.678544
     2  N   -0.678544
     3  N   -0.678544
     4  B    0.678544
     5  B    0.678544
     6  B    0.678544
 Electronic spatial extent (au):  <R**2>=            490.8497
 Charge=             -0.0000 electrons
 Dipole moment (field-independent basis, Debye):
    X=              0.0000    Y=             -0.0000    Z=             -0.0000  Tot=              0.0000
 Quadrupole moment (field-independent basis, Debye-Ang):
   XX=            -34.2887   YY=            -34.2887   ZZ=            -37.5980
   XY=             -0.0000   XZ=              0.0000   YZ=             -0.0000
 Traceless Quadrupole moment (field-independent basis, Debye-Ang):
   XX=              1.1031   YY=              1.1031   ZZ=             -2.2062
   XY=             -0.0000   XZ=              0.0000   YZ=             -0.0000
 Octapole moment (field-independent basis, Debye-Ang**2):
  XXX=              0.0000  YYY=             14.8067  ZZZ=              0.0000  XYY=              0.0000
  XXY=            -14.8067  XXZ=             -0.0000  XZZ=              0.0000  YZZ=              0.0000
  YYZ=             -0.0000  XYZ=             -0.0000
 Hexadecapole moment (field-independent basis, Debye-Ang**3):
 XXXX=           -321.1156 YYYY=           -321.1156 ZZZZ=            -36.3729 XXXY=             -0.0000
 XXXZ=             -0.0000 YYYX=             -0.0000 YYYZ=             -0.0000 ZZZX=             -0.0000
 ZZZY=             -0.0000 XXYY=           -107.0385 XXZZ=            -64.3860 YYZZ=            -64.3860
 XXYZ=             -0.0000 YYXZ=             -0.0000 ZZXY=             -0.0000
 N-N= 1.947199561923D+02 E-N=-9.492748409146D+02  KE= 2.385673802126D+02
 Symmetry A1   KE= 1.503602532022D+02
 Symmetry A2   KE= 2.877719544674D+00
 Symmetry B1   KE= 8.018332716790D+01
 Symmetry B2   KE= 5.146080297884D+00
 Calling FoFJK, ICntrl=  10002127 FMM=F ISym2X=1 I1Cent= 0 IOpClX= 0 NMat=1 NMatS=1 NMatT=0.
 ***** Axes restored to original set *****
 -------------------------------------------------------------------
 Center     Atomic                   Forces (Hartrees/Bohr)
 Number     Number              X              Y              Z
 -------------------------------------------------------------------
      1        7          -0.000000000   -0.000467186    0.000000000
      2        7           0.000404595    0.000233593   -0.000000000
      3        7          -0.000404595    0.000233593    0.000000000
      4        5           0.000290435   -0.000167683   -0.000000000
      5        5          -0.000290435   -0.000167683   -0.000000000
      6        5           0.000000000    0.000335365   -0.000000000
      7        1           0.000000000    0.000122139   -0.000000000
      8        1          -0.000056435   -0.000032583    0.000000000
      9        1           0.000105776   -0.000061070   -0.000000000
     10        1          -0.000000000    0.000065166   -0.000000000
     11        1          -0.000105776   -0.000061070   -0.000000000
     12        1           0.000056435   -0.000032583    0.000000000
 -------------------------------------------------------------------
 Cartesian Forces:  Max     0.000467186 RMS     0.000170758

 GradGradGradGradGradGradGradGradGradGradGradGradGradGradGradGradGradGrad
 Berny optimization.
 FormGI is forming the generalized inverse of G from B-inverse, IUseBI=4.
 Internal  Forces:  Max     0.000373079 RMS     0.000128591
 Search for a local minimum.
 Step number   1 out of a maximum of   64
 All quantities printed in internal units (Hartrees-Bohrs-Radians)
 Mixed Optimization -- En-DIIS/RFO-DIIS
 Second derivative matrix not updated -- first step.
 ITU=  0
     Eigenvalues ---    0.01490   0.01490   0.01490   0.01490   0.01490
     Eigenvalues ---    0.01490   0.01490   0.01490   0.01490   0.16000
     Eigenvalues ---    0.16000   0.16000   0.16000   0.16000   0.16000
     Eigenvalues ---    0.22000   0.22000   0.22000   0.24719   0.24719
     Eigenvalues ---    0.24719   0.34983   0.34983   0.37559   0.37559
     Eigenvalues ---    0.37559   0.37559   0.44521   0.44521   0.44521
 RFO step:  Lambda=-2.37695280D-06 EMin= 1.48958263D-02
 Linear search not attempted -- first point.
 Iteration  1 RMS(Cart)=  0.00047748 RMS(Int)=  0.00000000
 Iteration  2 RMS(Cart)=  0.00000000 RMS(Int)=  0.00000000
 ClnCor:  largest displacement from symmetrization is 9.78D-11 for atom    12.
 Variable       Old X    -DE/DX   Delta X   Delta X   Delta X     New X
                                 (Linear)    (Quad)   (Total)
    R1        2.75012  -0.00037   0.00000  -0.00099  -0.00099   2.74912
    R2        2.75012  -0.00037   0.00000  -0.00099  -0.00099   2.74912
    R3        1.92536   0.00012   0.00000   0.00027   0.00027   1.92563
    R4        2.75012  -0.00037   0.00000  -0.00099  -0.00099   2.74912
    R5        2.75012  -0.00037   0.00000  -0.00099  -0.00099   2.74912
    R6        1.92536   0.00012   0.00000   0.00027   0.00027   1.92563
    R7        2.75012  -0.00037   0.00000  -0.00099  -0.00099   2.74912
    R8        2.75012  -0.00037   0.00000  -0.00099  -0.00099   2.74912
    R9        1.92536   0.00012   0.00000   0.00027   0.00027   1.92563
   R10        2.26628  -0.00007   0.00000  -0.00026  -0.00026   2.26601
   R11        2.26628  -0.00007   0.00000  -0.00026  -0.00026   2.26601
   R12        2.26628  -0.00007   0.00000  -0.00026  -0.00026   2.26601
    A1        2.14610  -0.00001   0.00000  -0.00003  -0.00003   2.14608
    A2        2.06854   0.00000   0.00000   0.00001   0.00001   2.06855
    A3        2.06854   0.00000   0.00000   0.00001   0.00001   2.06855
    A4        2.14610  -0.00001   0.00000  -0.00003  -0.00003   2.14608
    A5        2.06854   0.00000   0.00000   0.00001   0.00001   2.06855
    A6        2.06854   0.00000   0.00000   0.00001   0.00001   2.06855
    A7        2.14610  -0.00001   0.00000  -0.00003  -0.00003   2.14608
    A8        2.06854   0.00000   0.00000   0.00001   0.00001   2.06855
    A9        2.06854   0.00000   0.00000   0.00001   0.00001   2.06855
   A10        2.04269   0.00001   0.00000   0.00003   0.00003   2.04271
   A11        2.12025  -0.00000   0.00000  -0.00001  -0.00001   2.12024
   A12        2.12025  -0.00000   0.00000  -0.00001  -0.00001   2.12024
   A13        2.04269   0.00001   0.00000   0.00003   0.00003   2.04271
   A14        2.12025  -0.00000   0.00000  -0.00001  -0.00001   2.12024
   A15        2.12025  -0.00000   0.00000  -0.00001  -0.00001   2.12024
   A16        2.04269   0.00001   0.00000   0.00003   0.00003   2.04271
   A17        2.12025  -0.00000   0.00000  -0.00001  -0.00001   2.12024
   A18        2.12025  -0.00000   0.00000  -0.00001  -0.00001   2.12024
    D1       -0.00000  -0.00000   0.00000  -0.00000   0.00000   0.00000
    D2        3.14159  -0.00000   0.00000  -0.00000   0.00000   3.14159
    D3        3.14159  -0.00000   0.00000  -0.00000   0.00000   3.14159
    D4        0.00000  -0.00000   0.00000  -0.00000   0.00000   0.00000
    D5        0.00000   0.00000   0.00000   0.00000   0.00000   0.00000
    D6        3.14159   0.00000   0.00000   0.00000   0.00000   3.14159
    D7        3.14159  -0.00000   0.00000  -0.00000   0.00000   3.14159
    D8       -0.00000   0.00000   0.00000   0.00000   0.00000   0.00000
    D9       -0.00000   0.00000   0.00000   0.00000   0.00000   0.00000
   D10        3.14159   0.00000   0.00000   0.00000   0.00000   3.14159
   D11        3.14159  -0.00000   0.00000  -0.00000   0.00000   3.14159
   D12       -0.00000   0.00000   0.00000   0.00000   0.00000   0.00000
   D13        0.00000  -0.00000   0.00000  -0.00000   0.00000   0.00000
   D14        3.14159  -0.00000   0.00000  -0.00000   0.00000   3.14159
   D15        3.14159   0.00000   0.00000   0.00000   0.00000   3.14159
   D16       -0.00000   0.00000   0.00000   0.00000   0.00000   0.00000
   D17       -0.00000   0.00000   0.00000   0.00000   0.00000   0.00000
   D18        3.14159  -0.00000   0.00000  -0.00000   0.00000   3.14159
   D19        3.14159   0.00000   0.00000   0.00000   0.00000   3.14159
   D20        0.00000  -0.00000   0.00000  -0.00000   0.00000   0.00000
   D21        0.00000  -0.00000   0.00000  -0.00000   0.00000   0.00000
   D22        3.14159   0.00000   0.00000   0.00000   0.00000   3.14159
   D23        3.14159  -0.00000   0.00000  -0.00000   0.00000   3.14159
   D24        0.00000   0.00000   0.00000   0.00000  -0.00000   0.00000
         Item               Value     Threshold  Converged?
 Maximum Force            0.000373     0.000015     NO 
 RMS     Force            0.000129     0.000010     NO 
 Maximum Displacement     0.001292     0.000060     NO 
 RMS     Displacement     0.000477     0.000040     NO 
 Predicted change in Energy=-1.188476D-06
 GradGradGradGradGradGradGradGradGradGradGradGradGradGradGradGradGradGrad

                          Input orientation:                          
 ---------------------------------------------------------------------
 Center     Atomic      Atomic             Coordinates (Angstroms)
 Number     Number       Type             X           Y           Z
 ---------------------------------------------------------------------
      1          7           0        0.000000    1.432586    0.000000
      2          7           0       -1.240656   -0.716293   -0.000000
      3          7           0        1.240656   -0.716293    0.000000
      4          5           0       -1.278244    0.737995   -0.000000
      5          5           0        1.278244    0.737995    0.000000
      6          5           0       -0.000000   -1.475989    0.000000
      7          1           0        0.000000    2.451586   -0.000000
      8          1           0        2.316714    1.337555    0.000000
      9          1           0        2.123136   -1.225793    0.000000
     10          1           0       -0.000000   -2.675111    0.000000
     11          1           0       -2.123136   -1.225793   -0.000000
     12          1           0       -2.316714    1.337555   -0.000000
 ---------------------------------------------------------------------
                    Distance matrix (angstroms):
                    1          2          3          4          5
     1  N    0.000000
     2  N    2.481312   0.000000
     3  N    2.481312   2.481312   0.000000
     4  B    1.454773   1.454773   2.908575   0.000000
     5  B    1.454773   2.908575   1.454773   2.556488   0.000000
     6  B    2.908575   1.454773   1.454773   2.556488   2.556488
     7  H    1.019000   3.402159   3.402159   2.137827   2.137827
     8  H    2.318662   4.107697   2.318662   3.644612   1.199122
     9  H    3.402159   3.402159   1.019000   3.927575   2.137827
    10  H    4.107697   2.318662   2.318662   3.644612   3.644612
    11  H    3.402159   1.019000   3.402159   2.137827   3.927575
    12  H    2.318662   2.318662   4.107697   1.199122   3.644612
                    6          7          8          9         10
     6  B    0.000000
     7  H    3.927575   0.000000
     8  H    3.644612   2.570647   0.000000
     9  H    2.137827   4.246272   2.570647   0.000000
    10  H    1.199122   5.126697   4.633428   2.570647   0.000000
    11  H    2.137827   4.246272   5.126697   4.246272   2.570647
    12  H    3.644612   2.570647   4.633428   5.126697   4.633428
                   11         12
    11  H    0.000000
    12  H    2.570647   0.000000
 Stoichiometry    B3H6N3
 Framework group  D3H[3C2(HB.NH)]
 Deg. of freedom     4
 Full point group                 D3H     NOp  12
 Largest Abelian subgroup         C2V     NOp   4
 Largest concise Abelian subgroup C2      NOp   2
                         Standard orientation:                         
 ---------------------------------------------------------------------
 Center     Atomic      Atomic             Coordinates (Angstroms)
 Number     Number       Type             X           Y           Z
 ---------------------------------------------------------------------
      1          7           0        0.000000    1.432586    0.000000
      2          7           0        1.240656   -0.716293    0.000000
      3          7           0       -1.240656   -0.716293    0.000000
      4          5           0        1.278244    0.737995   -0.000000
      5          5           0       -1.278244    0.737995   -0.000000
      6          5           0       -0.000000   -1.475989   -0.000000
      7          1           0        0.000000    2.451586    0.000000
      8          1           0       -2.316714    1.337555   -0.000000
      9          1           0       -2.123136   -1.225793    0.000000
     10          1           0       -0.000000   -2.675111   -0.000000
     11          1           0        2.123136   -1.225793    0.000000
     12          1           0        2.316714    1.337555    0.000000
 ---------------------------------------------------------------------
 Rotational constants (GHZ):           5.1054324           5.1054324           2.5527162
 Standard basis: 3-21G (6D, 7F)
 There are    32 symmetry adapted cartesian basis functions of A1  symmetry.
 There are     4 symmetry adapted cartesian basis functions of A2  symmetry.
 There are    22 symmetry adapted cartesian basis functions of B1  symmetry.
 There are     8 symmetry adapted cartesian basis functions of B2  symmetry.
 There are    32 symmetry adapted basis functions of A1  symmetry.
 There are     4 symmetry adapted basis functions of A2  symmetry.
 There are    22 symmetry adapted basis functions of B1  symmetry.
 There are     8 symmetry adapted basis functions of B2  symmetry.
    66 basis functions,   108 primitive gaussians,    66 cartesian basis functions
    21 alpha electrons       21 beta electrons
       nuclear repulsion energy       194.7785258184 Hartrees.
 NAtoms=   12 NActive=   12 NUniq=    4 SFac= 4.00D+00 NAtFMM=   60 NAOKFM=F Big=F
 Integral buffers will be    131072 words long.
 Raffenetti 1 integral format.
 Two-electron integral symmetry is turned on.
 One-electron integrals computed using PRISM.
 NBasis=    66 RedAO= T EigKep=  1.49D-02  NBF=    32     4    22     8
 NBsUse=    66 1.00D-06 EigRej= -1.00D+00 NBFU=    32     4    22     8
 Initial guess from the checkpoint file:  "B3N3H6.chk"
 B after Tr=    -0.000000   -0.000000    0.000000
         Rot=    1.000000    0.000000    0.000000    0.000000 Ang=   0.00 deg.
 Initial guess orbital symmetries:
       Occupied  (A1') (E') (E') (A1') (E') (E') (A1') (E') (E')
                 (A1') (E') (E') (A2') (E') (E') (A1') (A2") (E')
                 (E') (E") (E")
       Virtual   (E") (E") (A1') (A2") (E') (E') (A1') (E') (E')
                 (A2') (E') (E') (A1') (E') (E') (E') (E') (A2")
                 (E") (E") (A1') (E') (E') (A2') (A1') (E') (E')
                 (A1') (E') (E') (E') (E') (A1') (E") (E") (A2")
                 (A1') (E') (E') (A2') (E') (E') (E') (E') (A1')
 Keep R1 ints in memory in symmetry-blocked form, NReq=3277947.
 Requested convergence on RMS density matrix=1.00D-08 within 128 cycles.
 Requested convergence on MAX density matrix=1.00D-06.
 Requested convergence on             energy=1.00D-06.
 No special actions if energy rises.
 SCF Done:  E(RHF) =  -239.840722671     A.U. after    7 cycles
            NFock=  7  Conv=0.58D-08     -V/T= 2.0053
 ExpMin= 1.24D-01 ExpMax= 2.43D+02 ExpMxC= 2.43D+02 IAcc=3 IRadAn=         5 AccDes= 0.00D+00
 HarFok:  IExCor=  205 AccDes= 0.00D+00 IRadAn=         5 IDoV=-2 UseB2=F ITyADJ=14
 ICtDFT= 12500011 ScaDFX=  1.000000  1.000000  1.000000  1.000000
 Range of M.O.s used for correlation:     7    66
 NBasis=    66 NAE=    21 NBE=    21 NFC=     6 NFV=     0
 NROrb=     60 NOA=    15 NOB=    15 NVA=    45 NVB=    45
 Fully direct method using O(ONN) memory.
 JobTyp=1 Pass  1:  I=   7 to  21 NPSUse=  1 ParTrn=F ParDer=F DoDerP=T.
 Spin components of T(2) and E(2):
     alpha-alpha T2 =       0.2032366112D-01 E2=     -0.5527588698D-01
     alpha-beta  T2 =       0.1267100740D+00 E2=     -0.3535514449D+00
     beta-beta   T2 =       0.2032366112D-01 E2=     -0.5527588698D-01
 ANorm=    0.1080443148D+01
 E2 =    -0.4641032188D+00 EUMP2 =    -0.24030482589009D+03
          IDoAtm=111111111111
          Differentiating once with respect to electric field.
                with respect to dipole field.
          Differentiating once with respect to nuclear coordinates.
 Keep R1 ints in memory in symmetry-blocked form, NReq=3280122.
          There are     1 degrees of freedom in the 1st order CPHF.  IDoFFX=0 NUNeed=     1.
 LinEq1:  Iter=  0 NonCon=     1 RMS=8.67D-03 Max=1.35D-01 NDo=     1
 AX will form     1 AO Fock derivatives at one time.
 LinEq1:  Iter=  1 NonCon=     1 RMS=1.29D-03 Max=1.37D-02 NDo=     1
 LinEq1:  Iter=  2 NonCon=     1 RMS=3.64D-04 Max=4.39D-03 NDo=     1
 LinEq1:  Iter=  3 NonCon=     1 RMS=1.16D-04 Max=8.96D-04 NDo=     1
 LinEq1:  Iter=  4 NonCon=     1 RMS=2.73D-05 Max=2.76D-04 NDo=     1
 LinEq1:  Iter=  5 NonCon=     1 RMS=2.70D-06 Max=3.70D-05 NDo=     1
 LinEq1:  Iter=  6 NonCon=     1 RMS=1.94D-07 Max=1.71D-06 NDo=     1
 LinEq1:  Iter=  7 NonCon=     1 RMS=1.73D-08 Max=1.47D-07 NDo=     1
 LinEq1:  Iter=  8 NonCon=     1 RMS=1.82D-09 Max=2.01D-08 NDo=     1
 LinEq1:  Iter=  9 NonCon=     1 RMS=1.43D-10 Max=1.39D-09 NDo=     1
 LinEq1:  Iter= 10 NonCon=     0 RMS=1.04D-11 Max=1.02D-10 NDo=     1
 Linear equations converged to 1.000D-10 1.000D-09 after    10 iterations.
 End of Minotr F.D. properties file   721 does not exist.
 End of Minotr F.D. properties file   722 does not exist.
 End of Minotr F.D. properties file   788 does not exist.
 Calling FoFJK, ICntrl=  10002127 FMM=F ISym2X=1 I1Cent= 0 IOpClX= 0 NMat=1 NMatS=1 NMatT=0.
 ***** Axes restored to original set *****
 -------------------------------------------------------------------
 Center     Atomic                   Forces (Hartrees/Bohr)
 Number     Number              X              Y              Z
 -------------------------------------------------------------------
      1        7          -0.000000000    0.000030051    0.000000000
      2        7          -0.000026025   -0.000015026   -0.000000000
      3        7           0.000026025   -0.000015026    0.000000000
      4        5          -0.000011294    0.000006521   -0.000000000
      5        5           0.000011294    0.000006521   -0.000000000
      6        5          -0.000000000   -0.000013041   -0.000000000
      7        1          -0.000000000   -0.000001765   -0.000000000
      8        1           0.000009599    0.000005542    0.000000000
      9        1          -0.000001529    0.000000882   -0.000000000
     10        1          -0.000000000   -0.000011084   -0.000000000
     11        1           0.000001529    0.000000882   -0.000000000
     12        1          -0.000009599    0.000005542    0.000000000
 -------------------------------------------------------------------
 Cartesian Forces:  Max     0.000030051 RMS     0.000009996

 GradGradGradGradGradGradGradGradGradGradGradGradGradGradGradGradGradGrad
 Berny optimization.
 Using GEDIIS/GDIIS optimizer.
 FormGI is forming the generalized inverse of G from B-inverse, IUseBI=4.
 Internal  Forces:  Max     0.000026166 RMS     0.000009141
 Search for a local minimum.
 Step number   2 out of a maximum of   64
 All quantities printed in internal units (Hartrees-Bohrs-Radians)
 Mixed Optimization -- En-DIIS/RFO-DIIS
 Swapping is turned off.
 Update second derivatives using D2CorX and points    1    2
 DE= -1.10D-06 DEPred=-1.19D-06 R= 9.28D-01
 TightC=F SS=  1.41D+00  RLast= 2.52D-03 DXNew= 5.0454D-01 7.5660D-03
 Trust test= 9.28D-01 RLast= 2.52D-03 DXMaxT set to 3.00D-01
 ITU=  1  0
     Eigenvalues ---    0.01490   0.01490   0.01490   0.01490   0.01490
     Eigenvalues ---    0.01490   0.01490   0.01490   0.01490   0.16000
     Eigenvalues ---    0.16000   0.16000   0.16000   0.16000   0.16000
     Eigenvalues ---    0.21991   0.22000   0.22000   0.24719   0.24719
     Eigenvalues ---    0.24833   0.34981   0.34981   0.37559   0.37559
     Eigenvalues ---    0.37559   0.40072   0.44454   0.44521   0.44521
 En-DIIS/RFO-DIIS/Sim-DIIS IScMMF=       -3 using points:     2    1
 RFO step:  Lambda=-1.06981513D-08.
 DidBck=F Rises=F RFO-DIIS coefs:    0.93393    0.06607
 Iteration  1 RMS(Cart)=  0.00003596 RMS(Int)=  0.00000000
 Iteration  2 RMS(Cart)=  0.00000000 RMS(Int)=  0.00000000
 ClnCor:  largest displacement from symmetrization is 9.81D-13 for atom    12.
 Variable       Old X    -DE/DX   Delta X   Delta X   Delta X     New X
                                 (Linear)    (Quad)   (Total)
    R1        2.74912   0.00003   0.00007  -0.00000   0.00006   2.74919
    R2        2.74912   0.00003   0.00007  -0.00000   0.00006   2.74919
    R3        1.92563  -0.00000  -0.00002   0.00001  -0.00000   1.92563
    R4        2.74912   0.00003   0.00007  -0.00000   0.00006   2.74919
    R5        2.74912   0.00003   0.00007  -0.00000   0.00006   2.74919
    R6        1.92563  -0.00000  -0.00002   0.00001  -0.00000   1.92563
    R7        2.74912   0.00003   0.00007  -0.00000   0.00006   2.74919
    R8        2.74912   0.00003   0.00007  -0.00000   0.00006   2.74919
    R9        1.92563  -0.00000  -0.00002   0.00001  -0.00000   1.92563
   R10        2.26601   0.00001   0.00002   0.00002   0.00004   2.26605
   R11        2.26601   0.00001   0.00002   0.00002   0.00004   2.26605
   R12        2.26601   0.00001   0.00002   0.00002   0.00004   2.26605
    A1        2.14608  -0.00000   0.00000  -0.00001  -0.00001   2.14607
    A2        2.06855   0.00000  -0.00000   0.00000   0.00000   2.06856
    A3        2.06855   0.00000  -0.00000   0.00000   0.00000   2.06856
    A4        2.14608  -0.00000   0.00000  -0.00001  -0.00001   2.14607
    A5        2.06855   0.00000  -0.00000   0.00000   0.00000   2.06856
    A6        2.06855   0.00000  -0.00000   0.00000   0.00000   2.06856
    A7        2.14608  -0.00000   0.00000  -0.00001  -0.00001   2.14607
    A8        2.06855   0.00000  -0.00000   0.00000   0.00000   2.06856
    A9        2.06855   0.00000  -0.00000   0.00000   0.00000   2.06856
   A10        2.04271   0.00000  -0.00000   0.00001   0.00001   2.04272
   A11        2.12024  -0.00000   0.00000  -0.00000  -0.00000   2.12023
   A12        2.12024  -0.00000   0.00000  -0.00000  -0.00000   2.12023
   A13        2.04271   0.00000  -0.00000   0.00001   0.00001   2.04272
   A14        2.12024  -0.00000   0.00000  -0.00000  -0.00000   2.12023
   A15        2.12024  -0.00000   0.00000  -0.00000  -0.00000   2.12023
   A16        2.04271   0.00000  -0.00000   0.00001   0.00001   2.04272
   A17        2.12024  -0.00000   0.00000  -0.00000  -0.00000   2.12023
   A18        2.12024  -0.00000   0.00000  -0.00000  -0.00000   2.12023
    D1       -0.00000  -0.00000   0.00000  -0.00000   0.00000   0.00000
    D2        3.14159  -0.00000   0.00000  -0.00000   0.00000   3.14159
    D3        3.14159  -0.00000   0.00000  -0.00000   0.00000   3.14159
    D4        0.00000  -0.00000   0.00000  -0.00000   0.00000   0.00000
    D5        0.00000   0.00000   0.00000   0.00000   0.00000   0.00000
    D6        3.14159   0.00000   0.00000   0.00000   0.00000   3.14159
    D7        3.14159  -0.00000   0.00000  -0.00000   0.00000   3.14159
    D8       -0.00000   0.00000   0.00000   0.00000   0.00000   0.00000
    D9        0.00000   0.00000   0.00000   0.00000   0.00000   0.00000
   D10        3.14159   0.00000   0.00000   0.00000   0.00000   3.14159
   D11        3.14159  -0.00000   0.00000  -0.00000   0.00000   3.14159
   D12       -0.00000   0.00000   0.00000   0.00000   0.00000   0.00000
   D13       -0.00000  -0.00000   0.00000  -0.00000   0.00000   0.00000
   D14        3.14159  -0.00000   0.00000  -0.00000   0.00000   3.14159
   D15        3.14159   0.00000   0.00000   0.00000   0.00000   3.14159
   D16        0.00000   0.00000   0.00000   0.00000  -0.00000   0.00000
   D17       -0.00000   0.00000   0.00000   0.00000   0.00000   0.00000
   D18        3.14159  -0.00000   0.00000  -0.00000   0.00000   3.14159
   D19        3.14159   0.00000   0.00000   0.00000   0.00000   3.14159
   D20        0.00000  -0.00000   0.00000  -0.00000   0.00000   0.00000
   D21        0.00000  -0.00000   0.00000  -0.00000   0.00000   0.00000
   D22        3.14159   0.00000   0.00000   0.00000   0.00000   3.14159
   D23        3.14159  -0.00000   0.00000  -0.00000   0.00000   3.14159
   D24        0.00000   0.00000   0.00000   0.00000   0.00000   0.00000
         Item               Value     Threshold  Converged?
 Maximum Force            0.000026     0.000015     NO 
 RMS     Force            0.000009     0.000010     YES
 Maximum Displacement     0.000102     0.000060     NO 
 RMS     Displacement     0.000036     0.000040     YES
 Predicted change in Energy=-5.844621D-09
 GradGradGradGradGradGradGradGradGradGradGradGradGradGradGradGradGradGrad

                          Input orientation:                          
 ---------------------------------------------------------------------
 Center     Atomic      Atomic             Coordinates (Angstroms)
 Number     Number       Type             X           Y           Z
 ---------------------------------------------------------------------
      1          7           0        0.000000    1.432623    0.000000
      2          7           0       -1.240688   -0.716311   -0.000000
      3          7           0        1.240688   -0.716311    0.000000
      4          5           0       -1.278272    0.738011   -0.000000
      5          5           0        1.278272    0.738011    0.000000
      6          5           0       -0.000000   -1.476021    0.000000
      7          1           0        0.000000    2.451621    0.000000
      8          1           0        2.316761    1.337582    0.000000
      9          1           0        2.123166   -1.225811    0.000000
     10          1           0       -0.000000   -2.675165    0.000000
     11          1           0       -2.123166   -1.225811   -0.000000
     12          1           0       -2.316761    1.337582   -0.000000
 ---------------------------------------------------------------------
                    Distance matrix (angstroms):
                    1          2          3          4          5
     1  N    0.000000
     2  N    2.481376   0.000000
     3  N    2.481376   2.481376   0.000000
     4  B    1.454808   1.454808   2.908644   0.000000
     5  B    1.454808   2.908644   1.454808   2.556543   0.000000
     6  B    2.908644   1.454808   1.454808   2.556543   2.556543
     7  H    1.018998   3.402220   3.402220   2.137859   2.137859
     8  H    2.318709   4.107788   2.318709   3.644687   1.199144
     9  H    3.402220   3.402220   1.018998   3.927642   2.137859
    10  H    4.107788   2.318709   2.318709   3.644687   3.644687
    11  H    3.402220   1.018998   3.402220   2.137859   3.927642
    12  H    2.318709   2.318709   4.107788   1.199144   3.644687
                    6          7          8          9         10
     6  B    0.000000
     7  H    3.927642   0.000000
     8  H    3.644687   2.570693   0.000000
     9  H    2.137859   4.246332   2.570693   0.000000
    10  H    1.199144   5.126786   4.633521   2.570693   0.000000
    11  H    2.137859   4.246332   5.126786   4.246332   2.570693
    12  H    3.644687   2.570693   4.633521   5.126786   4.633521
                   11         12
    11  H    0.000000
    12  H    2.570693   0.000000
 Stoichiometry    B3H6N3
 Framework group  D3H[3C2(HB.NH)]
 Deg. of freedom     4
 Full point group                 D3H     NOp  12
 Largest Abelian subgroup         C2V     NOp   4
 Largest concise Abelian subgroup C2      NOp   2
                         Standard orientation:                         
 ---------------------------------------------------------------------
 Center     Atomic      Atomic             Coordinates (Angstroms)
 Number     Number       Type             X           Y           Z
 ---------------------------------------------------------------------
      1          7           0        0.000000    1.432623    0.000000
      2          7           0        1.240688   -0.716311    0.000000
      3          7           0       -1.240688   -0.716311    0.000000
      4          5           0        1.278272    0.738011   -0.000000
      5          5           0       -1.278272    0.738011   -0.000000
      6          5           0       -0.000000   -1.476021   -0.000000
      7          1           0        0.000000    2.451621    0.000000
      8          1           0       -2.316761    1.337582   -0.000000
      9          1           0       -2.123166   -1.225811    0.000000
     10          1           0       -0.000000   -2.675165   -0.000000
     11          1           0        2.123166   -1.225811    0.000000
     12          1           0        2.316761    1.337582    0.000000
 ---------------------------------------------------------------------
 Rotational constants (GHZ):           5.1052017           5.1052017           2.5526009
 Standard basis: 3-21G (6D, 7F)
 There are    32 symmetry adapted cartesian basis functions of A1  symmetry.
 There are     4 symmetry adapted cartesian basis functions of A2  symmetry.
 There are    22 symmetry adapted cartesian basis functions of B1  symmetry.
 There are     8 symmetry adapted cartesian basis functions of B2  symmetry.
 There are    32 symmetry adapted basis functions of A1  symmetry.
 There are     4 symmetry adapted basis functions of A2  symmetry.
 There are    22 symmetry adapted basis functions of B1  symmetry.
 There are     8 symmetry adapted basis functions of B2  symmetry.
    66 basis functions,   108 primitive gaussians,    66 cartesian basis functions
    21 alpha electrons       21 beta electrons
       nuclear repulsion energy       194.7743826290 Hartrees.
 NAtoms=   12 NActive=   12 NUniq=    4 SFac= 4.00D+00 NAtFMM=   60 NAOKFM=F Big=F
 Integral buffers will be    131072 words long.
 Raffenetti 1 integral format.
 Two-electron integral symmetry is turned on.
 One-electron integrals computed using PRISM.
 NBasis=    66 RedAO= T EigKep=  1.49D-02  NBF=    32     4    22     8
 NBsUse=    66 1.00D-06 EigRej= -1.00D+00 NBFU=    32     4    22     8
 Initial guess from the checkpoint file:  "B3N3H6.chk"
 B after Tr=    -0.000000    0.000000   -0.000000
         Rot=    1.000000    0.000000    0.000000    0.000000 Ang=   0.00 deg.
 Initial guess orbital symmetries:
       Occupied  (A1') (E') (E') (A1') (E') (E') (A1') (E') (E')
                 (A1') (E') (E') (A2') (E') (E') (A1') (A2") (E')
                 (E') (E") (E")
       Virtual   (E") (E") (A1') (A2") (E') (E') (A1') (E') (E')
                 (A2') (E') (E') (A1') (E') (E') (E') (E') (A2")
                 (E") (E") (A1') (E') (E') (A2') (A1') (E') (E')
                 (A1') (E') (E') (E') (E') (A1') (E") (E") (A2")
                 (A1') (E') (E') (A2') (E') (E') (E') (E') (A1')
 Keep R1 ints in memory in symmetry-blocked form, NReq=3277947.
 Requested convergence on RMS density matrix=1.00D-08 within 128 cycles.
 Requested convergence on MAX density matrix=1.00D-06.
 Requested convergence on             energy=1.00D-06.
 No special actions if energy rises.
 SCF Done:  E(RHF) =  -239.840717984     A.U. after    5 cycles
            NFock=  5  Conv=0.68D-08     -V/T= 2.0053
 ExpMin= 1.24D-01 ExpMax= 2.43D+02 ExpMxC= 2.43D+02 IAcc=3 IRadAn=         5 AccDes= 0.00D+00
 HarFok:  IExCor=  205 AccDes= 0.00D+00 IRadAn=         5 IDoV=-2 UseB2=F ITyADJ=14
 ICtDFT= 12500011 ScaDFX=  1.000000  1.000000  1.000000  1.000000
 Range of M.O.s used for correlation:     7    66
 NBasis=    66 NAE=    21 NBE=    21 NFC=     6 NFV=     0
 NROrb=     60 NOA=    15 NOB=    15 NVA=    45 NVB=    45
 Fully direct method using O(ONN) memory.
 JobTyp=1 Pass  1:  I=   7 to  21 NPSUse=  1 ParTrn=F ParDer=F DoDerP=T.
 Spin components of T(2) and E(2):
     alpha-alpha T2 =       0.2032420073D-01 E2=     -0.5527624959D-01
     alpha-beta  T2 =       0.1267139582D+00 E2=     -0.3535554330D+00
     beta-beta   T2 =       0.2032420073D-01 E2=     -0.5527624959D-01
 ANorm=    0.1080445445D+01
 E2 =    -0.4641079322D+00 EUMP2 =    -0.24030482591655D+03
          IDoAtm=111111111111
          Differentiating once with respect to electric field.
                with respect to dipole field.
          Differentiating once with respect to nuclear coordinates.
 Keep R1 ints in memory in symmetry-blocked form, NReq=3280122.
          There are     1 degrees of freedom in the 1st order CPHF.  IDoFFX=0 NUNeed=     1.
 LinEq1:  Iter=  0 NonCon=     1 RMS=8.67D-03 Max=1.35D-01 NDo=     1
 AX will form     1 AO Fock derivatives at one time.
 LinEq1:  Iter=  1 NonCon=     1 RMS=1.29D-03 Max=1.37D-02 NDo=     1
 LinEq1:  Iter=  2 NonCon=     1 RMS=3.64D-04 Max=4.40D-03 NDo=     1
 LinEq1:  Iter=  3 NonCon=     1 RMS=1.16D-04 Max=8.96D-04 NDo=     1
 LinEq1:  Iter=  4 NonCon=     1 RMS=2.73D-05 Max=2.76D-04 NDo=     1
 LinEq1:  Iter=  5 NonCon=     1 RMS=2.70D-06 Max=3.70D-05 NDo=     1
 LinEq1:  Iter=  6 NonCon=     1 RMS=1.94D-07 Max=1.71D-06 NDo=     1
 LinEq1:  Iter=  7 NonCon=     1 RMS=1.73D-08 Max=1.47D-07 NDo=     1
 LinEq1:  Iter=  8 NonCon=     1 RMS=1.82D-09 Max=2.01D-08 NDo=     1
 LinEq1:  Iter=  9 NonCon=     1 RMS=1.43D-10 Max=1.39D-09 NDo=     1
 LinEq1:  Iter= 10 NonCon=     0 RMS=1.04D-11 Max=1.02D-10 NDo=     1
 Linear equations converged to 1.000D-10 1.000D-09 after    10 iterations.
 End of Minotr F.D. properties file   721 does not exist.
 End of Minotr F.D. properties file   722 does not exist.
 End of Minotr F.D. properties file   788 does not exist.
 Calling FoFJK, ICntrl=  10002127 FMM=F ISym2X=1 I1Cent= 0 IOpClX= 0 NMat=1 NMatS=1 NMatT=0.
 ***** Axes restored to original set *****
 -------------------------------------------------------------------
 Center     Atomic                   Forces (Hartrees/Bohr)
 Number     Number              X              Y              Z
 -------------------------------------------------------------------
      1        7          -0.000000000    0.000000968    0.000000000
      2        7          -0.000000839   -0.000000484   -0.000000000
      3        7           0.000000839   -0.000000484    0.000000000
      4        5           0.000000659   -0.000000381   -0.000000000
      5        5          -0.000000659   -0.000000381   -0.000000000
      6        5          -0.000000000    0.000000761   -0.000000000
      7        1          -0.000000000   -0.000000441   -0.000000000
      8        1           0.000000069    0.000000040    0.000000000
      9        1          -0.000000382    0.000000221   -0.000000000
     10        1          -0.000000000   -0.000000080   -0.000000000
     11        1           0.000000382    0.000000221   -0.000000000
     12        1          -0.000000069    0.000000040    0.000000000
 -------------------------------------------------------------------
 Cartesian Forces:  Max     0.000000968 RMS     0.000000378

 GradGradGradGradGradGradGradGradGradGradGradGradGradGradGradGradGradGrad
 Berny optimization.
 Using GEDIIS/GDIIS optimizer.
 FormGI is forming the generalized inverse of G from B-inverse, IUseBI=4.
 Internal  Forces:  Max     0.000000441 RMS     0.000000170
 Search for a local minimum.
 Step number   3 out of a maximum of   64
 All quantities printed in internal units (Hartrees-Bohrs-Radians)
 Mixed Optimization -- En-DIIS/RFO-DIIS
 Swapping is turned off.
 Update second derivatives using D2CorX and points    1    2    3
 DE= -2.65D-08 DEPred=-5.84D-09 R= 4.53D+00
 Trust test= 4.53D+00 RLast= 1.76D-04 DXMaxT set to 3.00D-01
 ITU=  0  1  0
     Eigenvalues ---    0.01490   0.01490   0.01490   0.01490   0.01490
     Eigenvalues ---    0.01490   0.01490   0.01490   0.01490   0.16000
     Eigenvalues ---    0.16000   0.16000   0.16000   0.16000   0.16000
     Eigenvalues ---    0.21898   0.22000   0.22000   0.24719   0.24719
     Eigenvalues ---    0.24797   0.34982   0.34982   0.37559   0.37559
     Eigenvalues ---    0.37559   0.40291   0.44448   0.44521   0.44521
 En-DIIS/RFO-DIIS/Sim-DIIS IScMMF=       -3 using points:     3    2    1
 RFO step:  Lambda=-4.95770408D-12.
 DIIS inversion failure, remove point   3.
 DIIS inversion failure, remove point   2.
 Use linear search instead of GDIIS.
 RFO step:  Lambda= 0.00000000D+00 EMin= 1.48958263D-02
 Quartic linear search produced a step of  0.00002.
 Iteration  1 RMS(Cart)=  0.00000045 RMS(Int)=  0.00000000
 ClnCor:  largest displacement from symmetrization is 8.02D-13 for atom     6.
 Variable       Old X    -DE/DX   Delta X   Delta X   Delta X     New X
                                 (Linear)    (Quad)   (Total)
    R1        2.74919  -0.00000   0.00000  -0.00000  -0.00000   2.74919
    R2        2.74919  -0.00000   0.00000  -0.00000  -0.00000   2.74919
    R3        1.92563  -0.00000  -0.00000  -0.00000  -0.00000   1.92563
    R4        2.74919  -0.00000   0.00000  -0.00000  -0.00000   2.74919
    R5        2.74919  -0.00000   0.00000  -0.00000  -0.00000   2.74919
    R6        1.92563  -0.00000  -0.00000  -0.00000  -0.00000   1.92563
    R7        2.74919  -0.00000   0.00000  -0.00000  -0.00000   2.74919
    R8        2.74919  -0.00000   0.00000  -0.00000  -0.00000   2.74919
    R9        1.92563  -0.00000  -0.00000  -0.00000  -0.00000   1.92563
   R10        2.26605   0.00000   0.00000   0.00000   0.00000   2.26605
   R11        2.26605   0.00000   0.00000   0.00000   0.00000   2.26605
   R12        2.26605   0.00000   0.00000   0.00000   0.00000   2.26605
    A1        2.14607  -0.00000  -0.00000  -0.00000  -0.00000   2.14607
    A2        2.06856   0.00000   0.00000   0.00000   0.00000   2.06856
    A3        2.06856   0.00000   0.00000   0.00000   0.00000   2.06856
    A4        2.14607  -0.00000  -0.00000  -0.00000  -0.00000   2.14607
    A5        2.06856   0.00000   0.00000   0.00000   0.00000   2.06856
    A6        2.06856   0.00000   0.00000   0.00000   0.00000   2.06856
    A7        2.14607  -0.00000  -0.00000  -0.00000  -0.00000   2.14607
    A8        2.06856   0.00000   0.00000   0.00000   0.00000   2.06856
    A9        2.06856   0.00000   0.00000   0.00000   0.00000   2.06856
   A10        2.04272   0.00000   0.00000   0.00000   0.00000   2.04272
   A11        2.12023  -0.00000  -0.00000  -0.00000  -0.00000   2.12023
   A12        2.12023  -0.00000  -0.00000  -0.00000  -0.00000   2.12023
   A13        2.04272   0.00000   0.00000   0.00000   0.00000   2.04272
   A14        2.12023  -0.00000  -0.00000  -0.00000  -0.00000   2.12023
   A15        2.12023  -0.00000  -0.00000  -0.00000  -0.00000   2.12023
   A16        2.04272   0.00000   0.00000   0.00000   0.00000   2.04272
   A17        2.12023  -0.00000  -0.00000  -0.00000  -0.00000   2.12023
   A18        2.12023  -0.00000  -0.00000  -0.00000  -0.00000   2.12023
    D1       -0.00000  -0.00000   0.00000  -0.00000   0.00000   0.00000
    D2        3.14159  -0.00000   0.00000  -0.00000   0.00000   3.14159
    D3        3.14159  -0.00000   0.00000  -0.00000   0.00000   3.14159
    D4        0.00000  -0.00000   0.00000  -0.00000   0.00000   0.00000
    D5        0.00000   0.00000   0.00000   0.00000   0.00000   0.00000
    D6        3.14159   0.00000   0.00000   0.00000   0.00000   3.14159
    D7        3.14159  -0.00000   0.00000  -0.00000   0.00000   3.14159
    D8       -0.00000   0.00000   0.00000   0.00000   0.00000   0.00000
    D9        0.00000   0.00000   0.00000   0.00000  -0.00000   0.00000
   D10        3.14159   0.00000   0.00000   0.00000   0.00000   3.14159
   D11        3.14159  -0.00000   0.00000  -0.00000   0.00000   3.14159
   D12       -0.00000   0.00000   0.00000   0.00000   0.00000   0.00000
   D13       -0.00000  -0.00000   0.00000  -0.00000   0.00000   0.00000
   D14        3.14159  -0.00000   0.00000  -0.00000   0.00000   3.14159
   D15        3.14159   0.00000   0.00000   0.00000   0.00000   3.14159
   D16       -0.00000   0.00000   0.00000   0.00000   0.00000   0.00000
   D17       -0.00000   0.00000   0.00000   0.00000   0.00000   0.00000
   D18        3.14159  -0.00000   0.00000  -0.00000   0.00000   3.14159
   D19        3.14159   0.00000   0.00000   0.00000   0.00000   3.14159
   D20        0.00000  -0.00000   0.00000  -0.00000   0.00000   0.00000
   D21        0.00000  -0.00000   0.00000  -0.00000   0.00000   0.00000
   D22        3.14159   0.00000   0.00000   0.00000   0.00000   3.14159
   D23        3.14159  -0.00000   0.00000  -0.00000   0.00000   3.14159
   D24        0.00000   0.00000   0.00000   0.00000   0.00000   0.00000
         Item               Value     Threshold  Converged?
 Maximum Force            0.000000     0.000015     YES
 RMS     Force            0.000000     0.000010     YES
 Maximum Displacement     0.000001     0.000060     YES
 RMS     Displacement     0.000000     0.000040     YES
 Predicted change in Energy=-2.822050D-12
 Optimization completed.
    -- Stationary point found.
                           ----------------------------
                           !   Optimized Parameters   !
                           ! (Angstroms and Degrees)  !
 --------------------------                            --------------------------
 ! Name  Definition              Value          Derivative Info.                !
 --------------------------------------------------------------------------------
 ! R1    R(1,4)                  1.4548         -DE/DX =    0.0                 !
 ! R2    R(1,5)                  1.4548         -DE/DX =    0.0                 !
 ! R3    R(1,7)                  1.019          -DE/DX =    0.0                 !
 ! R4    R(2,4)                  1.4548         -DE/DX =    0.0                 !
 ! R5    R(2,6)                  1.4548         -DE/DX =    0.0                 !
 ! R6    R(2,11)                 1.019          -DE/DX =    0.0                 !
 ! R7    R(3,5)                  1.4548         -DE/DX =    0.0                 !
 ! R8    R(3,6)                  1.4548         -DE/DX =    0.0                 !
 ! R9    R(3,9)                  1.019          -DE/DX =    0.0                 !
 ! R10   R(4,12)                 1.1991         -DE/DX =    0.0                 !
 ! R11   R(5,8)                  1.1991         -DE/DX =    0.0                 !
 ! R12   R(6,10)                 1.1991         -DE/DX =    0.0                 !
 ! A1    A(4,1,5)              122.9607         -DE/DX =    0.0                 !
 ! A2    A(4,1,7)              118.5196         -DE/DX =    0.0                 !
 ! A3    A(5,1,7)              118.5196         -DE/DX =    0.0                 !
 ! A4    A(4,2,6)              122.9607         -DE/DX =    0.0                 !
 ! A5    A(4,2,11)             118.5196         -DE/DX =    0.0                 !
 ! A6    A(6,2,11)             118.5196         -DE/DX =    0.0                 !
 ! A7    A(5,3,6)              122.9607         -DE/DX =    0.0                 !
 ! A8    A(5,3,9)              118.5196         -DE/DX =    0.0                 !
 ! A9    A(6,3,9)              118.5196         -DE/DX =    0.0                 !
 ! A10   A(1,4,2)              117.0393         -DE/DX =    0.0                 !
 ! A11   A(1,4,12)             121.4804         -DE/DX =    0.0                 !
 ! A12   A(2,4,12)             121.4804         -DE/DX =    0.0                 !
 ! A13   A(1,5,3)              117.0393         -DE/DX =    0.0                 !
 ! A14   A(1,5,8)              121.4804         -DE/DX =    0.0                 !
 ! A15   A(3,5,8)              121.4804         -DE/DX =    0.0                 !
 ! A16   A(2,6,3)              117.0393         -DE/DX =    0.0                 !
 ! A17   A(2,6,10)             121.4804         -DE/DX =    0.0                 !
 ! A18   A(3,6,10)             121.4804         -DE/DX =    0.0                 !
 ! D1    D(5,1,4,2)              0.0            -DE/DX =    0.0                 !
 ! D2    D(5,1,4,12)           180.0            -DE/DX =    0.0                 !
 ! D3    D(7,1,4,2)            180.0            -DE/DX =    0.0                 !
 ! D4    D(7,1,4,12)             0.0            -DE/DX =    0.0                 !
 ! D5    D(4,1,5,3)              0.0            -DE/DX =    0.0                 !
 ! D6    D(4,1,5,8)            180.0            -DE/DX =    0.0                 !
 ! D7    D(7,1,5,3)            180.0            -DE/DX =    0.0                 !
 ! D8    D(7,1,5,8)              0.0            -DE/DX =    0.0                 !
 ! D9    D(6,2,4,1)              0.0            -DE/DX =    0.0                 !
 ! D10   D(6,2,4,12)           180.0            -DE/DX =    0.0                 !
 ! D11   D(11,2,4,1)           180.0            -DE/DX =    0.0                 !
 ! D12   D(11,2,4,12)            0.0            -DE/DX =    0.0                 !
 ! D13   D(4,2,6,3)              0.0            -DE/DX =    0.0                 !
 ! D14   D(4,2,6,10)           180.0            -DE/DX =    0.0                 !
 ! D15   D(11,2,6,3)           180.0            -DE/DX =    0.0                 !
 ! D16   D(11,2,6,10)            0.0            -DE/DX =    0.0                 !
 ! D17   D(6,3,5,1)              0.0            -DE/DX =    0.0                 !
 ! D18   D(6,3,5,8)            180.0            -DE/DX =    0.0                 !
 ! D19   D(9,3,5,1)            180.0            -DE/DX =    0.0                 !
 ! D20   D(9,3,5,8)              0.0            -DE/DX =    0.0                 !
 ! D21   D(5,3,6,2)              0.0            -DE/DX =    0.0                 !
 ! D22   D(5,3,6,10)           180.0            -DE/DX =    0.0                 !
 ! D23   D(9,3,6,2)            180.0            -DE/DX =    0.0                 !
 ! D24   D(9,3,6,10)             0.0            -DE/DX =    0.0                 !
 --------------------------------------------------------------------------------
 GradGradGradGradGradGradGradGradGradGradGradGradGradGradGradGradGradGrad

                          Input orientation:                          
 ---------------------------------------------------------------------
 Center     Atomic      Atomic             Coordinates (Angstroms)
 Number     Number       Type             X           Y           Z
 ---------------------------------------------------------------------
      1          7           0        0.000000    1.432623    0.000000
      2          7           0       -1.240688   -0.716311   -0.000000
      3          7           0        1.240688   -0.716311    0.000000
      4          5           0       -1.278272    0.738011   -0.000000
      5          5           0        1.278272    0.738011    0.000000
      6          5           0       -0.000000   -1.476021    0.000000
      7          1           0        0.000000    2.451621    0.000000
      8          1           0        2.316761    1.337582    0.000000
      9          1           0        2.123166   -1.225811    0.000000
     10          1           0       -0.000000   -2.675165    0.000000
     11          1           0       -2.123166   -1.225811   -0.000000
     12          1           0       -2.316761    1.337582   -0.000000
 ---------------------------------------------------------------------
                    Distance matrix (angstroms):
                    1          2          3          4          5
     1  N    0.000000
     2  N    2.481376   0.000000
     3  N    2.481376   2.481376   0.000000
     4  B    1.454808   1.454808   2.908644   0.000000
     5  B    1.454808   2.908644   1.454808   2.556543   0.000000
     6  B    2.908644   1.454808   1.454808   2.556543   2.556543
     7  H    1.018998   3.402220   3.402220   2.137859   2.137859
     8  H    2.318709   4.107788   2.318709   3.644687   1.199144
     9  H    3.402220   3.402220   1.018998   3.927642   2.137859
    10  H    4.107788   2.318709   2.318709   3.644687   3.644687
    11  H    3.402220   1.018998   3.402220   2.137859   3.927642
    12  H    2.318709   2.318709   4.107788   1.199144   3.644687
                    6          7          8          9         10
     6  B    0.000000
     7  H    3.927642   0.000000
     8  H    3.644687   2.570693   0.000000
     9  H    2.137859   4.246332   2.570693   0.000000
    10  H    1.199144   5.126786   4.633521   2.570693   0.000000
    11  H    2.137859   4.246332   5.126786   4.246332   2.570693
    12  H    3.644687   2.570693   4.633521   5.126786   4.633521
                   11         12
    11  H    0.000000
    12  H    2.570693   0.000000
 Stoichiometry    B3H6N3
 Framework group  D3H[3C2(HB.NH)]
 Deg. of freedom     4
 Full point group                 D3H     NOp  12
 Largest Abelian subgroup         C2V     NOp   4
 Largest concise Abelian subgroup C2      NOp   2
                         Standard orientation:                         
 ---------------------------------------------------------------------
 Center     Atomic      Atomic             Coordinates (Angstroms)
 Number     Number       Type             X           Y           Z
 ---------------------------------------------------------------------
      1          7           0        0.000000    1.432623    0.000000
      2          7           0        1.240688   -0.716311   -0.000000
      3          7           0       -1.240688   -0.716311   -0.000000
      4          5           0        1.278272    0.738011   -0.000000
      5          5           0       -1.278272    0.738011   -0.000000
      6          5           0       -0.000000   -1.476021   -0.000000
      7          1           0        0.000000    2.451621    0.000000
      8          1           0       -2.316761    1.337582   -0.000000
      9          1           0       -2.123166   -1.225811   -0.000000
     10          1           0       -0.000000   -2.675165   -0.000000
     11          1           0        2.123166   -1.225811   -0.000000
     12          1           0        2.316761    1.337582    0.000000
 ---------------------------------------------------------------------
 Rotational constants (GHZ):           5.1052017           5.1052017           2.5526009

 **********************************************************************

            Population analysis using the SCF Density.

 **********************************************************************

 Orbital symmetries:
       Occupied  (A1') (E') (E') (A1') (E') (E') (A1') (E') (E')
                 (A1') (E') (E') (A2') (E') (E') (A1') (A2") (E')
                 (E') (E") (E")
       Virtual   (E") (E") (A1') (A2") (E') (E') (A1') (E') (E')
                 (A2') (E') (E') (A1') (E') (E') (E') (E') (A2")
                 (E") (E") (A1') (E') (E') (A2') (A1') (E') (E')
                 (A1') (E') (E') (E') (E') (A1') (E") (E") (A2")
                 (A1') (E') (E') (A2') (E') (E') (E') (E') (A1')
 The electronic state is 1-A1'.
 Alpha  occ. eigenvalues --  -15.46420 -15.46411 -15.46411  -7.57059  -7.57047
 Alpha  occ. eigenvalues --   -7.57047  -1.17918  -1.11249  -1.11249  -0.72527
 Alpha  occ. eigenvalues --   -0.71655  -0.71655  -0.58999  -0.58888  -0.58888
 Alpha  occ. eigenvalues --   -0.55170  -0.50222  -0.46141  -0.46141  -0.39837
 Alpha  occ. eigenvalues --   -0.39837
 Alpha virt. eigenvalues --    0.17259   0.17259   0.27201   0.28368   0.30457
 Alpha virt. eigenvalues --    0.30457   0.34253   0.36922   0.36922   0.39683
 Alpha virt. eigenvalues --    0.44984   0.44984   0.50691   0.54679   0.54679
 Alpha virt. eigenvalues --    0.66158   0.66158   0.66816   0.71659   0.71659
 Alpha virt. eigenvalues --    0.74640   0.84130   0.84130   0.98798   0.99360
 Alpha virt. eigenvalues --    1.19136   1.19136   1.38620   1.39735   1.39735
 Alpha virt. eigenvalues --    1.43629   1.43629   1.46384   1.47801   1.47801
 Alpha virt. eigenvalues --    1.59374   1.72669   1.82878   1.82878   1.93822
 Alpha virt. eigenvalues --    1.98968   1.98968   2.86065   2.86065   2.95704
          Condensed to atoms (all electrons):
               1          2          3          4          5          6
     1  N    7.081281  -0.027881  -0.027881   0.357766   0.357766  -0.000281
     2  N   -0.027881   7.081281  -0.027881   0.357766  -0.000281   0.357766
     3  N   -0.027881  -0.027881   7.081281  -0.000281   0.357766   0.357766
     4  B    0.357766   0.357766  -0.000281   3.194051  -0.012002  -0.012002
     5  B    0.357766  -0.000281   0.357766  -0.012002   3.194051  -0.012002
     6  B   -0.000281   0.357766   0.357766  -0.012002  -0.012002   3.194051
     7  H    0.331239   0.001044   0.001044  -0.023126  -0.023126   0.000236
     8  H   -0.031867   0.000019  -0.031867   0.001835   0.408180   0.001835
     9  H    0.001044   0.001044   0.331239   0.000236  -0.023126  -0.023126
    10  H    0.000019  -0.031867  -0.031867   0.001835   0.001835   0.408180
    11  H    0.001044   0.331239   0.001044  -0.023126   0.000236  -0.023126
    12  H   -0.031867  -0.031867   0.000019   0.408180   0.001835   0.001835
               7          8          9         10         11         12
     1  N    0.331239  -0.031867   0.001044   0.000019   0.001044  -0.031867
     2  N    0.001044   0.000019   0.001044  -0.031867   0.331239  -0.031867
     3  N    0.001044  -0.031867   0.331239  -0.031867   0.001044   0.000019
     4  B   -0.023126   0.001835   0.000236   0.001835  -0.023126   0.408180
     5  B   -0.023126   0.408180  -0.023126   0.001835   0.000236   0.001835
     6  B    0.000236   0.001835  -0.023126   0.408180  -0.023126   0.001835
     7  H    0.385932  -0.002535  -0.000034   0.000002  -0.000034  -0.002535
     8  H   -0.002535   0.727368  -0.002535  -0.000028   0.000002  -0.000028
     9  H   -0.000034  -0.002535   0.385932  -0.002535  -0.000034   0.000002
    10  H    0.000002  -0.000028  -0.002535   0.727368  -0.002535  -0.000028
    11  H   -0.000034   0.000002  -0.000034  -0.002535   0.385932  -0.002535
    12  H   -0.002535  -0.000028   0.000002  -0.000028  -0.002535   0.727368
 Mulliken charges:
               1
     1  N   -1.010382
     2  N   -1.010382
     3  N   -1.010382
     4  B    0.748867
     5  B    0.748867
     6  B    0.748867
     7  H    0.331893
     8  H   -0.070377
     9  H    0.331893
    10  H   -0.070377
    11  H    0.331893
    12  H   -0.070377
 Sum of Mulliken charges =  -0.00000
 Mulliken charges with hydrogens summed into heavy atoms:
               1
     1  N   -0.678489
     2  N   -0.678489
     3  N   -0.678489
     4  B    0.678489
     5  B    0.678489
     6  B    0.678489
 Electronic spatial extent (au):  <R**2>=            490.6124
 Charge=             -0.0000 electrons
 Dipole moment (field-independent basis, Debye):
    X=             -0.0000    Y=             -0.0000    Z=             -0.0000  Tot=              0.0000
 Quadrupole moment (field-independent basis, Debye-Ang):
   XX=            -34.2891   YY=            -34.2891   ZZ=            -37.5939
   XY=             -0.0000   XZ=              0.0000   YZ=             -0.0000
 Traceless Quadrupole moment (field-independent basis, Debye-Ang):
   XX=              1.1016   YY=              1.1016   ZZ=             -2.2032
   XY=             -0.0000   XZ=              0.0000   YZ=             -0.0000
 Octapole moment (field-independent basis, Debye-Ang**2):
  XXX=              0.0000  YYY=             14.8159  ZZZ=              0.0000  XYY=              0.0000
  XXY=            -14.8159  XXZ=             -0.0000  XZZ=              0.0000  YZZ=              0.0000
  YYZ=             -0.0000  XYZ=             -0.0000
 Hexadecapole moment (field-independent basis, Debye-Ang**3):
 XXXX=           -320.9418 YYYY=           -320.9418 ZZZZ=            -36.3650 XXXY=             -0.0000
 XXXZ=             -0.0000 YYYX=             -0.0000 YYYZ=             -0.0000 ZZZX=             -0.0000
 ZZZY=             -0.0000 XXYY=           -106.9806 XXZZ=            -64.3519 YYZZ=            -64.3519
 XXYZ=             -0.0000 YYXZ=             -0.0000 ZZXY=             -0.0000
 N-N= 1.947743826290D+02 E-N=-9.493884384584D+02  KE= 2.385735875975D+02
 Symmetry A1   KE= 1.503630832697D+02
 Symmetry A2   KE= 2.877791293877D+00
 Symmetry B1   KE= 8.018663233328D+01
 Symmetry B2   KE= 5.146080700601D+00
 Unable to Open any file for archive entry.
 1\1\GINC-BS001\FOpt\RMP2-FC\3-21G\B3H6N3\PNATT\06-Aug-2026\0\\# opt=ti
 ght freq=hpmodes mp2/3-21g geom=connectivity\\Title Card Required\\0,1
 \N,0.0000000001,1.4326229224,0.\N,-1.2406878435,-0.7163114586,0.\N,1.2
 406878434,-0.7163114588,0.\B,-1.2782716962,0.7380105097,0.\B,1.2782716
 964,0.7380105095,0.\B,-0.0000000001,-1.4760210142,0.\H,0.0000000002,2.
 4516211885,0.\H,2.3167606986,1.3375824144,0.\H,2.1231662282,-1.2258105
 919,0.\H,-0.0000000002,-2.6751648241,0.\H,-2.1231662284,-1.2258105916,
 0.\H,-2.3167606984,1.3375824148,0.\\Version=ES64L-G16RevC.01\State=1-A
 1'\HF=-239.840718\MP2=-240.3048259\RMSD=6.832e-09\RMSF=3.785e-07\Dipol
 e=0.,0.,0.\PG=D03H [3C2(H1B1.N1H1)]\\@
 The archive entry for this job was punched.


 LAWS OF PROGRAMMING DEFINITION:  A WORKING PROGRAM
                                  IS ONE THAT HAS
                                  ONLY UNOBSERVED
                                  BUGS.
 Job cpu time:       0 days  0 hours  0 minutes  5.4 seconds.
 Elapsed time:       0 days  0 hours  0 minutes  5.2 seconds.
 File lengths (MBytes):  RWF=      6 Int=      0 D2E=      0 Chk=      2 Scr=      1
 Normal termination of Gaussian 16 at Thu Aug  6 17:13:36 2026.
 Link1:  Proceeding to internal job step number  2.
 -------------------------------------------------------------------
 #N Geom=AllCheck Guess=TCheck SCRF=Check GenChk RMP2(FC)/3-21G Freq
 -------------------------------------------------------------------
 1/7=10,10=4,29=7,30=1,38=1,40=1/1,3;
 2/12=2,40=1/2;
 3/5=5,11=1,14=-4,25=1,30=1,70=2,71=2,116=1,140=1/1,2,3;
 4/5=101/1;
 5/5=2,38=6,98=1/2;
 8/6=3,8=1,10=1,19=11,30=-1/1;
 9/15=3,16=-3/6;
 11/6=1,8=1,15=11,17=12,24=-1,27=1,28=-2,29=300,32=6,42=3/1,2,10;
 10/6=2,21=1/2;
 8/6=4,8=1,10=1,19=11,30=-1/11,4;
 10/5=1,20=4/2;
 11/12=2,14=11,16=1,17=2,28=-2,42=3,76=2/2,10,12;
 6/7=2,8=2,9=2,10=2/1;
 7/8=11,10=1,12=2,25=1,44=2/1,2,3,16;
 1/7=10,10=4,30=1/3;
 99//99;
 Structure from the checkpoint file:  "B3N3H6.chk"
 -------------------
 Title Card Required
 -------------------
 Charge =  0 Multiplicity = 1
 Redundant internal coordinates found in file.  (old form).
 N,0,0.0000000001,1.4326229224,0.
 N,0,-1.2406878435,-0.7163114586,0.
 N,0,1.2406878434,-0.7163114588,0.
 B,0,-1.2782716962,0.7380105097,0.
 B,0,1.2782716964,0.7380105095,0.
 B,0,-0.0000000001,-1.4760210142,0.
 H,0,0.0000000002,2.4516211885,0.
 H,0,2.3167606986,1.3375824144,0.
 H,0,2.1231662282,-1.2258105919,0.
 H,0,-0.0000000002,-2.6751648241,0.
 H,0,-2.1231662284,-1.2258105916,0.
 H,0,-2.3167606984,1.3375824148,0.
 Recover connectivity data from disk.

 GradGradGradGradGradGradGradGradGradGradGradGradGradGradGradGradGradGrad
 Berny optimization.
 Initialization pass.
                           ----------------------------
                           !    Initial Parameters    !
                           ! (Angstroms and Degrees)  !
 --------------------------                            --------------------------
 ! Name  Definition              Value          Derivative Info.                !
 --------------------------------------------------------------------------------
 ! R1    R(1,4)                  1.4548         calculate D2E/DX2 analytically  !
 ! R2    R(1,5)                  1.4548         calculate D2E/DX2 analytically  !
 ! R3    R(1,7)                  1.019          calculate D2E/DX2 analytically  !
 ! R4    R(2,4)                  1.4548         calculate D2E/DX2 analytically  !
 ! R5    R(2,6)                  1.4548         calculate D2E/DX2 analytically  !
 ! R6    R(2,11)                 1.019          calculate D2E/DX2 analytically  !
 ! R7    R(3,5)                  1.4548         calculate D2E/DX2 analytically  !
 ! R8    R(3,6)                  1.4548         calculate D2E/DX2 analytically  !
 ! R9    R(3,9)                  1.019          calculate D2E/DX2 analytically  !
 ! R10   R(4,12)                 1.1991         calculate D2E/DX2 analytically  !
 ! R11   R(5,8)                  1.1991         calculate D2E/DX2 analytically  !
 ! R12   R(6,10)                 1.1991         calculate D2E/DX2 analytically  !
 ! A1    A(4,1,5)              122.9607         calculate D2E/DX2 analytically  !
 ! A2    A(4,1,7)              118.5196         calculate D2E/DX2 analytically  !
 ! A3    A(5,1,7)              118.5196         calculate D2E/DX2 analytically  !
 ! A4    A(4,2,6)              122.9607         calculate D2E/DX2 analytically  !
 ! A5    A(4,2,11)             118.5196         calculate D2E/DX2 analytically  !
 ! A6    A(6,2,11)             118.5196         calculate D2E/DX2 analytically  !
 ! A7    A(5,3,6)              122.9607         calculate D2E/DX2 analytically  !
 ! A8    A(5,3,9)              118.5196         calculate D2E/DX2 analytically  !
 ! A9    A(6,3,9)              118.5196         calculate D2E/DX2 analytically  !
 ! A10   A(1,4,2)              117.0393         calculate D2E/DX2 analytically  !
 ! A11   A(1,4,12)             121.4804         calculate D2E/DX2 analytically  !
 ! A12   A(2,4,12)             121.4804         calculate D2E/DX2 analytically  !
 ! A13   A(1,5,3)              117.0393         calculate D2E/DX2 analytically  !
 ! A14   A(1,5,8)              121.4804         calculate D2E/DX2 analytically  !
 ! A15   A(3,5,8)              121.4804         calculate D2E/DX2 analytically  !
 ! A16   A(2,6,3)              117.0393         calculate D2E/DX2 analytically  !
 ! A17   A(2,6,10)             121.4804         calculate D2E/DX2 analytically  !
 ! A18   A(3,6,10)             121.4804         calculate D2E/DX2 analytically  !
 ! D1    D(5,1,4,2)              0.0            calculate D2E/DX2 analytically  !
 ! D2    D(5,1,4,12)           180.0            calculate D2E/DX2 analytically  !
 ! D3    D(7,1,4,2)            180.0            calculate D2E/DX2 analytically  !
 ! D4    D(7,1,4,12)             0.0            calculate D2E/DX2 analytically  !
 ! D5    D(4,1,5,3)              0.0            calculate D2E/DX2 analytically  !
 ! D6    D(4,1,5,8)            180.0            calculate D2E/DX2 analytically  !
 ! D7    D(7,1,5,3)            180.0            calculate D2E/DX2 analytically  !
 ! D8    D(7,1,5,8)              0.0            calculate D2E/DX2 analytically  !
 ! D9    D(6,2,4,1)              0.0            calculate D2E/DX2 analytically  !
 ! D10   D(6,2,4,12)           180.0            calculate D2E/DX2 analytically  !
 ! D11   D(11,2,4,1)           180.0            calculate D2E/DX2 analytically  !
 ! D12   D(11,2,4,12)            0.0            calculate D2E/DX2 analytically  !
 ! D13   D(4,2,6,3)              0.0            calculate D2E/DX2 analytically  !
 ! D14   D(4,2,6,10)           180.0            calculate D2E/DX2 analytically  !
 ! D15   D(11,2,6,3)           180.0            calculate D2E/DX2 analytically  !
 ! D16   D(11,2,6,10)            0.0            calculate D2E/DX2 analytically  !
 ! D17   D(6,3,5,1)              0.0            calculate D2E/DX2 analytically  !
 ! D18   D(6,3,5,8)            180.0            calculate D2E/DX2 analytically  !
 ! D19   D(9,3,5,1)            180.0            calculate D2E/DX2 analytically  !
 ! D20   D(9,3,5,8)              0.0            calculate D2E/DX2 analytically  !
 ! D21   D(5,3,6,2)              0.0            calculate D2E/DX2 analytically  !
 ! D22   D(5,3,6,10)           180.0            calculate D2E/DX2 analytically  !
 ! D23   D(9,3,6,2)            180.0            calculate D2E/DX2 analytically  !
 ! D24   D(9,3,6,10)             0.0            calculate D2E/DX2 analytically  !
 --------------------------------------------------------------------------------
 Trust Radius=3.00D-01 FncErr=1.00D-07 GrdErr=1.00D-07 EigMax=2.50D+02 EigMin=1.00D-04
 Number of steps in this run=      2 maximum allowed number of steps=      2.
 GradGradGradGradGradGradGradGradGradGradGradGradGradGradGradGradGradGrad

                          Input orientation:                          
 ---------------------------------------------------------------------
 Center     Atomic      Atomic             Coordinates (Angstroms)
 Number     Number       Type             X           Y           Z
 ---------------------------------------------------------------------
      1          7           0        0.000000    1.432623    0.000000
      2          7           0       -1.240688   -0.716311   -0.000000
      3          7           0        1.240688   -0.716311    0.000000
      4          5           0       -1.278272    0.738011   -0.000000
      5          5           0        1.278272    0.738011    0.000000
      6          5           0       -0.000000   -1.476021    0.000000
      7          1           0        0.000000    2.451621    0.000000
      8          1           0        2.316761    1.337582    0.000000
      9          1           0        2.123166   -1.225811    0.000000
     10          1           0       -0.000000   -2.675165    0.000000
     11          1           0       -2.123166   -1.225811   -0.000000
     12          1           0       -2.316761    1.337582   -0.000000
 ---------------------------------------------------------------------
                    Distance matrix (angstroms):
                    1          2          3          4          5
     1  N    0.000000
     2  N    2.481376   0.000000
     3  N    2.481376   2.481376   0.000000
     4  B    1.454808   1.454808   2.908644   0.000000
     5  B    1.454808   2.908644   1.454808   2.556543   0.000000
     6  B    2.908644   1.454808   1.454808   2.556543   2.556543
     7  H    1.018998   3.402220   3.402220   2.137859   2.137859
     8  H    2.318709   4.107788   2.318709   3.644687   1.199144
     9  H    3.402220   3.402220   1.018998   3.927642   2.137859
    10  H    4.107788   2.318709   2.318709   3.644687   3.644687
    11  H    3.402220   1.018998   3.402220   2.137859   3.927642
    12  H    2.318709   2.318709   4.107788   1.199144   3.644687
                    6          7          8          9         10
     6  B    0.000000
     7  H    3.927642   0.000000
     8  H    3.644687   2.570693   0.000000
     9  H    2.137859   4.246332   2.570693   0.000000
    10  H    1.199144   5.126786   4.633521   2.570693   0.000000
    11  H    2.137859   4.246332   5.126786   4.246332   2.570693
    12  H    3.644687   2.570693   4.633521   5.126786   4.633521
                   11         12
    11  H    0.000000
    12  H    2.570693   0.000000
 Stoichiometry    B3H6N3
 Framework group  D3H[3C2(HB.NH)]
 Deg. of freedom     4
 Full point group                 D3H     NOp  12
 Largest Abelian subgroup         C2V     NOp   4
 Largest concise Abelian subgroup C2      NOp   2
                         Standard orientation:                         
 ---------------------------------------------------------------------
 Center     Atomic      Atomic             Coordinates (Angstroms)
 Number     Number       Type             X           Y           Z
 ---------------------------------------------------------------------
      1          7           0        0.000000    1.432623    0.000000
      2          7           0        1.240688   -0.716311   -0.000000
      3          7           0       -1.240688   -0.716311   -0.000000
      4          5           0        1.278272    0.738011   -0.000000
      5          5           0       -1.278272    0.738011   -0.000000
      6          5           0       -0.000000   -1.476021    0.000000
      7          1           0        0.000000    2.451621    0.000000
      8          1           0       -2.316761    1.337582    0.000000
      9          1           0       -2.123166   -1.225811   -0.000000
     10          1           0       -0.000000   -2.675165    0.000000
     11          1           0        2.123166   -1.225811   -0.000000
     12          1           0        2.316761    1.337582    0.000000
 ---------------------------------------------------------------------
 Rotational constants (GHZ):           5.1052017           5.1052017           2.5526009
 Standard basis: 3-21G (6D, 7F)
 There are    32 symmetry adapted cartesian basis functions of A1  symmetry.
 There are     4 symmetry adapted cartesian basis functions of A2  symmetry.
 There are    22 symmetry adapted cartesian basis functions of B1  symmetry.
 There are     8 symmetry adapted cartesian basis functions of B2  symmetry.
 There are    32 symmetry adapted basis functions of A1  symmetry.
 There are     4 symmetry adapted basis functions of A2  symmetry.
 There are    22 symmetry adapted basis functions of B1  symmetry.
 There are     8 symmetry adapted basis functions of B2  symmetry.
    66 basis functions,   108 primitive gaussians,    66 cartesian basis functions
    21 alpha electrons       21 beta electrons
       nuclear repulsion energy       194.7743826290 Hartrees.
 NAtoms=   12 NActive=   12 NUniq=    4 SFac= 4.00D+00 NAtFMM=   60 NAOKFM=F Big=F
 Integral buffers will be    131072 words long.
 Raffenetti 1 integral format.
 Two-electron integral symmetry is turned on.
 One-electron integrals computed using PRISM.
 NBasis=    66 RedAO= T EigKep=  1.49D-02  NBF=    32     4    22     8
 NBsUse=    66 1.00D-06 EigRej= -1.00D+00 NBFU=    32     4    22     8
 Initial guess from the checkpoint file:  "B3N3H6.chk"
 B after Tr=     0.000000    0.000000    0.000000
         Rot=    1.000000   -0.000000    0.000000   -0.000000 Ang=   0.00 deg.
 Initial guess orbital symmetries:
       Occupied  (A1') (E') (E') (A1') (E') (E') (A1') (E') (E')
                 (A1') (E') (E') (A2') (E') (E') (A1') (A2") (E')
                 (E') (E") (E")
       Virtual   (E") (E") (A1') (A2") (E') (E') (A1') (E') (E')
                 (A2') (E') (E') (A1') (E') (E') (E') (E') (A2")
                 (E") (E") (A1') (E') (E') (A2') (A1') (E') (E')
                 (A1') (E') (E') (E') (E') (A1') (E") (E") (A2")
                 (A1') (E') (E') (A2') (E') (E') (E') (E') (A1')
 Keep R1 ints in memory in symmetry-blocked form, NReq=3277947.
 Requested convergence on RMS density matrix=1.00D-08 within 128 cycles.
 Requested convergence on MAX density matrix=1.00D-06.
 Requested convergence on             energy=1.00D-06.
 No special actions if energy rises.
 SCF Done:  E(RHF) =  -239.840717984     A.U. after    1 cycles
            NFock=  1  Conv=0.15D-08     -V/T= 2.0053
 ExpMin= 1.24D-01 ExpMax= 2.43D+02 ExpMxC= 2.43D+02 IAcc=3 IRadAn=         5 AccDes= 0.00D+00
 HarFok:  IExCor=  205 AccDes= 0.00D+00 IRadAn=         5 IDoV=-2 UseB2=F ITyADJ=14
 ICtDFT= 12500011 ScaDFX=  1.000000  1.000000  1.000000  1.000000
 Range of M.O.s used for correlation:     7    66
 NBasis=    66 NAE=    21 NBE=    21 NFC=     6 NFV=     0
 NROrb=     60 NOA=    15 NOB=    15 NVA=    45 NVB=    45
 Disk-based method using ON**2 memory for 15 occupieds at a time.
 Permanent disk used for amplitudes=     1100925 words.
 Estimated scratch disk usage=     5096146 words.
 Actual    scratch disk usage=     5096146 words.
 JobTyp=1 Pass  1:  I=   7 to  21 NPSUse=  1 ParTrn=F ParDer=F DoDerP=T.
 (rs|ai) integrals will be sorted in core.
 Spin components of T(2) and E(2):
     alpha-alpha T2 =       0.2032419992D-01 E2=     -0.5527624810D-01
     alpha-beta  T2 =       0.1267139544D+00 E2=     -0.3535554271D+00
     beta-beta   T2 =       0.2032419992D-01 E2=     -0.5527624810D-01
 ANorm=    0.1080445443D+01
 E2 =    -0.4641079233D+00 EUMP2 =    -0.24030482590770D+03
 G2DrvN: will do    13 centers at a time, making    1 passes.
 Calling FoFCou, ICntrl=  3107 FMM=F I1Cent=   0 AccDes= 0.00D+00.
 End of G2Drv F.D. properties file   721 does not exist.
 End of G2Drv F.D. properties file   722 does not exist.
 End of G2Drv F.D. properties file   788 does not exist.
          IDoAtm=111111111111
          Differentiating once with respect to electric field.
                with respect to dipole field.
          Differentiating once with respect to nuclear coordinates.
 Keep R1 ints in memory in symmetry-blocked form, NReq=3279105.
          There are    39 degrees of freedom in the 1st order CPHF.  IDoFFX=6 NUNeed=    39.
     36 vectors produced by pass  0 Test12= 2.42D-15 2.56D-09 XBig12= 1.38D+01 1.60D+00.
 AX will form    36 AO Fock derivatives at one time.
     36 vectors produced by pass  1 Test12= 2.42D-15 2.56D-09 XBig12= 2.12D-01 1.30D-01.
     36 vectors produced by pass  2 Test12= 2.42D-15 2.56D-09 XBig12= 2.43D-03 1.28D-02.
     36 vectors produced by pass  3 Test12= 2.42D-15 2.56D-09 XBig12= 1.77D-05 1.06D-03.
     36 vectors produced by pass  4 Test12= 2.42D-15 2.56D-09 XBig12= 1.11D-07 8.90D-05.
     36 vectors produced by pass  5 Test12= 2.42D-15 2.56D-09 XBig12= 6.20D-10 7.24D-06.
     26 vectors produced by pass  6 Test12= 2.42D-15 2.56D-09 XBig12= 2.08D-12 2.89D-07.
      2 vectors produced by pass  7 Test12= 2.42D-15 2.56D-09 XBig12= 7.28D-15 1.53D-08.
 InvSVY:  IOpt=1 It=  1 EMax= 4.44D-16
 Solved reduced A of dimension   244 with    39 vectors.
 End of Minotr F.D. properties file   721 does not exist.
 End of Minotr F.D. properties file   722 does not exist.
 End of Minotr F.D. properties file   788 does not exist.
 MDV=   104857600.
 Form MO integral derivatives with frozen-active canonical formalism.
 Discarding MO integrals.
 Reordered first order wavefunction length =      1786050
 In DefCFB: NBatch=  1 ICI= 21 ICA= 45 LFMax= 23
            Large arrays: LIAPS=    16465680 LIARS=     3929310 words.
 Semi-Direct transformation.
 ModeAB=           4 MOrb=            21 LenV=     104669132
 LASXX=      2257080 LTotXX=     2257080 LenRXX=     4638921
 LTotAB=     2381841 MaxLAS=     1794870 LenRXY=           0
 NonZer=     6896001 LenScr=    11082240 LnRSAI=     1794870
 LnScr1=     3363840 LExtra=           0 Total=     20879871
 MaxDsk=          -1 SrtSym=           T ITran=            4
 JobTyp=0 Pass  1:  I=   1 to  21.
 (rs|ai) integrals will be sorted in core.
 Spin components of T(2) and E(2):
     alpha-alpha T2 =       0.2032419992D-01 E2=     -0.5527624810D-01
     alpha-beta  T2 =       0.1267139544D+00 E2=     -0.3535554271D+00
     beta-beta   T2 =       0.2032419992D-01 E2=     -0.5527624810D-01
 ANorm=    0.1527980598D+01
 E2 =    -0.4641079233D+00 EUMP2 =    -0.24030482590770D+03
          IDoAtm=111111111111
          Differentiating once with respect to electric field.
                with respect to dipole field.
          Differentiating once with respect to nuclear coordinates.
          There are     1 degrees of freedom in the 1st order CPHF.  IDoFFX=0 NUNeed=     1.
 LinEq1:  Iter=  0 NonCon=     1 RMS=8.67D-03 Max=1.35D-01 NDo=     1
 LinEq1:  Iter=  1 NonCon=     1 RMS=1.29D-03 Max=1.37D-02 NDo=     1
 LinEq1:  Iter=  2 NonCon=     1 RMS=3.64D-04 Max=4.40D-03 NDo=     1
 LinEq1:  Iter=  3 NonCon=     1 RMS=1.16D-04 Max=8.96D-04 NDo=     1
 LinEq1:  Iter=  4 NonCon=     1 RMS=2.73D-05 Max=2.76D-04 NDo=     1
 LinEq1:  Iter=  5 NonCon=     1 RMS=2.70D-06 Max=3.70D-05 NDo=     1
 LinEq1:  Iter=  6 NonCon=     1 RMS=1.94D-07 Max=1.71D-06 NDo=     1
 LinEq1:  Iter=  7 NonCon=     1 RMS=1.73D-08 Max=1.47D-07 NDo=     1
 LinEq1:  Iter=  8 NonCon=     1 RMS=1.82D-09 Max=2.01D-08 NDo=     1
 LinEq1:  Iter=  9 NonCon=     1 RMS=1.43D-10 Max=1.39D-09 NDo=     1
 LinEq1:  Iter= 10 NonCon=     0 RMS=1.04D-11 Max=1.02D-10 NDo=     1
 Linear equations converged to 1.000D-10 1.000D-09 after    10 iterations.
 End of Minotr F.D. properties file   721 does not exist.
 End of Minotr F.D. properties file   722 does not exist.
 End of Minotr F.D. properties file   788 does not exist.
 Symmetrizing basis deriv contribution to polar:
 IMax=3 JMax=2 DiffMx= 0.00D+00
 G2DrvN: will do    13 centers at a time, making    1 passes.
 Calling FoFCou, ICntrl=  3107 FMM=F I1Cent=   0 AccDes= 0.00D+00.
 End of G2Drv F.D. properties file   721 does not exist.
 End of G2Drv F.D. properties file   722 does not exist.
 End of G2Drv F.D. properties file   788 does not exist.
 R2 and R3 integrals will be kept in memory, NReq=     5690732.
 DD1Dir will call FoFMem   1 times, MxPair=       462
 NAB=   231 NAA=     0 NBB=     0.
 Discarding MO integrals.

 **********************************************************************

            Population analysis using the SCF Density.

 **********************************************************************

 Orbital symmetries:
       Occupied  (A1') (E') (E') (A1') (E') (E') (A1') (E') (E')
                 (A1') (E') (E') (A2') (E') (E') (A1') (A2") (E')
                 (E') (E") (E")
       Virtual   (E") (E") (A1') (A2") (E') (E') (A1') (E') (E')
                 (A2') (E') (E') (A1') (E') (E') (E') (E') (A2")
                 (E") (E") (A1') (E') (E') (A2') (A1') (E') (E')
                 (A1') (E') (E') (E') (E') (A1') (E") (E") (A2")
                 (A1') (E') (E') (A2') (E') (E') (E') (E') (A1')
 The electronic state is 1-A1'.
 Alpha  occ. eigenvalues --  -15.46420 -15.46411 -15.46411  -7.57059  -7.57047
 Alpha  occ. eigenvalues --   -7.57047  -1.17918  -1.11249  -1.11249  -0.72527
 Alpha  occ. eigenvalues --   -0.71655  -0.71655  -0.58999  -0.58888  -0.58888
 Alpha  occ. eigenvalues --   -0.55170  -0.50222  -0.46141  -0.46141  -0.39837
 Alpha  occ. eigenvalues --   -0.39837
 Alpha virt. eigenvalues --    0.17259   0.17259   0.27201   0.28368   0.30457
 Alpha virt. eigenvalues --    0.30457   0.34253   0.36922   0.36922   0.39683
 Alpha virt. eigenvalues --    0.44984   0.44984   0.50691   0.54679   0.54679
 Alpha virt. eigenvalues --    0.66158   0.66158   0.66816   0.71659   0.71659
 Alpha virt. eigenvalues --    0.74640   0.84130   0.84130   0.98798   0.99360
 Alpha virt. eigenvalues --    1.19136   1.19136   1.38620   1.39735   1.39735
 Alpha virt. eigenvalues --    1.43629   1.43629   1.46384   1.47801   1.47801
 Alpha virt. eigenvalues --    1.59374   1.72669   1.82878   1.82878   1.93822
 Alpha virt. eigenvalues --    1.98968   1.98968   2.86065   2.86065   2.95704
          Condensed to atoms (all electrons):
               1          2          3          4          5          6
     1  N    7.081281  -0.027881  -0.027881   0.357766   0.357766  -0.000281
     2  N   -0.027881   7.081281  -0.027881   0.357766  -0.000281   0.357766
     3  N   -0.027881  -0.027881   7.081281  -0.000281   0.357766   0.357766
     4  B    0.357766   0.357766  -0.000281   3.194051  -0.012002  -0.012002
     5  B    0.357766  -0.000281   0.357766  -0.012002   3.194051  -0.012002
     6  B   -0.000281   0.357766   0.357766  -0.012002  -0.012002   3.194051
     7  H    0.331239   0.001044   0.001044  -0.023126  -0.023126   0.000236
     8  H   -0.031867   0.000019  -0.031867   0.001835   0.408180   0.001835
     9  H    0.001044   0.001044   0.331239   0.000236  -0.023126  -0.023126
    10  H    0.000019  -0.031867  -0.031867   0.001835   0.001835   0.408180
    11  H    0.001044   0.331239   0.001044  -0.023126   0.000236  -0.023126
    12  H   -0.031867  -0.031867   0.000019   0.408180   0.001835   0.001835
               7          8          9         10         11         12
     1  N    0.331239  -0.031867   0.001044   0.000019   0.001044  -0.031867
     2  N    0.001044   0.000019   0.001044  -0.031867   0.331239  -0.031867
     3  N    0.001044  -0.031867   0.331239  -0.031867   0.001044   0.000019
     4  B   -0.023126   0.001835   0.000236   0.001835  -0.023126   0.408180
     5  B   -0.023126   0.408180  -0.023126   0.001835   0.000236   0.001835
     6  B    0.000236   0.001835  -0.023126   0.408180  -0.023126   0.001835
     7  H    0.385932  -0.002535  -0.000034   0.000002  -0.000034  -0.002535
     8  H   -0.002535   0.727368  -0.002535  -0.000028   0.000002  -0.000028
     9  H   -0.000034  -0.002535   0.385932  -0.002535  -0.000034   0.000002
    10  H    0.000002  -0.000028  -0.002535   0.727368  -0.002535  -0.000028
    11  H   -0.000034   0.000002  -0.000034  -0.002535   0.385932  -0.002535
    12  H   -0.002535  -0.000028   0.000002  -0.000028  -0.002535   0.727368
 Mulliken charges:
               1
     1  N   -1.010382
     2  N   -1.010382
     3  N   -1.010382
     4  B    0.748867
     5  B    0.748867
     6  B    0.748867
     7  H    0.331893
     8  H   -0.070377
     9  H    0.331893
    10  H   -0.070377
    11  H    0.331893
    12  H   -0.070377
 Sum of Mulliken charges =  -0.00000
 Mulliken charges with hydrogens summed into heavy atoms:
               1
     1  N   -0.678489
     2  N   -0.678489
     3  N   -0.678489
     4  B    0.678489
     5  B    0.678489
     6  B    0.678489
 APT charges:
               1
     1  N   -0.870307
     2  N   -0.870307
     3  N   -0.870307
     4  B    0.867226
     5  B    0.867226
     6  B    0.867226
     7  H    0.212169
     8  H   -0.209089
     9  H    0.212169
    10  H   -0.209089
    11  H    0.212169
    12  H   -0.209089
 Sum of APT charges =  -0.00000
 APT charges with hydrogens summed into heavy atoms:
               1
     1  N   -0.658138
     2  N   -0.658138
     3  N   -0.658138
     4  B    0.658138
     5  B    0.658138
     6  B    0.658138
 Electronic spatial extent (au):  <R**2>=            490.6124
 Charge=             -0.0000 electrons
 Dipole moment (field-independent basis, Debye):
    X=              0.0000    Y=              0.0000    Z=             -0.0000  Tot=              0.0000
 Quadrupole moment (field-independent basis, Debye-Ang):
   XX=            -34.2891   YY=            -34.2891   ZZ=            -37.5939
   XY=             -0.0000   XZ=              0.0000   YZ=             -0.0000
 Traceless Quadrupole moment (field-independent basis, Debye-Ang):
   XX=              1.1016   YY=              1.1016   ZZ=             -2.2032
   XY=             -0.0000   XZ=              0.0000   YZ=             -0.0000
 Octapole moment (field-independent basis, Debye-Ang**2):
  XXX=              0.0000  YYY=             14.8159  ZZZ=              0.0000  XYY=              0.0000
  XXY=            -14.8159  XXZ=             -0.0000  XZZ=              0.0000  YZZ=              0.0000
  YYZ=             -0.0000  XYZ=             -0.0000
 Hexadecapole moment (field-independent basis, Debye-Ang**3):
 XXXX=           -320.9418 YYYY=           -320.9418 ZZZZ=            -36.3650 XXXY=             -0.0000
 XXXZ=             -0.0000 YYYX=             -0.0000 YYYZ=             -0.0000 ZZZX=             -0.0000
 ZZZY=             -0.0000 XXYY=           -106.9806 XXZZ=            -64.3519 YYZZ=            -64.3519
 XXYZ=             -0.0000 YYXZ=             -0.0000 ZZXY=             -0.0000
 N-N= 1.947743826290D+02 E-N=-9.493884379001D+02  KE= 2.385735873624D+02
 Symmetry A1   KE= 1.503630830225D+02
 Symmetry A2   KE= 2.877791369853D+00
 Symmetry B1   KE= 8.018663211361D+01
 Symmetry B2   KE= 5.146080856415D+00
  Exact polarizability:      60.253       0.000      60.253       0.000       0.000      23.003
 Approx polarizability:      44.610       0.000      44.610       0.000       0.000      19.257
 Calling FoFJK, ICntrl=  10100127 FMM=F ISym2X=1 I1Cent= 0 IOpClX= 0 NMat=1 NMatS=1 NMatT=0.
 Full mass-weighted force constant matrix:
 Low frequencies ---   -0.0009   -0.0007    0.0008    0.3556    0.3569    0.3612
 Low frequencies ---  300.5171  300.5171  456.9078
 Diagonal vibrational polarizability:
        7.5175688       7.5175688      15.6168475
 Harmonic frequencies (cm**-1), IR intensities (KM/Mole), Raman scattering
 activities (A**4/AMU), depolarization ratios for plane and unpolarized
 incident light, reduced masses (AMU), force constants (mDyne/A),
 and normal coordinates:
                           1         2         3         4         5
                          E"        E"        A2"       E'        E'
       Frequencies ---   300.5171  300.5171  456.9078  529.0380  529.0380
    Reduced masses ---     2.7557    2.7557    1.8743    6.5659    6.5659
   Force constants ---     0.1466    0.1466    0.2305    1.0827    1.0827
    IR Intensities ---     0.0000    0.0000   22.4819    0.5659    0.5659
 Coord Atom Element:
   1     1     7          0.00000  -0.00000  -0.00000   0.06372  -0.17250
   2     1     7         -0.00000   0.00000  -0.00000   0.34672   0.12807
   3     1     7          0.22569  -0.03181  -0.12212  -0.00000   0.00000
   1     2     7         -0.00000   0.00000   0.00000  -0.30495   0.13387
   2     2     7         -0.00000  -0.00000  -0.00000   0.04035  -0.24060
   3     2     7         -0.14040  -0.17955  -0.12212  -0.00000   0.00000
   1     3     7         -0.00000   0.00000   0.00000   0.14470   0.29996
   2     3     7          0.00000   0.00000   0.00000  -0.12574   0.20906
   3     3     7         -0.08529   0.21136  -0.12212  -0.00000   0.00000
   1     4     5         -0.00000   0.00000  -0.00000  -0.11895  -0.29777
   2     4     5          0.00000   0.00000  -0.00000   0.08368  -0.19803
   3     4     5         -0.08285   0.20530   0.09748   0.00000  -0.00000
   1     5     5         -0.00000   0.00000  -0.00000   0.28396  -0.14894
   2     5     5         -0.00000   0.00000   0.00000  -0.06515   0.20488
   3     5     5         -0.13637  -0.17440   0.09748   0.00000  -0.00000
   1     6     5          0.00000  -0.00000   0.00000  -0.04638   0.12557
   2     6     5          0.00000  -0.00000   0.00000  -0.33967  -0.12547
   3     6     5          0.21922  -0.03090   0.09748   0.00000  -0.00000
   1     7     1         -0.00000  -0.00000  -0.00000  -0.05534   0.14982
   2     7     1         -0.00000   0.00000  -0.00000   0.33897   0.12521
   3     7     1          0.33510  -0.04723   0.08220  -0.00000  -0.00000
   1     8     1          0.00000   0.00000  -0.00000   0.15920  -0.29463
   2     8     1          0.00000  -0.00000   0.00000  -0.27620  -0.05165
   3     8     1         -0.41376  -0.52914   0.54969   0.00000  -0.00000
   1     9     1          0.00000  -0.00000   0.00000  -0.02584   0.32194
   2     9     1          0.00000   0.00000   0.00000   0.16685   0.15471
   3     9     1         -0.12664   0.31382   0.08220  -0.00000   0.00000
   1    10     1         -0.00000   0.00000  -0.00000   0.08652  -0.23424
   2    10     1          0.00000  -0.00000   0.00000  -0.33660  -0.12433
   3    10     1          0.66513  -0.09376   0.54969   0.00000  -0.00000
   1    11     1          0.00000  -0.00000   0.00000  -0.18965   0.26143
   2    11     1          0.00000  -0.00000  -0.00000   0.22736  -0.00910
   3    11     1         -0.20846  -0.26659   0.08220  -0.00000  -0.00000
   1    12     1         -0.00000   0.00000   0.00000   0.07056  -0.32738
   2    12     1         -0.00000   0.00000   0.00000  -0.24346  -0.14030
   3    12     1         -0.25137   0.62289   0.54969   0.00000  -0.00000
                           6         7         8         9        10
                          A2"       E"        E"        A1'       E"
       Frequencies ---   753.6063  787.1530  787.1530  854.2276  938.7588
    Reduced masses ---     1.2941    1.1923    1.1923    7.2789    1.4674
   Force constants ---     0.4330    0.4353    0.4353    3.1294    0.7619
    IR Intensities ---    49.7318    0.0000    0.0000    0.0000    0.0000
 Coord Atom Element:
   1     1     7         -0.00000   0.00000  -0.00000   0.00000  -0.00000
   2     1     7         -0.00000  -0.00000  -0.00000   0.39507   0.00000
   3     1     7          0.02266   0.00856  -0.07335   0.00000  -0.07087
   1     2     7         -0.00000  -0.00000  -0.00000   0.34214   0.00000
   2     2     7          0.00000   0.00000   0.00000  -0.19753  -0.00000
   3     2     7          0.02266   0.05924   0.04409   0.00000   0.04092
   1     3     7          0.00000   0.00000   0.00000  -0.34214  -0.00000
   2     3     7          0.00000   0.00000   0.00000  -0.19753  -0.00000
   3     3     7          0.02266  -0.06781   0.02926  -0.00000   0.02995
   1     4     5          0.00000  -0.00000   0.00000   0.06824  -0.00000
   2     4     5          0.00000   0.00000  -0.00000   0.03940  -0.00000
   3     4     5         -0.09419   0.06626  -0.02859  -0.00000   0.06529
   1     5     5          0.00000   0.00000   0.00000  -0.06824   0.00000
   2     5     5         -0.00000  -0.00000   0.00000   0.03940  -0.00000
   3     5     5         -0.09419  -0.05789  -0.04309  -0.00000   0.08919
   1     6     5         -0.00000   0.00000  -0.00000   0.00000  -0.00000
   2     6     5         -0.00000   0.00000  -0.00000  -0.07879   0.00000
   3     6     5         -0.09419  -0.00837   0.07168   0.00000  -0.15448
   1     7     1         -0.00000  -0.00000  -0.00000   0.00000  -0.00000
   2     7     1         -0.00000  -0.00000  -0.00000   0.40165  -0.00000
   3     7     1          0.54279  -0.08760   0.75029   0.00000   0.34260
   1     8     1          0.00000   0.00000  -0.00000  -0.08540   0.00000
   2     8     1         -0.00000   0.00000  -0.00000   0.04930  -0.00000
   3     8     1          0.17126   0.23442   0.17447   0.00000  -0.41438
   1     9     1         -0.00000  -0.00000   0.00000  -0.34784  -0.00000
   2     9     1          0.00000   0.00000   0.00000  -0.20083   0.00000
   3     9     1          0.54279   0.69357  -0.29928   0.00000  -0.14480
   1    10     1         -0.00000   0.00000   0.00000   0.00000  -0.00000
   2    10     1         -0.00000   0.00000  -0.00000  -0.09861   0.00000
   3    10     1          0.17126   0.03389  -0.29025  -0.00000   0.71773
   1    11     1         -0.00000  -0.00000  -0.00000   0.34784   0.00000
   2    11     1          0.00000   0.00000  -0.00000  -0.20083   0.00000
   3    11     1          0.54279  -0.60597  -0.45101  -0.00000  -0.19780
   1    12     1          0.00000  -0.00000   0.00000   0.08540  -0.00000
   2    12     1          0.00000  -0.00000   0.00000   0.04930   0.00000
   3    12     1          0.17126  -0.26830   0.11578   0.00000  -0.30335
                          11        12        13        14        15
                          E"        E'        E'        A1'       A2"
       Frequencies ---   938.7588  947.5772  947.5773  957.6947  981.5231
    Reduced masses ---     1.4674    1.7356    1.7356    5.7517    1.4442
   Force constants ---     0.7619    0.9182    0.9182    3.1081    0.8197
    IR Intensities ---     0.0000    1.2124    1.2124    0.0000  370.9546
 Coord Atom Element:
   1     1     7         -0.00000  -0.01981   0.05632  -0.00000  -0.00000
   2     1     7          0.00000  -0.08623  -0.03033   0.06561   0.00000
   3     1     7          0.00633   0.00000   0.00000  -0.00000   0.06711
   1     2     7         -0.00000   0.07952  -0.02888   0.05682   0.00000
   2     2     7         -0.00000  -0.00103   0.06900  -0.03281  -0.00000
   3     2     7          0.05821  -0.00000   0.00000  -0.00000   0.06711
   1     3     7          0.00000  -0.04393  -0.07230  -0.05682  -0.00000
   2     3     7          0.00000   0.04240  -0.05445  -0.03281  -0.00000
   3     3     7         -0.06454  -0.00000  -0.00000  -0.00000   0.06711
   1     4     5          0.00000  -0.07820  -0.11084  -0.33821  -0.00000
   2     4     5          0.00000   0.08295  -0.08801  -0.19526  -0.00000
   3     4     5         -0.14068  -0.00000  -0.00000  -0.00000  -0.09323
   1     5     5         -0.00000   0.13037  -0.03747   0.33821   0.00000
   2     5     5         -0.00000   0.00958   0.12056  -0.19526  -0.00000
   3     5     5          0.12689  -0.00000   0.00000   0.00000  -0.09323
   1     6     5         -0.00000  -0.03745   0.10647  -0.00000  -0.00000
   2     6     5         -0.00000  -0.13436  -0.04726   0.39053   0.00000
   3     6     5          0.01380   0.00000   0.00000   0.00000  -0.09323
   1     7     1         -0.00000  -0.10362   0.29458  -0.00000  -0.00000
   2     7     1          0.00000  -0.09294  -0.03269   0.04280   0.00000
   3     7     1         -0.03060  -0.00000  -0.00000   0.00000  -0.35474
   1     8     1         -0.00000   0.32778   0.18070   0.36196   0.00000
   2     8     1         -0.00000   0.33782   0.51018  -0.20898  -0.00000
   3     8     1         -0.58952   0.00000  -0.00000  -0.00000   0.44079
   1     9     1          0.00000  -0.16919  -0.05509  -0.03706  -0.00000
   2     9     1          0.00000   0.25673  -0.09826  -0.02140  -0.00000
   3     9     1          0.31200   0.00000   0.00000   0.00000  -0.35474
   1    10     1         -0.00000  -0.23266   0.66139  -0.00000  -0.00000
   2    10     1         -0.00000  -0.14287  -0.05026   0.41795   0.00000
   3    10     1         -0.06410  -0.00000  -0.00000  -0.00000   0.44079
   1    11     1         -0.00000   0.16641   0.06297   0.03706   0.00000
   2    11     1         -0.00000   0.13867   0.23735  -0.02140  -0.00000
   3    11     1         -0.28140   0.00000  -0.00000   0.00000  -0.35474
   1    12     1          0.00000  -0.36872  -0.06431  -0.36196  -0.00000
   2    12     1          0.00000   0.58283  -0.18632  -0.20898   0.00000
   3    12     1          0.65362   0.00000   0.00000   0.00000   0.44079
                          16        17        18        19        20
                          A2'       E'        E'        A2'       A2'
       Frequencies ---  1062.1779 1102.7260 1102.7260 1201.0600 1376.4486
    Reduced masses ---     1.0460    1.3517    1.3517    9.6319    1.2147
   Force constants ---     0.6953    0.9684    0.9684    8.1864    1.3560
    IR Intensities ---     0.0000    0.0563    0.0563    0.0000    0.0000
 Coord Atom Element:
   1     1     7          0.01657  -0.00753  -0.11237   0.30100  -0.06766
   2     1     7         -0.00000   0.03771  -0.00253   0.00000   0.00000
   3     1     7          0.00000  -0.00000   0.00000  -0.00000  -0.00000
   1     2     7         -0.00829  -0.06498   0.00454  -0.15050   0.03383
   2     2     7         -0.01435  -0.07921  -0.05997  -0.26067   0.05860
   3     2     7         -0.00000  -0.00000  -0.00000   0.00000   0.00000
   1     3     7         -0.00829   0.06500  -0.00417  -0.15050   0.03383
   2     3     7          0.01435  -0.07050   0.07000   0.26067  -0.05860
   3     3     7         -0.00000  -0.00000   0.00000   0.00000   0.00000
   1     4     5          0.01512   0.02517   0.05177  -0.20598  -0.01538
   2     4     5         -0.02620   0.02972   0.01971   0.35676   0.02665
   3     4     5         -0.00000   0.00000   0.00000   0.00000  -0.00000
   1     5     5          0.01512  -0.01804   0.05467  -0.20598  -0.01538
   2     5     5          0.02620   0.02682  -0.02350  -0.35676  -0.02665
   3     5     5         -0.00000   0.00000  -0.00000   0.00000   0.00000
   1     6     5         -0.03025   0.00106   0.01580   0.41196   0.03077
   2     6     5         -0.00000   0.06569  -0.00440   0.00000   0.00000
   3     6     5          0.00000  -0.00000  -0.00000  -0.00000  -0.00000
   1     7     1          0.23882  -0.03659  -0.54613   0.27020   0.53800
   2     7     1         -0.00000   0.03935  -0.00264   0.00000   0.00000
   3     7     1         -0.00000   0.00000  -0.00000   0.00000   0.00000
   1     8     1         -0.26225   0.23529   0.18399  -0.00218   0.09794
   2     8     1         -0.45424   0.47004   0.19147  -0.00377   0.16963
   3     8     1          0.00000  -0.00000   0.00000  -0.00000  -0.00000
   1     9     1         -0.11941   0.24635  -0.12401  -0.13510  -0.26900
   2     9     1          0.20683  -0.38278   0.28031   0.23400   0.46592
   3     9     1         -0.00000   0.00000  -0.00000  -0.00000  -0.00000
   1    10     1          0.52451   0.03908   0.58332   0.00436  -0.19587
   2    10     1         -0.00000   0.07071  -0.00474   0.00000   0.00000
   3    10     1         -0.00000  -0.00000   0.00000   0.00000   0.00000
   1    11     1         -0.11941  -0.26069  -0.09003  -0.13510  -0.26900
   2    11     1         -0.20683  -0.41675  -0.22674  -0.23400  -0.46592
   3    11     1         -0.00000   0.00000   0.00000  -0.00000  -0.00000
   1    12     1         -0.26225  -0.20864   0.21374  -0.00218   0.09794
   2    12     1          0.45424   0.44030  -0.25246   0.00377  -0.16963
   3    12     1          0.00000  -0.00000  -0.00000   0.00000   0.00000
                          21        22        23        24        25
                          E'        E'        E'        E'        E'
       Frequencies ---  1425.8541 1425.8541 1501.2582 1501.2582 2677.8763
    Reduced masses ---     2.3625    2.3625    2.4088    2.4088    1.1002
   Force constants ---     2.8299    2.8299    3.1986    3.1986    4.6483
    IR Intensities ---    96.8389   96.8389  417.4097  417.4097  283.5249
 Coord Atom Element:
   1     1     7          0.00223  -0.00564  -0.16177   0.13698   0.00388
   2     1     7         -0.09564  -0.03785   0.03004   0.03548  -0.00046
   3     1     7          0.00000   0.00000  -0.00000  -0.00000   0.00000
   1     2     7          0.06792  -0.05772  -0.02075   0.11146   0.00147
   2     2     7         -0.04356   0.02784   0.05557   0.17650   0.00353
   3     2     7          0.00000  -0.00000   0.00000  -0.00000   0.00000
   1     3     7         -0.01003  -0.08856  -0.11336   0.00210  -0.00079
   2     3     7         -0.01272  -0.05011   0.16493   0.08389  -0.00055
   3     3     7         -0.00000  -0.00000  -0.00000   0.00000  -0.00000
   1     4     5         -0.13944  -0.00159   0.09523  -0.08959  -0.06776
   2     4     5          0.23410  -0.04744  -0.07406  -0.09804  -0.03916
   3     4     5         -0.00000  -0.00000   0.00000   0.00000   0.00000
   1     5     5          0.10277   0.09426   0.10406  -0.07916  -0.03425
   2     5     5          0.13825   0.19478  -0.08449  -0.08920   0.02156
   3     5     5         -0.00000  -0.00000   0.00000  -0.00000  -0.00000
   1     6     5         -0.10134   0.25610   0.09061  -0.07673   0.00158
   2     6     5         -0.02359  -0.00933  -0.08693  -0.10265  -0.03782
   3     6     5          0.00000   0.00000  -0.00000  -0.00000  -0.00000
   1     7     1          0.20896  -0.52806   0.56894  -0.48177  -0.01265
   2     7     1         -0.10231  -0.04049   0.02695   0.03183  -0.00387
   3     7     1          0.00000  -0.00000   0.00000  -0.00000   0.00000
   1     8     1         -0.12070  -0.21863   0.14606  -0.00325   0.36225
   2     8     1         -0.28372  -0.31949  -0.07495   0.05371  -0.21214
   3     8     1          0.00000  -0.00000  -0.00000   0.00000   0.00000
   1     9     1          0.26696  -0.13580   0.33865   0.15991  -0.00708
   2     9     1         -0.49457   0.01751  -0.61473  -0.19846  -0.00376
   3     9     1          0.00000   0.00000   0.00000  -0.00000  -0.00000
   1    10     1          0.18126  -0.45805  -0.03482   0.02948  -0.00265
   2    10     1         -0.04430  -0.01753  -0.10768  -0.12716   0.39261
   3    10     1          0.00000   0.00000  -0.00000  -0.00000  -0.00000
   1    11     1         -0.10175  -0.28170  -0.10193  -0.36037  -0.00977
   2    11     1         -0.34867  -0.35119  -0.09445  -0.63903  -0.00865
   3    11     1          0.00000   0.00000   0.00000   0.00000   0.00000
   1    12     1          0.23762  -0.07684   0.02727  -0.14353   0.70353
   2    12     1         -0.42551   0.03884   0.06533  -0.06507   0.40625
   3    12     1         -0.00000   0.00000  -0.00000   0.00000  -0.00000
                          26        27        28        29        30
                          E'        A1'       A1'       E'        E'
       Frequencies ---  2677.8763 2689.0775 3535.7654 3537.9608 3537.9608
    Reduced masses ---     1.1002    1.1037    1.0759    1.0755    1.0755
   Force constants ---     4.6483    4.7024    7.9248    7.9317    7.9317
    IR Intensities ---   283.5249    0.0000    0.0000   44.4931   44.4931
 Coord Atom Element:
   1     1     7         -0.00214   0.00000   0.00000  -0.00041   0.00059
   2     1     7         -0.00084   0.00068  -0.04166  -0.04810  -0.03392
   3     1     7          0.00000  -0.00000  -0.00000  -0.00000  -0.00000
   1     2     7          0.00185   0.00059  -0.03608   0.04642  -0.02106
   2     2     7          0.00157  -0.00034   0.02083  -0.02646   0.01291
   3     2     7         -0.00000  -0.00000   0.00000  -0.00000   0.00000
   1     3     7         -0.00223  -0.00059   0.03608   0.00426  -0.05080
   2     3     7          0.00383  -0.00034   0.02083   0.00328  -0.02925
   3     3     7          0.00000   0.00000  -0.00000   0.00000   0.00000
   1     4     5         -0.00221   0.04896  -0.00321  -0.00056  -0.00216
   2     4     5          0.00081   0.02827  -0.00186   0.00141  -0.00109
   3     4     5         -0.00000  -0.00000  -0.00000  -0.00000  -0.00000
   1     5     5          0.05851  -0.04896   0.00321   0.00222  -0.00020
   2     5     5         -0.03270   0.02827  -0.00186  -0.00055   0.00169
   3     5     5          0.00000  -0.00000  -0.00000  -0.00000  -0.00000
   1     6     5         -0.00087   0.00000   0.00000  -0.00087   0.00123
   2     6     5         -0.06853  -0.05653   0.00371  -0.00198  -0.00140
   3     6     5         -0.00000   0.00000  -0.00000   0.00000   0.00000
   1     7     1          0.00698  -0.00000  -0.00000   0.00082  -0.00116
   2     7     1         -0.00701   0.01061   0.57580   0.66549   0.46935
   3     7     1         -0.00000  -0.00000   0.00000   0.00000   0.00000
   1     8     1         -0.60328   0.49751  -0.00516  -0.00335   0.00184
   2     8     1          0.34650  -0.28724   0.00298   0.00219  -0.00051
   3     8     1         -0.00000   0.00000  -0.00000  -0.00000  -0.00000
   1     9     1          0.00709  -0.00919  -0.49866  -0.06314   0.70242
   2     9     1         -0.01259  -0.00531  -0.28790  -0.03808   0.40539
   3     9     1         -0.00000   0.00000   0.00000   0.00000  -0.00000
   1    10     1          0.00146   0.00000   0.00000  -0.00030   0.00042
   2    10     1          0.71140   0.57448  -0.00596   0.00360   0.00254
   3    10     1         -0.00000  -0.00000   0.00000   0.00000  -0.00000
   1    11     1          0.00221   0.00919   0.49866  -0.64048   0.29524
   2    11     1         -0.00990  -0.00531  -0.28790   0.36909  -0.17194
   3    11     1         -0.00000  -0.00000  -0.00000   0.00000   0.00000
   1    12     1          0.01510  -0.49751   0.00516  -0.00060   0.00377
   2    12     1          0.00523  -0.28724   0.00298   0.00025   0.00223
   3    12     1          0.00000   0.00000  -0.00000  -0.00000  -0.00000
 Harmonic frequencies (cm**-1), IR intensities (KM/Mole), Raman scattering
 activities (A**4/AMU), depolarization ratios for plane and unpolarized
 incident light, reduced masses (AMU), force constants (mDyne/A),
 and normal coordinates:
                      1                      2                      3
                     E"                     E"                     A2"
 Frequencies --    300.5171               300.5171               456.9078
 Red. masses --      2.7557                 2.7557                 1.8743
 Frc consts  --      0.1466                 0.1466                 0.2305
 IR Inten    --      0.0000                 0.0000                22.4819
  Atom  AN      X      Y      Z        X      Y      Z        X      Y      Z
     1   7     0.00  -0.00   0.23    -0.00   0.00  -0.03    -0.00  -0.00  -0.12
     2   7    -0.00  -0.00  -0.14     0.00  -0.00  -0.18     0.00  -0.00  -0.12
     3   7    -0.00   0.00  -0.09     0.00   0.00   0.21     0.00   0.00  -0.12
     4   5    -0.00   0.00  -0.08     0.00   0.00   0.21    -0.00  -0.00   0.10
     5   5    -0.00  -0.00  -0.14     0.00   0.00  -0.17    -0.00   0.00   0.10
     6   5     0.00   0.00   0.22    -0.00  -0.00  -0.03     0.00   0.00   0.10
     7   1    -0.00  -0.00   0.34    -0.00   0.00  -0.05    -0.00  -0.00   0.08
     8   1     0.00   0.00  -0.41     0.00  -0.00  -0.53    -0.00   0.00   0.55
     9   1     0.00   0.00  -0.13    -0.00   0.00   0.31     0.00   0.00   0.08
    10   1    -0.00   0.00   0.67     0.00  -0.00  -0.09    -0.00   0.00   0.55
    11   1     0.00   0.00  -0.21    -0.00  -0.00  -0.27     0.00  -0.00   0.08
    12   1    -0.00  -0.00  -0.25     0.00   0.00   0.62     0.00   0.00   0.55
                      4                      5                      6
                     E'                     E'                     A2"
 Frequencies --    529.0380               529.0380               753.6063
 Red. masses --      6.5659                 6.5659                 1.2941
 Frc consts  --      1.0827                 1.0827                 0.4330
 IR Inten    --      0.5659                 0.5659                49.7318
  Atom  AN      X      Y      Z        X      Y      Z        X      Y      Z
     1   7     0.06   0.35  -0.00    -0.17   0.13   0.00    -0.00  -0.00   0.02
     2   7    -0.30   0.04  -0.00     0.13  -0.24   0.00    -0.00   0.00   0.02
     3   7     0.14  -0.13  -0.00     0.30   0.21   0.00     0.00   0.00   0.02
     4   5    -0.12   0.08   0.00    -0.30  -0.20  -0.00     0.00   0.00  -0.09
     5   5     0.28  -0.07   0.00    -0.15   0.20  -0.00     0.00  -0.00  -0.09
     6   5    -0.05  -0.34   0.00     0.13  -0.13  -0.00    -0.00  -0.00  -0.09
     7   1    -0.06   0.34  -0.00     0.15   0.13  -0.00    -0.00  -0.00   0.54
     8   1     0.16  -0.28   0.00    -0.29  -0.05  -0.00     0.00  -0.00   0.17
     9   1    -0.03   0.17  -0.00     0.32   0.15   0.00    -0.00   0.00   0.54
    10   1     0.09  -0.34   0.00    -0.23  -0.12  -0.00    -0.00  -0.00   0.17
    11   1    -0.19   0.23  -0.00     0.26  -0.01  -0.00    -0.00   0.00   0.54
    12   1     0.07  -0.24   0.00    -0.33  -0.14  -0.00     0.00   0.00   0.17
                      7                      8                      9
                     E"                     E"                     A1'
 Frequencies --    787.1530               787.1530               854.2276
 Red. masses --      1.1923                 1.1923                 7.2789
 Frc consts  --      0.4353                 0.4353                 3.1294
 IR Inten    --      0.0000                 0.0000                 0.0000
  Atom  AN      X      Y      Z        X      Y      Z        X      Y      Z
     1   7     0.00  -0.00   0.01    -0.00  -0.00  -0.07     0.00   0.40   0.00
     2   7    -0.00   0.00   0.06    -0.00   0.00   0.04     0.34  -0.20   0.00
     3   7     0.00   0.00  -0.07     0.00   0.00   0.03    -0.34  -0.20  -0.00
     4   5    -0.00   0.00   0.07     0.00  -0.00  -0.03     0.07   0.04  -0.00
     5   5     0.00  -0.00  -0.06     0.00   0.00  -0.04    -0.07   0.04  -0.00
     6   5     0.00   0.00  -0.01    -0.00  -0.00   0.07     0.00  -0.08   0.00
     7   1    -0.00  -0.00  -0.09    -0.00  -0.00   0.75     0.00   0.40   0.00
     8   1     0.00   0.00   0.23    -0.00  -0.00   0.17    -0.09   0.05   0.00
     9   1    -0.00   0.00   0.69     0.00   0.00  -0.30    -0.35  -0.20   0.00
    10   1     0.00   0.00   0.03     0.00  -0.00  -0.29     0.00  -0.10  -0.00
    11   1    -0.00   0.00  -0.61    -0.00  -0.00  -0.45     0.35  -0.20  -0.00
    12   1    -0.00  -0.00  -0.27     0.00   0.00   0.12     0.09   0.05   0.00
                     10                     11                     12
                     E"                     E"                     E'
 Frequencies --    938.7588               938.7588               947.5772
 Red. masses --      1.4674                 1.4674                 1.7356
 Frc consts  --      0.7619                 0.7619                 0.9182
 IR Inten    --      0.0000                 0.0000                 1.2124
  Atom  AN      X      Y      Z        X      Y      Z        X      Y      Z
     1   7    -0.00   0.00  -0.07    -0.00   0.00   0.01    -0.02  -0.09   0.00
     2   7     0.00  -0.00   0.04    -0.00  -0.00   0.06     0.08  -0.00  -0.00
     3   7    -0.00  -0.00   0.03     0.00   0.00  -0.06    -0.04   0.04  -0.00
     4   5    -0.00  -0.00   0.07     0.00   0.00  -0.14    -0.08   0.08  -0.00
     5   5     0.00  -0.00   0.09    -0.00  -0.00   0.13     0.13   0.01  -0.00
     6   5    -0.00   0.00  -0.15    -0.00  -0.00   0.01    -0.04  -0.13   0.00
     7   1    -0.00  -0.00   0.34    -0.00   0.00  -0.03    -0.10  -0.09  -0.00
     8   1     0.00  -0.00  -0.41    -0.00  -0.00  -0.59     0.33   0.34   0.00
     9   1    -0.00   0.00  -0.14     0.00   0.00   0.31    -0.17   0.26   0.00
    10   1    -0.00   0.00   0.72    -0.00  -0.00  -0.06    -0.23  -0.14  -0.00
    11   1     0.00   0.00  -0.20    -0.00  -0.00  -0.28     0.17   0.14   0.00
    12   1    -0.00   0.00  -0.30     0.00   0.00   0.65    -0.37   0.58   0.00
                     13                     14                     15
                     E'                     A1'                    A2"
 Frequencies --    947.5773               957.6947               981.5231
 Red. masses --      1.7356                 5.7517                 1.4442
 Frc consts  --      0.9182                 3.1081                 0.8197
 IR Inten    --      1.2124                 0.0000               370.9546
  Atom  AN      X      Y      Z        X      Y      Z        X      Y      Z
     1   7     0.06  -0.03   0.00    -0.00   0.07  -0.00    -0.00   0.00   0.07
     2   7    -0.03   0.07   0.00     0.06  -0.03  -0.00     0.00  -0.00   0.07
     3   7    -0.07  -0.05  -0.00    -0.06  -0.03  -0.00    -0.00  -0.00   0.07
     4   5    -0.11  -0.09  -0.00    -0.34  -0.20  -0.00    -0.00  -0.00  -0.09
     5   5    -0.04   0.12   0.00     0.34  -0.20   0.00     0.00  -0.00  -0.09
     6   5     0.11  -0.05   0.00    -0.00   0.39   0.00    -0.00   0.00  -0.09
     7   1     0.29  -0.03  -0.00    -0.00   0.04   0.00    -0.00   0.00  -0.35
     8   1     0.18   0.51  -0.00     0.36  -0.21  -0.00     0.00  -0.00   0.44
     9   1    -0.06  -0.10   0.00    -0.04  -0.02   0.00    -0.00  -0.00  -0.35
    10   1     0.66  -0.05  -0.00    -0.00   0.42  -0.00    -0.00   0.00   0.44
    11   1     0.06   0.24  -0.00     0.04  -0.02   0.00     0.00  -0.00  -0.35
    12   1    -0.06  -0.19   0.00    -0.36  -0.21   0.00    -0.00   0.00   0.44
                     16                     17                     18
                     A2'                    E'                     E'
 Frequencies --   1062.1779              1102.7260              1102.7260
 Red. masses --      1.0460                 1.3517                 1.3517
 Frc consts  --      0.6953                 0.9684                 0.9684
 IR Inten    --      0.0000                 0.0563                 0.0563
  Atom  AN      X      Y      Z        X      Y      Z        X      Y      Z
     1   7     0.02  -0.00   0.00    -0.01   0.04  -0.00    -0.11  -0.00   0.00
     2   7    -0.01  -0.01  -0.00    -0.06  -0.08  -0.00     0.00  -0.06  -0.00
     3   7    -0.01   0.01  -0.00     0.07  -0.07  -0.00    -0.00   0.07   0.00
     4   5     0.02  -0.03  -0.00     0.03   0.03   0.00     0.05   0.02   0.00
     5   5     0.02   0.03  -0.00    -0.02   0.03   0.00     0.05  -0.02  -0.00
     6   5    -0.03  -0.00   0.00     0.00   0.07  -0.00     0.02  -0.00  -0.00
     7   1     0.24  -0.00  -0.00    -0.04   0.04   0.00    -0.55  -0.00  -0.00
     8   1    -0.26  -0.45   0.00     0.24   0.47  -0.00     0.18   0.19   0.00
     9   1    -0.12   0.21  -0.00     0.25  -0.38   0.00    -0.12   0.28  -0.00
    10   1     0.52  -0.00  -0.00     0.04   0.07  -0.00     0.58  -0.00   0.00
    11   1    -0.12  -0.21  -0.00    -0.26  -0.42   0.00    -0.09  -0.23   0.00
    12   1    -0.26   0.45   0.00    -0.21   0.44  -0.00     0.21  -0.25  -0.00
                     19                     20                     21
                     A2'                    A2'                    E'
 Frequencies --   1201.0600              1376.4486              1425.8541
 Red. masses --      9.6319                 1.2147                 2.3625
 Frc consts  --      8.1864                 1.3560                 2.8299
 IR Inten    --      0.0000                 0.0000                96.8389
  Atom  AN      X      Y      Z        X      Y      Z        X      Y      Z
     1   7     0.30   0.00  -0.00    -0.07   0.00  -0.00     0.00  -0.10   0.00
     2   7    -0.15  -0.26   0.00     0.03   0.06   0.00     0.07  -0.04   0.00
     3   7    -0.15   0.26   0.00     0.03  -0.06   0.00    -0.01  -0.01  -0.00
     4   5    -0.21   0.36   0.00    -0.02   0.03  -0.00    -0.14   0.23  -0.00
     5   5    -0.21  -0.36   0.00    -0.02  -0.03   0.00     0.10   0.14  -0.00
     6   5     0.41   0.00  -0.00     0.03   0.00  -0.00    -0.10  -0.02   0.00
     7   1     0.27   0.00   0.00     0.54   0.00   0.00     0.21  -0.10   0.00
     8   1    -0.00  -0.00  -0.00     0.10   0.17  -0.00    -0.12  -0.28   0.00
     9   1    -0.14   0.23  -0.00    -0.27   0.47  -0.00     0.27  -0.49   0.00
    10   1     0.00   0.00   0.00    -0.20   0.00   0.00     0.18  -0.04   0.00
    11   1    -0.14  -0.23  -0.00    -0.27  -0.47  -0.00    -0.10  -0.35   0.00
    12   1    -0.00   0.00   0.00     0.10  -0.17   0.00     0.24  -0.43  -0.00
                     22                     23                     24
                     E'                     E'                     E'
 Frequencies --   1425.8541              1501.2582              1501.2582
 Red. masses --      2.3625                 2.4088                 2.4088
 Frc consts  --      2.8299                 3.1986                 3.1986
 IR Inten    --     96.8389               417.4097               417.4097
  Atom  AN      X      Y      Z        X      Y      Z        X      Y      Z
     1   7    -0.01  -0.04   0.00    -0.16   0.03  -0.00     0.14   0.04  -0.00
     2   7    -0.06   0.03  -0.00    -0.02   0.06   0.00     0.11   0.18  -0.00
     3   7    -0.09  -0.05  -0.00    -0.11   0.16  -0.00     0.00   0.08   0.00
     4   5    -0.00  -0.05  -0.00     0.10  -0.07   0.00    -0.09  -0.10   0.00
     5   5     0.09   0.19  -0.00     0.10  -0.08   0.00    -0.08  -0.09  -0.00
     6   5     0.26  -0.01   0.00     0.09  -0.09  -0.00    -0.08  -0.10  -0.00
     7   1    -0.53  -0.04  -0.00     0.57   0.03   0.00    -0.48   0.03  -0.00
     8   1    -0.22  -0.32  -0.00     0.15  -0.07  -0.00    -0.00   0.05   0.00
     9   1    -0.14   0.02   0.00     0.34  -0.61   0.00     0.16  -0.20  -0.00
    10   1    -0.46  -0.02   0.00    -0.03  -0.11  -0.00     0.03  -0.13  -0.00
    11   1    -0.28  -0.35   0.00    -0.10  -0.09   0.00    -0.36  -0.64   0.00
    12   1    -0.08   0.04   0.00     0.03   0.07  -0.00    -0.14  -0.07   0.00
                     25                     26                     27
                     E'                     E'                     A1'
 Frequencies --   2677.8763              2677.8763              2689.0775
 Red. masses --      1.1002                 1.1002                 1.1037
 Frc consts  --      4.6483                 4.6483                 4.7024
 IR Inten    --    283.5249               283.5249                 0.0000
  Atom  AN      X      Y      Z        X      Y      Z        X      Y      Z
     1   7     0.00  -0.00   0.00    -0.00  -0.00   0.00     0.00   0.00  -0.00
     2   7     0.00   0.00   0.00     0.00   0.00  -0.00     0.00  -0.00  -0.00
     3   7    -0.00  -0.00  -0.00    -0.00   0.00   0.00    -0.00  -0.00   0.00
     4   5    -0.07  -0.04   0.00    -0.00   0.00  -0.00     0.05   0.03  -0.00
     5   5    -0.03   0.02  -0.00     0.06  -0.03   0.00    -0.05   0.03  -0.00
     6   5     0.00  -0.04  -0.00    -0.00  -0.07  -0.00     0.00  -0.06   0.00
     7   1    -0.01  -0.00   0.00     0.01  -0.01  -0.00    -0.00   0.01  -0.00
     8   1     0.36  -0.21   0.00    -0.60   0.35  -0.00     0.50  -0.29   0.00
     9   1    -0.01  -0.00  -0.00     0.01  -0.01  -0.00    -0.01  -0.01   0.00
    10   1    -0.00   0.39  -0.00     0.00   0.71  -0.00     0.00   0.57  -0.00
    11   1    -0.01  -0.01   0.00     0.00  -0.01  -0.00     0.01  -0.01  -0.00
    12   1     0.70   0.41  -0.00     0.02   0.01   0.00    -0.50  -0.29   0.00
                     28                     29                     30
                     A1'                    E'                     E'
 Frequencies --   3535.7654              3537.9608              3537.9608
 Red. masses --      1.0759                 1.0755                 1.0755
 Frc consts  --      7.9248                 7.9317                 7.9317
 IR Inten    --      0.0000                44.4931                44.4931
  Atom  AN      X      Y      Z        X      Y      Z        X      Y      Z
     1   7     0.00  -0.04  -0.00    -0.00  -0.05  -0.00     0.00  -0.03  -0.00
     2   7    -0.04   0.02   0.00     0.05  -0.03  -0.00    -0.02   0.01   0.00
     3   7     0.04   0.02  -0.00     0.00   0.00   0.00    -0.05  -0.03   0.00
     4   5    -0.00  -0.00  -0.00    -0.00   0.00  -0.00    -0.00  -0.00  -0.00
     5   5     0.00  -0.00  -0.00     0.00  -0.00  -0.00    -0.00   0.00  -0.00
     6   5     0.00   0.00  -0.00    -0.00  -0.00   0.00     0.00  -0.00   0.00
     7   1    -0.00   0.58   0.00     0.00   0.67   0.00    -0.00   0.47   0.00
     8   1    -0.01   0.00  -0.00    -0.00   0.00  -0.00     0.00  -0.00  -0.00
     9   1    -0.50  -0.29   0.00    -0.06  -0.04   0.00     0.70   0.41  -0.00
    10   1     0.00  -0.01   0.00    -0.00   0.00   0.00     0.00   0.00  -0.00
    11   1     0.50  -0.29  -0.00    -0.64   0.37   0.00     0.30  -0.17   0.00
    12   1     0.01   0.00  -0.00    -0.00   0.00  -0.00     0.00   0.00  -0.00

 -------------------
 - Thermochemistry -
 -------------------
 Temperature   298.150 Kelvin.  Pressure   1.00000 Atm.
 Atom     1 has atomic number  7 and mass  14.00307
 Atom     2 has atomic number  7 and mass  14.00307
 Atom     3 has atomic number  7 and mass  14.00307
 Atom     4 has atomic number  5 and mass  11.00931
 Atom     5 has atomic number  5 and mass  11.00931
 Atom     6 has atomic number  5 and mass  11.00931
 Atom     7 has atomic number  1 and mass   1.00783
 Atom     8 has atomic number  1 and mass   1.00783
 Atom     9 has atomic number  1 and mass   1.00783
 Atom    10 has atomic number  1 and mass   1.00783
 Atom    11 has atomic number  1 and mass   1.00783
 Atom    12 has atomic number  1 and mass   1.00783
 Molecular mass:    81.08409 amu.
 Principal axes and moments of inertia in atomic units:
                           1         2         3
     Eigenvalues --   353.51026 353.51026 707.02052
           X            0.79198  -0.61054   0.00000
           Y            0.61054   0.79198   0.00000
           Z            0.00000  -0.00000   1.00000
 This molecule is an oblate symmetric top.
 Rotational symmetry number  6.
 Rotational temperatures (Kelvin)      0.24501     0.24501     0.12251
 Rotational constants (GHZ):           5.10520     5.10520     2.55260
 Zero-point vibrational energy     247423.2 (Joules/Mol)
                                   59.13556 (Kcal/Mol)
 Warning -- explicit consideration of   5 degrees of freedom as
           vibrations may cause significant error
 Vibrational temperatures:    432.38   432.38   657.39   761.17   761.17
          (Kelvin)           1084.27  1132.54  1132.54  1229.04  1350.66
                             1350.66  1363.35  1363.35  1377.91  1412.19
                             1528.24  1586.58  1586.58  1728.06  1980.40
                             2051.49  2051.49  2159.98  2159.98  3852.87
                             3852.87  3868.98  5087.18  5090.34  5090.34
 
 Zero-point correction=                           0.094239 (Hartree/Particle)
 Thermal correction to Energy=                    0.099289
 Thermal correction to Enthalpy=                  0.100233
 Thermal correction to Gibbs Free Energy=         0.067856
 Sum of electronic and zero-point Energies=           -240.210587
 Sum of electronic and thermal Energies=              -240.205537
 Sum of electronic and thermal Enthalpies=            -240.204593
 Sum of electronic and thermal Free Energies=         -240.236970
 
                     E (Thermal)             CV                S
                      KCal/Mol        Cal/Mol-Kelvin    Cal/Mol-Kelvin
 Total                   62.305             19.796             68.144
 Electronic               0.000              0.000              0.000
 Translational            0.889              2.981             39.093
 Rotational               0.889              2.981             22.422
 Vibrational             60.527             13.835              6.629
 Vibration     1          0.693              1.673              1.414
 Vibration     2          0.693              1.673              1.414
 Vibration     3          0.815              1.346              0.775
 Vibration     4          0.884              1.186              0.589
 Vibration     5          0.884              1.186              0.589
                       Q            Log10(Q)             Ln(Q)
 Total Bot       0.614383D-31        -31.211561        -71.867274
 Total V=0       0.136493D+13         12.135110         27.942124
 Vib (Bot)       0.120717D-42        -42.918230        -98.822877
 Vib (Bot)    1  0.632647D+00         -0.198839         -0.457843
 Vib (Bot)    2  0.632647D+00         -0.198839         -0.457843
 Vib (Bot)    3  0.373209D+00         -0.428048         -0.985617
 Vib (Bot)    4  0.302572D+00         -0.519172         -1.195437
 Vib (Bot)    5  0.302572D+00         -0.519172         -1.195437
 Vib (V=0)       0.268189D+01          0.428441          0.986521
 Vib (V=0)    1  0.130638D+01          0.116068          0.267257
 Vib (V=0)    2  0.130638D+01          0.116068          0.267257
 Vib (V=0)    3  0.112393D+01          0.050738          0.116829
 Vib (V=0)    4  0.108442D+01          0.035199          0.081048
 Vib (V=0)    5  0.108442D+01          0.035199          0.081048
 Electronic      0.100000D+01          0.000000          0.000000
 Translational   0.286984D+08          7.457857         17.172351
 Rotational      0.177342D+05          4.248812          9.783252
 ***** Axes restored to original set *****
 -------------------------------------------------------------------
 Center     Atomic                   Forces (Hartrees/Bohr)
 Number     Number              X              Y              Z
 -------------------------------------------------------------------
      1        7          -0.000000000    0.000000963    0.000000000
      2        7          -0.000000834   -0.000000482   -0.000000000
      3        7           0.000000834   -0.000000482    0.000000000
      4        5           0.000000670   -0.000000387   -0.000000000
      5        5          -0.000000670   -0.000000387   -0.000000000
      6        5          -0.000000000    0.000000773   -0.000000000
      7        1          -0.000000000   -0.000000441   -0.000000000
      8        1           0.000000071    0.000000041    0.000000000
      9        1          -0.000000382    0.000000220   -0.000000000
     10        1          -0.000000000   -0.000000082   -0.000000000
     11        1           0.000000382    0.000000220   -0.000000000
     12        1          -0.000000071    0.000000041    0.000000000
 -------------------------------------------------------------------
 Cartesian Forces:  Max     0.000000963 RMS     0.000000379
 FormGI is forming the generalized inverse of G from B-inverse, IUseBI=4.

 GradGradGradGradGradGradGradGradGradGradGradGradGradGradGradGradGradGrad
 Berny optimization.
 Internal  Forces:  Max     0.000000441 RMS     0.000000171
 Search for a local minimum.
 Step number   1 out of a maximum of    2
 All quantities printed in internal units (Hartrees-Bohrs-Radians)
 Second derivative matrix not updated -- analytic derivatives used.
 ITU=  0
     Eigenvalues ---    0.01190   0.01190   0.01291   0.01559   0.01559
     Eigenvalues ---    0.01652   0.03021   0.03021   0.03519   0.09006
     Eigenvalues ---    0.10139   0.10139   0.11672   0.11888   0.11888
     Eigenvalues ---    0.16591   0.16591   0.17787   0.25144   0.25144
     Eigenvalues ---    0.25335   0.25457   0.33030   0.33030   0.37929
     Eigenvalues ---    0.37929   0.40190   0.44758   0.44758   0.44834
 Angle between quadratic step and forces=  18.94 degrees.
 Linear search not attempted -- first point.
 Iteration  1 RMS(Cart)=  0.00000058 RMS(Int)=  0.00000000
 ClnCor:  largest displacement from symmetrization is 3.64D-13 for atom    10.
 Variable       Old X    -DE/DX   Delta X   Delta X   Delta X     New X
                                 (Linear)    (Quad)   (Total)
    R1        2.74919  -0.00000   0.00000  -0.00000  -0.00000   2.74919
    R2        2.74919  -0.00000   0.00000  -0.00000  -0.00000   2.74919
    R3        1.92563  -0.00000   0.00000  -0.00000  -0.00000   1.92563
    R4        2.74919  -0.00000   0.00000  -0.00000  -0.00000   2.74919
    R5        2.74919  -0.00000   0.00000  -0.00000  -0.00000   2.74919
    R6        1.92563  -0.00000   0.00000  -0.00000  -0.00000   1.92563
    R7        2.74919  -0.00000   0.00000  -0.00000  -0.00000   2.74919
    R8        2.74919  -0.00000   0.00000  -0.00000  -0.00000   2.74919
    R9        1.92563  -0.00000   0.00000  -0.00000  -0.00000   1.92563
   R10        2.26605   0.00000   0.00000   0.00000   0.00000   2.26605
   R11        2.26605   0.00000   0.00000   0.00000   0.00000   2.26605
   R12        2.26605   0.00000   0.00000   0.00000   0.00000   2.26605
    A1        2.14607  -0.00000   0.00000  -0.00000  -0.00000   2.14607
    A2        2.06856   0.00000   0.00000   0.00000   0.00000   2.06856
    A3        2.06856   0.00000   0.00000   0.00000   0.00000   2.06856
    A4        2.14607  -0.00000   0.00000  -0.00000  -0.00000   2.14607
    A5        2.06856   0.00000   0.00000   0.00000   0.00000   2.06856
    A6        2.06856   0.00000   0.00000   0.00000   0.00000   2.06856
    A7        2.14607  -0.00000   0.00000  -0.00000  -0.00000   2.14607
    A8        2.06856   0.00000   0.00000   0.00000   0.00000   2.06856
    A9        2.06856   0.00000   0.00000   0.00000   0.00000   2.06856
   A10        2.04272   0.00000   0.00000   0.00000   0.00000   2.04272
   A11        2.12023  -0.00000   0.00000  -0.00000  -0.00000   2.12023
   A12        2.12023  -0.00000   0.00000  -0.00000  -0.00000   2.12023
   A13        2.04272   0.00000   0.00000   0.00000   0.00000   2.04272
   A14        2.12023  -0.00000   0.00000  -0.00000  -0.00000   2.12023
   A15        2.12023  -0.00000   0.00000  -0.00000  -0.00000   2.12023
   A16        2.04272   0.00000   0.00000   0.00000   0.00000   2.04272
   A17        2.12023  -0.00000   0.00000  -0.00000  -0.00000   2.12023
   A18        2.12023  -0.00000   0.00000  -0.00000  -0.00000   2.12023
    D1       -0.00000  -0.00000   0.00000  -0.00000   0.00000   0.00000
    D2        3.14159  -0.00000   0.00000  -0.00000   0.00000   3.14159
    D3        3.14159  -0.00000   0.00000  -0.00000   0.00000   3.14159
    D4        0.00000  -0.00000   0.00000  -0.00000   0.00000   0.00000
    D5        0.00000   0.00000   0.00000   0.00000   0.00000   0.00000
    D6        3.14159   0.00000   0.00000   0.00000   0.00000   3.14159
    D7        3.14159  -0.00000   0.00000   0.00000   0.00000   3.14159
    D8       -0.00000   0.00000   0.00000   0.00000   0.00000   0.00000
    D9        0.00000   0.00000   0.00000   0.00000  -0.00000   0.00000
   D10        3.14159   0.00000   0.00000   0.00000   0.00000   3.14159
   D11        3.14159  -0.00000   0.00000   0.00000   0.00000   3.14159
   D12       -0.00000   0.00000   0.00000   0.00000   0.00000   0.00000
   D13        0.00000   0.00000   0.00000  -0.00000   0.00000   0.00000
   D14        3.14159  -0.00000   0.00000  -0.00000   0.00000   3.14159
   D15        3.14159   0.00000   0.00000   0.00000   0.00000   3.14159
   D16        0.00000  -0.00000   0.00000   0.00000   0.00000   0.00000
   D17       -0.00000   0.00000   0.00000  -0.00000   0.00000   0.00000
   D18        3.14159  -0.00000   0.00000  -0.00000   0.00000   3.14159
   D19        3.14159   0.00000   0.00000   0.00000   0.00000   3.14159
   D20        0.00000  -0.00000   0.00000  -0.00000   0.00000   0.00000
   D21        0.00000  -0.00000   0.00000  -0.00000   0.00000   0.00000
   D22        3.14159   0.00000   0.00000   0.00000   0.00000   3.14159
   D23        3.14159  -0.00000   0.00000  -0.00000   0.00000   3.14159
   D24        0.00000   0.00000   0.00000   0.00000  -0.00000   0.00000
         Item               Value     Threshold  Converged?
 Maximum Force            0.000000     0.000015     YES
 RMS     Force            0.000000     0.000010     YES
 Maximum Displacement     0.000002     0.000060     YES
 RMS     Displacement     0.000001     0.000040     YES
 Predicted change in Energy=-3.587012D-12
 Optimization completed.
    -- Stationary point found.
                           ----------------------------
                           !   Optimized Parameters   !
                           ! (Angstroms and Degrees)  !
 --------------------------                            --------------------------
 ! Name  Definition              Value          Derivative Info.                !
 --------------------------------------------------------------------------------
 ! R1    R(1,4)                  1.4548         -DE/DX =    0.0                 !
 ! R2    R(1,5)                  1.4548         -DE/DX =    0.0                 !
 ! R3    R(1,7)                  1.019          -DE/DX =    0.0                 !
 ! R4    R(2,4)                  1.4548         -DE/DX =    0.0                 !
 ! R5    R(2,6)                  1.4548         -DE/DX =    0.0                 !
 ! R6    R(2,11)                 1.019          -DE/DX =    0.0                 !
 ! R7    R(3,5)                  1.4548         -DE/DX =    0.0                 !
 ! R8    R(3,6)                  1.4548         -DE/DX =    0.0                 !
 ! R9    R(3,9)                  1.019          -DE/DX =    0.0                 !
 ! R10   R(4,12)                 1.1991         -DE/DX =    0.0                 !
 ! R11   R(5,8)                  1.1991         -DE/DX =    0.0                 !
 ! R12   R(6,10)                 1.1991         -DE/DX =    0.0                 !
 ! A1    A(4,1,5)              122.9607         -DE/DX =    0.0                 !
 ! A2    A(4,1,7)              118.5196         -DE/DX =    0.0                 !
 ! A3    A(5,1,7)              118.5196         -DE/DX =    0.0                 !
 ! A4    A(4,2,6)              122.9607         -DE/DX =    0.0                 !
 ! A5    A(4,2,11)             118.5196         -DE/DX =    0.0                 !
 ! A6    A(6,2,11)             118.5196         -DE/DX =    0.0                 !
 ! A7    A(5,3,6)              122.9607         -DE/DX =    0.0                 !
 ! A8    A(5,3,9)              118.5196         -DE/DX =    0.0                 !
 ! A9    A(6,3,9)              118.5196         -DE/DX =    0.0                 !
 ! A10   A(1,4,2)              117.0393         -DE/DX =    0.0                 !
 ! A11   A(1,4,12)             121.4804         -DE/DX =    0.0                 !
 ! A12   A(2,4,12)             121.4804         -DE/DX =    0.0                 !
 ! A13   A(1,5,3)              117.0393         -DE/DX =    0.0                 !
 ! A14   A(1,5,8)              121.4804         -DE/DX =    0.0                 !
 ! A15   A(3,5,8)              121.4804         -DE/DX =    0.0                 !
 ! A16   A(2,6,3)              117.0393         -DE/DX =    0.0                 !
 ! A17   A(2,6,10)             121.4804         -DE/DX =    0.0                 !
 ! A18   A(3,6,10)             121.4804         -DE/DX =    0.0                 !
 ! D1    D(5,1,4,2)              0.0            -DE/DX =    0.0                 !
 ! D2    D(5,1,4,12)           180.0            -DE/DX =    0.0                 !
 ! D3    D(7,1,4,2)            180.0            -DE/DX =    0.0                 !
 ! D4    D(7,1,4,12)             0.0            -DE/DX =    0.0                 !
 ! D5    D(4,1,5,3)              0.0            -DE/DX =    0.0                 !
 ! D6    D(4,1,5,8)            180.0            -DE/DX =    0.0                 !
 ! D7    D(7,1,5,3)            180.0            -DE/DX =    0.0                 !
 ! D8    D(7,1,5,8)              0.0            -DE/DX =    0.0                 !
 ! D9    D(6,2,4,1)              0.0            -DE/DX =    0.0                 !
 ! D10   D(6,2,4,12)           180.0            -DE/DX =    0.0                 !
 ! D11   D(11,2,4,1)           180.0            -DE/DX =    0.0                 !
 ! D12   D(11,2,4,12)            0.0            -DE/DX =    0.0                 !
 ! D13   D(4,2,6,3)              0.0            -DE/DX =    0.0                 !
 ! D14   D(4,2,6,10)           180.0            -DE/DX =    0.0                 !
 ! D15   D(11,2,6,3)           180.0            -DE/DX =    0.0                 !
 ! D16   D(11,2,6,10)            0.0            -DE/DX =    0.0                 !
 ! D17   D(6,3,5,1)              0.0            -DE/DX =    0.0                 !
 ! D18   D(6,3,5,8)            180.0            -DE/DX =    0.0                 !
 ! D19   D(9,3,5,1)            180.0            -DE/DX =    0.0                 !
 ! D20   D(9,3,5,8)              0.0            -DE/DX =    0.0                 !
 ! D21   D(5,3,6,2)              0.0            -DE/DX =    0.0                 !
 ! D22   D(5,3,6,10)           180.0            -DE/DX =    0.0                 !
 ! D23   D(9,3,6,2)            180.0            -DE/DX =    0.0                 !
 ! D24   D(9,3,6,10)             0.0            -DE/DX =    0.0                 !
 --------------------------------------------------------------------------------
 GradGradGradGradGradGradGradGradGradGradGradGradGradGradGradGradGradGrad

 Dipole is zero, so no output in dipole orientation.

 ----------------------------------------------------------------------

 Electric dipole moment (input orientation):
 (Debye = 10**-18 statcoulomb cm , SI units = C m)
                  (au)            (Debye)         (10**-30 SI)
   Tot        0.000000D+00      0.000000D+00      0.000000D+00
   x          0.000000D+00      0.000000D+00      0.000000D+00
   y          0.000000D+00      0.000000D+00      0.000000D+00
   z          0.000000D+00      0.000000D+00      0.000000D+00

 Dipole polarizability, Alpha (input orientation).
 (esu units = cm**3 , SI units = C**2 m**2 J**-1)
 Alpha(0;0):
               (au)            (10**-24 esu)      (10**-40 SI)
   iso        0.478361D+02      0.708857D+01      0.788710D+01
   aniso      0.372494D+02      0.551979D+01      0.614159D+01
   xx         0.602525D+02      0.892850D+01      0.993430D+01
   yx         0.000000D+00      0.000000D+00      0.000000D+00
   yy         0.602525D+02      0.892850D+01      0.993430D+01
   zx         0.000000D+00      0.000000D+00      0.000000D+00
   zy         0.000000D+00      0.000000D+00      0.000000D+00
   zz         0.230032D+02      0.340872D+01      0.379271D+01

 ----------------------------------------------------------------------
 Unable to Open any file for archive entry.
 1\1\GINC-BS001\Freq\RMP2-FC\3-21G\B3H6N3\PNATT\06-Aug-2026\0\\#N Geom=
 AllCheck Guess=TCheck SCRF=Check GenChk RMP2(FC)/3-21G Freq\\Title Car
 d Required\\0,1\N,0.0000000001,1.4326229224,0.\N,-1.2406878435,-0.7163
 114586,0.\N,1.2406878434,-0.7163114588,0.\B,-1.2782716962,0.7380105097
 ,0.\B,1.2782716964,0.7380105095,0.\B,-0.0000000001,-1.4760210142,0.\H,
 0.0000000002,2.4516211885,0.\H,2.3167606986,1.3375824144,0.\H,2.123166
 2282,-1.2258105919,0.\H,-0.0000000002,-2.6751648241,0.\H,-2.1231662284
 ,-1.2258105916,0.\H,-2.3167606984,1.3375824148,0.\\Version=ES64L-G16Re
 vC.01\State=1-A1'\HF=-239.840718\MP2=-240.3048259\RMSD=1.547e-09\RMSF=
 3.794e-07\ZeroPoint=0.0942385\Thermal=0.0992891\ETot=-240.2055368\HTot
 =-240.2045926\GTot=-240.2369699\Dipole=0.,0.,0.\DipoleDeriv=-1.3555795
 ,0.,0.,0.,-0.6463234,0.,0.,0.,-0.6090171,-0.8236374,0.3071169,0.,0.307
 1169,-1.1782654,0.,0.,0.,-0.6090171,-0.8236374,-0.3071169,0.,-0.307116
 9,-1.1782654,0.,0.,0.,-0.6090171,1.0473564,0.0579845,0.,0.0579845,1.11
 43111,0.,0.,0.,0.4400118,1.0473564,-0.0579845,0.,-0.0579845,1.1143111,
 0.,0.,0.,0.4400118,1.1477885,0.,0.,0.,1.013879,0.,0.,0.,0.4400118,0.19
 60926,0.,0.,0.,0.1390996,0.,0.,0.,0.3013152,-0.3027468,-0.0957278,0.,-
 0.0957278,-0.1922099,0.,0.,0.,-0.1323099,0.1533478,0.0246787,0.,0.0246
 787,0.1818443,0.,0.,0.,0.3013152,-0.1369415,0.,0.,0.,-0.3580153,0.,0.,
 0.,-0.1323099,0.1533478,-0.0246787,0.,-0.0246787,0.1818443,0.,0.,0.,0.
 3013152,-0.3027468,0.0957278,0.,0.0957278,-0.1922099,0.,0.,0.,-0.13230
 99\Polar=60.2525335,0.,60.2525335,0.,0.,23.0031517\PG=D03H [3C2(H1B1.N
 1H1)]\NImag=0\\0.57813581,0.,0.73751447,0.,0.,0.09251874,0.02589983,-0
 .03150300,0.,0.69766980,-0.04884731,-0.02049044,0.,0.06901298,0.617980
 47,0.,0.,0.00817557,0.,0.,0.09251874,0.02589983,0.03150300,0.,-0.04368
 558,0.00867215,0.,0.69766980,0.04884731,-0.02049044,0.,-0.00867215,0.0
 4909497,0.,-0.06901298,0.61798047,0.,0.,0.00817557,0.,0.,0.00817557,0.
 ,0.,0.09251874,-0.24040320,-0.09410943,0.,-0.10605726,0.03563716,0.,-0
 .01038480,-0.02534770,0.,0.55558461,-0.04192750,-0.13981624,0.,-0.0165
 4477,-0.27416218,0.,-0.02534770,-0.03965381,0.,-0.01892786,0.53372859,
 0.,0.,-0.05362746,0.,0.,-0.05362746,0.,0.,-0.00539515,0.,0.,0.13535684
 ,-0.24040320,0.09410943,0.,-0.01038480,0.02534770,0.,-0.10605726,-0.03
 563716,0.,-0.04762525,-0.01855304,0.,0.55558461,0.04192750,-0.13981624
 ,0.,0.02534770,-0.03965381,0.,0.01654477,-0.27416218,0.,0.01855304,0.0
 5547327,0.,0.01892786,0.53372859,0.,0.,-0.05362746,0.,0.,-0.00539515,0
 .,0.,-0.05362746,0.,0.,0.00628721,0.,0.,0.13535684,-0.05428831,0.,0.,-
 0.22386870,0.05147370,0.,-0.22386870,-0.05147370,0.,0.02969864,0.06319
 601,0.,0.02969864,-0.06319601,0.,0.52280058,0.,0.00424970,0.,0.1036556
 3,-0.15635074,0.,-0.10365563,-0.15635074,0.,0.02608993,-0.02185062,0.,
 -0.02608993,-0.02185062,0.,0.,0.56651261,0.,0.,-0.00539515,0.,0.,-0.05
 362746,0.,0.,-0.05362746,0.,0.,0.00628721,0.,0.,0.00628721,0.,0.,0.135
 35684,-0.06505232,0.,0.,-0.00490131,-0.00257623,0.,-0.00490131,0.00257
 623,0.,0.00600605,-0.03013974,0.,0.00600605,0.03013974,0.,-0.00249030,
 0.,0.,0.06318892,0.,-0.42560054,0.,-0.00357899,0.00088652,0.,0.0035789
 9,0.00088652,0.,0.00705717,-0.01232303,0.,-0.00705717,-0.01232303,0.,0
 .,0.00113332,0.,0.,0.44636352,0.,0.,-0.02817854,0.,0.,0.00479692,0.,0.
 ,0.00479692,0.,0.,0.00048016,0.,0.,0.00048016,0.,0.,-0.00030908,0.,0.,
 0.02249951,-0.01864384,-0.01088408,0.,0.00030231,-0.00172467,0.,0.0037
 7555,0.00236989,0.,0.00129473,0.00440506,0.,-0.18624485,-0.08322355,0.
 ,-0.00005641,0.00133326,0.,0.00090622,-0.00050770,0.,0.19955473,0.0153
 1373,0.00869121,0.,-0.00172467,0.00229379,0.,-0.02382792,-0.01372817,0
 .,0.00055317,-0.00336943,0.,-0.08322355,-0.09014657,0.,0.00518514,-0.0
 0201828,0.,-0.00149715,0.00103967,0.,0.09009467,0.09552237,0.,0.,0.011
 34291,0.,0.,-0.00032096,0.,0.,0.01134291,0.,0.,0.00339169,0.,0.,-0.042
 71585,0.,0.,0.00339169,0.,0.,-0.00304711,0.,0.,0.02103097,0.00210485,-
 0.00046602,0.,-0.00322573,-0.00454638,0.,-0.33546348,0.15612196,0.,0.0
 0022741,-0.00156908,0.,0.00225429,-0.00489109,0.,-0.01773580,0.0207645
 4,0.,0.00009254,-0.00040306,0.,0.00013818,-0.00006427,0.,0.35056988,-0
 .00146877,-0.00611964,0.,-0.00354363,-0.00078906,0.,0.15612196,-0.1551
 8938,0.,-0.00156908,-0.00158440,0.,0.03230582,-0.00857127,0.,-0.016432
 38,0.01141882,0.,0.00154911,-0.00056913,0.,-0.00105372,0.00180771,0.,-
 0.16591947,0.15898257,0.,0.,0.00479692,0.,0.,0.00479692,0.,0.,-0.02817
 854,0.,0.,-0.00030908,0.,0.,0.00048016,0.,0.,0.00048016,0.,0.,0.001088
 76,0.,0.,-0.00304711,0.,0.,0.02249951,0.00328954,0.,0.,-0.00006064,0.0
 2604274,0.,-0.00006064,-0.02604274,0.,-0.00435036,-0.00270603,0.,-0.00
 435036,0.00270603,0.,-0.04209743,0.,0.,0.00014670,0.,0.,0.00011409,-0.
 00131256,0.,0.00187443,0.00093815,0.,0.04350618,0.,-0.00069343,0.,-0.0
 0015507,-0.00989198,0.,0.00015507,-0.00989198,0.,0.00114586,0.00227567
 ,0.,-0.00114586,0.00227567,0.,0.,-0.23429399,0.,0.,0.00003564,0.,-0.00
 020958,-0.00076472,0.,-0.00005129,0.00007146,0.,0.,0.25157091,0.,0.,-0
 .00032096,0.,0.,0.01134291,0.,0.,0.01134291,0.,0.,0.00339169,0.,0.,0.0
 0339169,0.,0.,-0.04271585,0.,0.,-0.00064937,0.,0.,-0.00035990,0.,0.,-0
 .00304711,0.,0.,0.02103097,0.00210485,0.00046602,0.,-0.33546348,-0.156
 12196,0.,-0.00322573,0.00454638,0.,0.00225429,0.00489109,0.,0.00022741
 ,0.00156908,0.,-0.01773580,-0.02076454,0.,0.00009254,0.00040306,0.,0.0
 0006340,-0.00004809,0.,-0.00089997,-0.00097608,0.,0.00187443,0.0000512
 9,0.,0.35056987,0.00146877,-0.00611964,0.,-0.15612196,-0.15518938,0.,0
 .00354363,-0.00078906,0.,-0.03230582,-0.00857127,0.,0.00156908,-0.0015
 8440,0.,0.01643238,0.01141882,0.,-0.00154911,-0.00056913,0.,-0.0000480
 9,0.00011893,0.,0.00097608,0.00042338,0.,-0.00093815,0.00007146,0.,0.1
 6591947,0.15898257,0.,0.,0.00479692,0.,0.,-0.02817854,0.,0.,0.00479692
 ,0.,0.,0.00048016,0.,0.,-0.00030908,0.,0.,0.00048016,0.,0.,0.00108876,
 0.,0.,-0.00064937,0.,0.,0.00108876,0.,0.,-0.00304711,0.,0.,0.02249951,
 -0.01864384,0.01088408,0.,0.00377555,-0.00236989,0.,0.00030231,0.00172
 467,0.,-0.18624485,0.08322355,0.,0.00129473,-0.00440506,0.,-0.00005641
 ,-0.00133326,0.,0.00090622,0.00050770,0.,-0.00120412,0.00055149,0.,0.0
 0006340,0.00004809,0.,0.00011409,0.00020958,0.,0.00013818,0.00105372,0
 .,0.19955473,-0.01531373,0.00869122,0.,0.02382792,-0.01372817,0.,0.001
 72467,0.00229379,0.,0.08322355,-0.09014657,0.,-0.00055317,-0.00336943,
 0.,-0.00518514,-0.00201828,0.,0.00149715,0.00103967,0.,-0.00055149,0.0
 0055349,0.,0.00004809,0.00011893,0.,0.00131256,-0.00076472,0.,0.000064
 27,0.00180771,0.,-0.09009467,0.09552237,0.,0.,0.01134291,0.,0.,0.01134
 291,0.,0.,-0.00032095,0.,0.,-0.04271585,0.,0.,0.00339169,0.,0.,0.00339
 169,0.,0.,-0.00304711,0.,0.,-0.00035990,0.,0.,-0.00064937,0.,0.,-0.000
 35990,0.,0.,-0.00304711,0.,0.,0.02103097\\0.,-0.00000096,0.,0.00000083
 ,0.00000048,0.,-0.00000083,0.00000048,0.,-0.00000067,0.00000039,0.,0.0
 0000067,0.00000039,0.,0.,-0.00000077,0.,0.,0.00000044,0.,-0.00000007,-
 0.00000004,0.,0.00000038,-0.00000022,0.,0.,0.00000008,0.,-0.00000038,-
 0.00000022,0.,0.00000007,-0.00000004,0.\\\@
 The archive entry for this job was punched.


 UNLESS WE CHANGE DIRECTIONS, WE WILL WIND UP WHERE WE ARE HEADED.
     -- CONFUCIUS
 Job cpu time:       0 days  0 hours  0 minutes 22.1 seconds.
 Elapsed time:       0 days  0 hours  0 minutes 22.0 seconds.
 File lengths (MBytes):  RWF=    198 Int=      0 D2E=      0 Chk=      2 Scr=      1
 Normal termination of Gaussian 16 at Thu Aug  6 17:13:58 2026.
