 Entering Gaussian System, Link 0=g16
 Input=BBr3.com
 Output=BBr3.log
 Initial command:
 /opt/g16/g16/l1.exe "/home/pnatt/scratch/Gau-1449295.inp" -scrdir="/home/pnatt/scratch/"
 Entering Link 1 = /opt/g16/g16/l1.exe PID=   1449299.
  
 Copyright (c) 1988-2019, Gaussian, Inc.  All Rights Reserved.
  
 This is part of the Gaussian(R) 16 program.  It is based on
 the Gaussian(R) 09 system (copyright 2009, Gaussian, Inc.),
 the Gaussian(R) 03 system (copyright 2003, Gaussian, Inc.),
 the Gaussian(R) 98 system (copyright 1998, Gaussian, Inc.),
 the Gaussian(R) 94 system (copyright 1995, Gaussian, Inc.),
 the Gaussian 92(TM) system (copyright 1992, Gaussian, Inc.),
 the Gaussian 90(TM) system (copyright 1990, Gaussian, Inc.),
 the Gaussian 88(TM) system (copyright 1988, Gaussian, Inc.),
 the Gaussian 86(TM) system (copyright 1986, Carnegie Mellon
 University), and the Gaussian 82(TM) system (copyright 1983,
 Carnegie Mellon University). Gaussian is a federally registered
 trademark of Gaussian, Inc.
  
 This software contains proprietary and confidential information,
 including trade secrets, belonging to Gaussian, Inc.
  
 This software is provided under written license and may be
 used, copied, transmitted, or stored only in accord with that
 written license.
  
 The following legend is applicable only to US Government
 contracts under FAR:
  
                    RESTRICTED RIGHTS LEGEND
  
 Use, reproduction and disclosure by the US Government is
 subject to restrictions as set forth in subparagraphs (a)
 and (c) of the Commercial Computer Software - Restricted
 Rights clause in FAR 52.227-19.
  
 Gaussian, Inc.
 340 Quinnipiac St., Bldg. 40, Wallingford CT 06492
  
  
 ---------------------------------------------------------------
 Warning -- This program may not be used in any manner that
 competes with the business of Gaussian, Inc. or will provide
 assistance to any competitor of Gaussian, Inc.  The licensee
 of this program is prohibited from giving any competitor of
 Gaussian, Inc. access to this program.  By using this program,
 the user acknowledges that Gaussian, Inc. is engaged in the
 business of creating and licensing software in the field of
 computational chemistry and represents and warrants to the
 licensee that it is not a competitor of Gaussian, Inc. and that
 it will not use this program in any manner prohibited above.
 ---------------------------------------------------------------
  

 Cite this work as:
 Gaussian 16, Revision C.01,
 M. J. Frisch, G. W. Trucks, H. B. Schlegel, G. E. Scuseria, 
 M. A. Robb, J. R. Cheeseman, G. Scalmani, V. Barone, 
 G. A. Petersson, H. Nakatsuji, X. Li, M. Caricato, A. V. Marenich, 
 J. Bloino, B. G. Janesko, R. Gomperts, B. Mennucci, H. P. Hratchian, 
 J. V. Ortiz, A. F. Izmaylov, J. L. Sonnenberg, D. Williams-Young, 
 F. Ding, F. Lipparini, F. Egidi, J. Goings, B. Peng, A. Petrone, 
 T. Henderson, D. Ranasinghe, V. G. Zakrzewski, J. Gao, N. Rega, 
 G. Zheng, W. Liang, M. Hada, M. Ehara, K. Toyota, R. Fukuda, 
 J. Hasegawa, M. Ishida, T. Nakajima, Y. Honda, O. Kitao, H. Nakai, 
 T. Vreven, K. Throssell, J. A. Montgomery, Jr., J. E. Peralta, 
 F. Ogliaro, M. J. Bearpark, J. J. Heyd, E. N. Brothers, K. N. Kudin, 
 V. N. Staroverov, T. A. Keith, R. Kobayashi, J. Normand, 
 K. Raghavachari, A. P. Rendell, J. C. Burant, S. S. Iyengar, 
 J. Tomasi, M. Cossi, J. M. Millam, M. Klene, C. Adamo, R. Cammi, 
 J. W. Ochterski, R. L. Martin, K. Morokuma, O. Farkas, 
 J. B. Foresman, and D. J. Fox, Gaussian, Inc., Wallingford CT, 2019.
 
 ******************************************
 Gaussian 16:  ES64L-G16RevC.01  3-Jul-2019
                10-Aug-2026 
 ******************************************
 %chk=BBr3_MP2_6-31G.chk
 ----------------------------------------------
 # opt freq=hpmodes mp2/6-31g geom=connectivity
 ----------------------------------------------
 1/18=20,19=15,38=1,57=2/1,3;
 2/9=110,12=2,17=6,18=5,40=1/2;
 3/5=1,6=6,11=9,25=1,30=1,71=1/1,2,3;
 4//1;
 5/5=2,38=5/2;
 8/6=4,10=2/1;
 9/15=2,16=-3/6;
 10/5=1/2;
 6/7=2,8=2,9=2,10=2/1;
 7/12=2/1,2,3,16;
 1/18=20,19=15/3(2);
 2/9=110/2;
 99//99;
 2/9=110/2;
 3/5=1,6=6,11=9,25=1,30=1,71=1/1,2,3;
 4/5=5,16=3,69=1/1;
 5/5=2,38=5/2;
 8/6=4,10=2/1;
 9/15=2,16=-3/6;
 10/5=1/2;
 7/12=2/1,2,3,16;
 1/18=20,19=15/3(-8);
 2/9=110/2;
 6/7=2,8=2,9=2,10=2/1;
 99/9=10/99;
 -------------------
 Title Card Required
 -------------------
 Symbolic Z-matrix:
 Charge =  0 Multiplicity = 1
 B                     0.        0.        0. 
 Br                    0.        2.02      0. 
 Br                   -1.74937  -1.01      0. 
 Br                    1.74937  -1.01      0. 
 

 GradGradGradGradGradGradGradGradGradGradGradGradGradGradGradGradGradGrad
 Berny optimization.
 Initialization pass.
                           ----------------------------
                           !    Initial Parameters    !
                           ! (Angstroms and Degrees)  !
 --------------------------                            --------------------------
 ! Name  Definition              Value          Derivative Info.                !
 --------------------------------------------------------------------------------
 ! R1    R(1,2)                  2.02           estimate D2E/DX2                !
 ! R2    R(1,3)                  2.02           estimate D2E/DX2                !
 ! R3    R(1,4)                  2.02           estimate D2E/DX2                !
 ! A1    A(2,1,3)              120.0            estimate D2E/DX2                !
 ! A2    A(2,1,4)              120.0            estimate D2E/DX2                !
 ! A3    A(3,1,4)              120.0            estimate D2E/DX2                !
 ! D1    D(2,1,4,3)            180.0            estimate D2E/DX2                !
 --------------------------------------------------------------------------------
 Trust Radius=3.00D-01 FncErr=1.00D-07 GrdErr=1.00D-07 EigMax=2.50D+02 EigMin=1.00D-04
 Number of steps in this run=     20 maximum allowed number of steps=    100.
 GradGradGradGradGradGradGradGradGradGradGradGradGradGradGradGradGradGrad

                          Input orientation:                          
 ---------------------------------------------------------------------
 Center     Atomic      Atomic             Coordinates (Angstroms)
 Number     Number       Type             X           Y           Z
 ---------------------------------------------------------------------
      1          5           0        0.000000    0.000000    0.000000
      2         35           0        0.000000    2.020000    0.000000
      3         35           0       -1.749371   -1.010000    0.000000
      4         35           0        1.749371   -1.010000    0.000000
 ---------------------------------------------------------------------
                    Distance matrix (angstroms):
                    1          2          3          4
     1  B    0.000000
     2  Br   2.020000   0.000000
     3  Br   2.020000   3.498743   0.000000
     4  Br   2.020000   3.498743   3.498743   0.000000
 Stoichiometry    BBr3
 Framework group  D3H[O(B),3C2(Br)]
 Deg. of freedom     1
 Full point group                 D3H     NOp  12
 Largest Abelian subgroup         C2V     NOp   4
 Largest concise Abelian subgroup C2      NOp   2
                         Standard orientation:                         
 ---------------------------------------------------------------------
 Center     Atomic      Atomic             Coordinates (Angstroms)
 Number     Number       Type             X           Y           Z
 ---------------------------------------------------------------------
      1          5           0        0.000000    0.000000    0.000000
      2         35           0        0.000000    2.020000    0.000000
      3         35           0        1.749371   -1.010000   -0.000000
      4         35           0       -1.749371   -1.010000   -0.000000
 ---------------------------------------------------------------------
 Rotational constants (GHZ):           1.0462736           1.0462736           0.5231368
 Standard basis: 6-31G (6D, 7F)
 There are    36 symmetry adapted cartesian basis functions of A1  symmetry.
 There are     7 symmetry adapted cartesian basis functions of A2  symmetry.
 There are    25 symmetry adapted cartesian basis functions of B1  symmetry.
 There are    13 symmetry adapted cartesian basis functions of B2  symmetry.
 There are    36 symmetry adapted basis functions of A1  symmetry.
 There are     7 symmetry adapted basis functions of A2  symmetry.
 There are    25 symmetry adapted basis functions of B1  symmetry.
 There are    13 symmetry adapted basis functions of B2  symmetry.
    81 basis functions,   253 primitive gaussians,    81 cartesian basis functions
    55 alpha electrons       55 beta electrons
       nuclear repulsion energy       693.3694355180 Hartrees.
 NAtoms=    4 NActive=    4 NUniq=    2 SFac= 4.00D+00 NAtFMM=   60 NAOKFM=F Big=F
 Integral buffers will be    131072 words long.
 Raffenetti 1 integral format.
 Two-electron integral symmetry is turned on.
 One-electron integrals computed using PRISM.
 NBasis=    81 RedAO= T EigKep=  1.48D-03  NBF=    36     7    25    13
 NBsUse=    81 1.00D-06 EigRej= -1.00D+00 NBFU=    36     7    25    13
 ExpMin= 1.27D-01 ExpMax= 5.74D+05 ExpMxC= 5.74D+03 IAcc=3 IRadAn=         5 AccDes= 0.00D+00
 Harris functional with IExCor=  205 and IRadAn=       5 diagonalized for initial guess.
 HarFok:  IExCor=  205 AccDes= 0.00D+00 IRadAn=         5 IDoV= 1 UseB2=F ITyADJ=14
 ICtDFT=  3500011 ScaDFX=  1.000000  1.000000  1.000000  1.000000
 FoFCou: FMM=F IPFlag=           0 FMFlag=      100000 FMFlg1=           0
         NFxFlg=           0 DoJE=T BraDBF=F KetDBF=T FulRan=T
         wScrn=  0.000000 ICntrl=       500 IOpCl=  0 I1Cent=   200000004 NGrid=           0
         NMat0=    1 NMatS0=      1 NMatT0=    0 NMatD0=    1 NMtDS0=    0 NMtDT0=    0
 Petite list used in FoFCou.
 Initial guess orbital symmetries:
       Occupied  (E') (E') (A1') (E') (E') (A1') (E') (E') (A2')
                 (A1') (E") (E") (A2") (E') (E') (E') (E') (A1')
                 (A1') (E') (E') (A1') (A2') (E") (E") (E') (E')
                 (A2") (E') (E') (A1') (E') (E') (A2") (A2') (E")
                 (E") (A1') (E') (E') (E") (E") (A1") (A1') (E')
                 (E') (A1') (E') (E') (A2") (E') (E') (E") (E")
                 (A2')
       Virtual   (A2") (A1') (E') (E') (E') (E') (A2") (A1') (E')
                 (E') (A1') (E") (E") (A2") (E') (E') (A2') (E')
                 (E') (A1') (A1') (E') (E') (A1') (E') (E')
 The electronic state of the initial guess is 1-A1'.
 Keep R1 ints in memory in symmetry-blocked form, NReq=7008371.
 Requested convergence on RMS density matrix=1.00D-08 within 128 cycles.
 Requested convergence on MAX density matrix=1.00D-06.
 Requested convergence on             energy=1.00D-06.
 No special actions if energy rises.
 SCF Done:  E(RHF) =  -7734.04729353     A.U. after   10 cycles
            NFock= 10  Conv=0.12D-08     -V/T= 2.0028
 ExpMin= 1.27D-01 ExpMax= 5.74D+05 ExpMxC= 5.74D+03 IAcc=3 IRadAn=         5 AccDes= 0.00D+00
 HarFok:  IExCor=  205 AccDes= 0.00D+00 IRadAn=         5 IDoV=-2 UseB2=F ITyADJ=14
 ICtDFT= 12500011 ScaDFX=  1.000000  1.000000  1.000000  1.000000
 GSVD:  LWork=       -2193 too small for GESVD, short by        9890 words or        9890 for optimal perf.
 Range of M.O.s used for correlation:    44    81
 NBasis=    81 NAE=    55 NBE=    55 NFC=    43 NFV=     0
 NROrb=     38 NOA=    12 NOB=    12 NVA=    26 NVB=    26

 **** Warning!!: The largest alpha MO coefficient is  0.12897450D+02

 Fully direct method using O(ONN) memory.
 JobTyp=1 Pass  1:  I=  44 to  55 NPSUse=  1 ParTrn=F ParDer=F DoDerP=T.
 Spin components of T(2) and E(2):
     alpha-alpha T2 =       0.1132218884D-01 E2=     -0.2075454979D-01
     alpha-beta  T2 =       0.6567496335D-01 E2=     -0.1243481225D+00
     beta-beta   T2 =       0.1132218884D-01 E2=     -0.2075454979D-01
 ANorm=    0.1043225451D+01
 E2 =    -0.1658572221D+00 EUMP2 =    -0.77342131507527D+04
          IDoAtm=1111
          Differentiating once with respect to electric field.
                with respect to dipole field.
          Differentiating once with respect to nuclear coordinates.
 Keep R1 ints in memory in symmetry-blocked form, NReq=7009155.
          There are     1 degrees of freedom in the 1st order CPHF.  IDoFFX=0 NUNeed=     1.
 LinEq1:  Iter=  0 NonCon=     1 RMS=5.69D-03 Max=1.80D-01 NDo=     1
 AX will form     1 AO Fock derivatives at one time.
 LinEq1:  Iter=  1 NonCon=     1 RMS=2.48D-03 Max=4.32D-02 NDo=     1
 LinEq1:  Iter=  2 NonCon=     1 RMS=3.19D-04 Max=5.47D-03 NDo=     1
 LinEq1:  Iter=  3 NonCon=     1 RMS=2.71D-05 Max=3.97D-04 NDo=     1
 LinEq1:  Iter=  4 NonCon=     1 RMS=4.97D-06 Max=6.48D-05 NDo=     1
 LinEq1:  Iter=  5 NonCon=     1 RMS=6.56D-07 Max=9.83D-06 NDo=     1
 LinEq1:  Iter=  6 NonCon=     1 RMS=4.49D-08 Max=5.24D-07 NDo=     1
 LinEq1:  Iter=  7 NonCon=     1 RMS=3.42D-09 Max=5.08D-08 NDo=     1
 LinEq1:  Iter=  8 NonCon=     1 RMS=2.69D-10 Max=3.24D-09 NDo=     1
 LinEq1:  Iter=  9 NonCon=     0 RMS=1.61D-11 Max=1.48D-10 NDo=     1
 Linear equations converged to 1.000D-10 1.000D-09 after     9 iterations.
 End of Minotr F.D. properties file   721 does not exist.
 End of Minotr F.D. properties file   722 does not exist.
 End of Minotr F.D. properties file   788 does not exist.

 **********************************************************************

            Population analysis using the SCF Density.

 **********************************************************************

 Orbital symmetries:
       Occupied  (E') (E') (A1') (E') (E') (A1') (E') (E') (A1')
                 (E") (E") (A2") (A2') (E') (E') (E') (E') (A1')
                 (A1') (E') (E') (A1') (E") (E") (A2") (A2') (E')
                 (E') (A1') (E') (E') (A2") (E") (E") (E') (E')
                 (A2') (A1") (E") (E") (E') (E') (A1') (A1') (E')
                 (E') (A1') (E') (E') (A2") (E') (E') (E") (E")
                 (A2')
       Virtual   (A2") (A1') (E') (E') (A2") (A1') (E') (E') (E')
                 (E') (A1') (E") (E") (A2") (E') (E') (A2') (A1')
                 (E') (E') (A1') (E') (E') (A1') (E') (E')
 The electronic state is 1-A1'.
 Alpha  occ. eigenvalues -- -489.99302-489.99302-489.99287 -64.42917 -64.42917
 Alpha  occ. eigenvalues --  -64.42712 -58.58995 -58.58995 -58.58971 -58.58825
 Alpha  occ. eigenvalues --  -58.58825 -58.58823 -58.58820 -58.58798 -58.58798
 Alpha  occ. eigenvalues --   -9.72498  -9.72498  -9.72362  -7.82458  -7.48777
 Alpha  occ. eigenvalues --   -7.48777  -7.48777  -7.48013  -7.48013  -7.48013
 Alpha  occ. eigenvalues --   -7.47897  -7.47896  -7.47896  -3.22855  -3.22852
 Alpha  occ. eigenvalues --   -3.22852  -3.22603  -3.22587  -3.22587  -3.22446
 Alpha  occ. eigenvalues --   -3.22446  -3.22426  -3.21594  -3.21593  -3.21593
 Alpha  occ. eigenvalues --   -3.21588  -3.21588  -3.21587  -1.07527  -1.02582
 Alpha  occ. eigenvalues --   -1.02582  -0.66802  -0.54799  -0.54799  -0.49828
 Alpha  occ. eigenvalues --   -0.44534  -0.44534  -0.44321  -0.44321  -0.42831
 Alpha virt. eigenvalues --    0.02774   0.08109   0.18250   0.18250   0.57266
 Alpha virt. eigenvalues --    0.58126   0.58932   0.58932   0.64462   0.64462
 Alpha virt. eigenvalues --    0.64981   0.69347   0.69347   0.71148   0.73271
 Alpha virt. eigenvalues --    0.73271   0.76984   0.87648   0.90160   0.90160
 Alpha virt. eigenvalues --    7.16105   7.32705   7.32705  40.68291  42.45234
 Alpha virt. eigenvalues --   42.45234
          Condensed to atoms (all electrons):
               1          2          3          4
     1  B    4.093270   0.274929   0.274929   0.274929
     2  Br   0.274929  34.872360  -0.059988  -0.059988
     3  Br   0.274929  -0.059988  34.872360  -0.059988
     4  Br   0.274929  -0.059988  -0.059988  34.872360
 Mulliken charges:
               1
     1  B    0.081942
     2  Br  -0.027314
     3  Br  -0.027314
     4  Br  -0.027314
 Sum of Mulliken charges =   0.00000
 Mulliken charges with hydrogens summed into heavy atoms:
               1
     1  B    0.081942
     2  Br  -0.027314
     3  Br  -0.027314
     4  Br  -0.027314
 Electronic spatial extent (au):  <R**2>=           1670.3324
 Charge=              0.0000 electrons
 Dipole moment (field-independent basis, Debye):
    X=             -0.0000    Y=              0.0000    Z=             -0.0000  Tot=              0.0000
 Quadrupole moment (field-independent basis, Debye-Ang):
   XX=            -63.8218   YY=            -63.8218   ZZ=            -61.1160
   XY=              0.0000   XZ=              0.0000   YZ=             -0.0000
 Traceless Quadrupole moment (field-independent basis, Debye-Ang):
   XX=             -0.9019   YY=             -0.9019   ZZ=              1.8039
   XY=              0.0000   XZ=              0.0000   YZ=             -0.0000
 Octapole moment (field-independent basis, Debye-Ang**2):
  XXX=              0.0000  YYY=              3.0437  ZZZ=             -0.0000  XYY=             -0.0000
  XXY=             -3.0437  XXZ=             -0.0000  XZZ=              0.0000  YZZ=              0.0000
  YYZ=             -0.0000  XYZ=              0.0000
 Hexadecapole moment (field-independent basis, Debye-Ang**3):
 XXXX=           -722.9881 YYYY=           -722.9881 ZZZZ=            -71.6500 XXXY=              0.0000
 XXXZ=              0.0000 YYYX=              0.0000 YYYZ=              0.0000 ZZZX=             -0.0000
 ZZZY=              0.0000 XXYY=           -240.9960 XXZZ=           -137.6814 YYZZ=           -137.6814
 XXYZ=              0.0000 YYXZ=              0.0000 ZZXY=              0.0000
 N-N= 6.933694355180D+02 E-N=-1.986560827353D+04  KE= 7.712431187321D+03
 Symmetry A1   KE= 4.058683566059D+03
 Symmetry A2   KE= 4.210054115225D+02
 Symmetry B1   KE= 2.521013088977D+03
 Symmetry B2   KE= 7.117291207626D+02
 Calling FoFJK, ICntrl=  10002127 FMM=F ISym2X=1 I1Cent= 0 IOpClX= 0 NMat=1 NMatS=1 NMatT=0.
 ***** Axes restored to original set *****
 -------------------------------------------------------------------
 Center     Atomic                   Forces (Hartrees/Bohr)
 Number     Number              X              Y              Z
 -------------------------------------------------------------------
      1        5          -0.000000000    0.000000000    0.000000000
      2       35           0.000000000   -0.035490089    0.000000000
      3       35           0.030735319    0.017745045   -0.000000000
      4       35          -0.030735319    0.017745044    0.000000000
 -------------------------------------------------------------------
 Cartesian Forces:  Max     0.035490089 RMS     0.017745045

 GradGradGradGradGradGradGradGradGradGradGradGradGradGradGradGradGradGrad
 Berny optimization.
 FormGI is forming the generalized inverse of G from B-inverse, IUseBI=4.
 Internal  Forces:  Max     0.035490089 RMS     0.023233717
 Search for a local minimum.
 Step number   1 out of a maximum of   20
 All quantities printed in internal units (Hartrees-Bohrs-Radians)
 Mixed Optimization -- RFO/linear search
 Second derivative matrix not updated -- first step.
 The second derivative matrix:
                          R1        R2        R3        A1        A2
           R1           0.13451
           R2           0.00000   0.13451
           R3           0.00000   0.00000   0.13451
           A1           0.00000   0.00000   0.00000   0.25000
           A2           0.00000   0.00000   0.00000   0.00000   0.25000
           A3           0.00000   0.00000   0.00000   0.00000   0.00000
           D1           0.00000   0.00000   0.00000   0.00000   0.00000
                          A3        D1
           A3           0.25000
           D1           0.00000   0.00230
 ITU=  0
     Eigenvalues ---    0.00230   0.13451   0.13451   0.13451   0.25000
     Eigenvalues ---    0.25000
 RFO step:  Lambda=-2.38593435D-02 EMin= 2.30000000D-03
 Linear search not attempted -- first point.
 Maximum step size (   0.300) exceeded in Quadratic search.
    -- Step size scaled by   0.773
 Iteration  1 RMS(Cart)=  0.11338934 RMS(Int)=  0.00000000
 Iteration  2 RMS(Cart)=  0.00000000 RMS(Int)=  0.00000000
 ClnCor:  largest displacement from symmetrization is 3.60D-11 for atom     3.
 Variable       Old X    -DE/DX   Delta X   Delta X   Delta X     New X
                                 (Linear)    (Quad)   (Total)
    R1        3.81725  -0.03549   0.00000  -0.17321  -0.17321   3.64404
    R2        3.81725  -0.03549   0.00000  -0.17321  -0.17321   3.64404
    R3        3.81725  -0.03549   0.00000  -0.17321  -0.17321   3.64404
    A1        2.09440   0.00000   0.00000   0.00000   0.00000   2.09440
    A2        2.09440   0.00000   0.00000   0.00000   0.00000   2.09440
    A3        2.09440  -0.00000   0.00000  -0.00000   0.00000   2.09440
    D1        3.14159   0.00000   0.00000   0.00000   0.00000   3.14159
         Item               Value     Threshold  Converged?
 Maximum Force            0.035490     0.000450     NO 
 RMS     Force            0.023234     0.000300     NO 
 Maximum Displacement     0.173205     0.001800     NO 
 RMS     Displacement     0.113389     0.001200     NO 
 Predicted change in Energy=-1.238815D-02
 GradGradGradGradGradGradGradGradGradGradGradGradGradGradGradGradGradGrad

                          Input orientation:                          
 ---------------------------------------------------------------------
 Center     Atomic      Atomic             Coordinates (Angstroms)
 Number     Number       Type             X           Y           Z
 ---------------------------------------------------------------------
      1          5           0        0.000000    0.000000    0.000000
      2         35           0       -0.000000    1.928344   -0.000000
      3         35           0       -1.669995   -0.964172   -0.000000
      4         35           0        1.669995   -0.964172    0.000000
 ---------------------------------------------------------------------
                    Distance matrix (angstroms):
                    1          2          3          4
     1  B    0.000000
     2  Br   1.928344   0.000000
     3  Br   1.928344   3.339989   0.000000
     4  Br   1.928344   3.339989   3.339989   0.000000
 Stoichiometry    BBr3
 Framework group  D3H[O(B),3C2(Br)]
 Deg. of freedom     1
 Full point group                 D3H     NOp  12
 Largest Abelian subgroup         C2V     NOp   4
 Largest concise Abelian subgroup C2      NOp   2
                         Standard orientation:                         
 ---------------------------------------------------------------------
 Center     Atomic      Atomic             Coordinates (Angstroms)
 Number     Number       Type             X           Y           Z
 ---------------------------------------------------------------------
      1          5           0        0.000000    0.000000    0.000000
      2         35           0        0.000000    1.928344    0.000000
      3         35           0        1.669995   -0.964172    0.000000
      4         35           0       -1.669995   -0.964172    0.000000
 ---------------------------------------------------------------------
 Rotational constants (GHZ):           1.1480983           1.1480983           0.5740492
 Standard basis: 6-31G (6D, 7F)
 There are    36 symmetry adapted cartesian basis functions of A1  symmetry.
 There are     7 symmetry adapted cartesian basis functions of A2  symmetry.
 There are    25 symmetry adapted cartesian basis functions of B1  symmetry.
 There are    13 symmetry adapted cartesian basis functions of B2  symmetry.
 There are    36 symmetry adapted basis functions of A1  symmetry.
 There are     7 symmetry adapted basis functions of A2  symmetry.
 There are    25 symmetry adapted basis functions of B1  symmetry.
 There are    13 symmetry adapted basis functions of B2  symmetry.
    81 basis functions,   253 primitive gaussians,    81 cartesian basis functions
    55 alpha electrons       55 beta electrons
       nuclear repulsion energy       726.3260038691 Hartrees.
 NAtoms=    4 NActive=    4 NUniq=    2 SFac= 4.00D+00 NAtFMM=   60 NAOKFM=F Big=F
 Integral buffers will be    131072 words long.
 Raffenetti 1 integral format.
 Two-electron integral symmetry is turned on.
 One-electron integrals computed using PRISM.
 NBasis=    81 RedAO= T EigKep=  1.45D-03  NBF=    36     7    25    13
 NBsUse=    81 1.00D-06 EigRej= -1.00D+00 NBFU=    36     7    25    13
 Initial guess from the checkpoint file:  "BBr3_MP2_6-31G.chk"
 B after Tr=     0.000000    0.000000   -0.000000
         Rot=    1.000000   -0.000000   -0.000000    0.000000 Ang=   0.00 deg.
 Initial guess orbital symmetries:
       Occupied  (E') (E') (A1') (E') (E') (A1') (E') (E') (A1')
                 (E") (E") (A2") (A2') (E') (E') (E') (E') (A1')
                 (A1') (E') (E') (A1') (E") (E") (A2") (A2') (E')
                 (E') (A1') (E') (E') (A2") (E") (E") (E') (E')
                 (A2') (A1") (E") (E") (E') (E') (A1') (A1') (E')
                 (E') (A1') (E') (E') (A2") (E') (E') (E") (E")
                 (A2')
       Virtual   (A2") (A1') (E') (E') (A2") (A1') (E') (E') (E')
                 (E') (A1') (E") (E") (A2") (E') (E') (A2') (A1')
                 (E') (E') (A1') (E') (E') (A1') (E') (E')
 ExpMin= 1.27D-01 ExpMax= 5.74D+05 ExpMxC= 5.74D+03 IAcc=3 IRadAn=         5 AccDes= 0.00D+00
 Harris functional with IExCor=  205 and IRadAn=       5 diagonalized for initial guess.
 HarFok:  IExCor=  205 AccDes= 0.00D+00 IRadAn=         5 IDoV= 1 UseB2=F ITyADJ=14
 ICtDFT=  3500011 ScaDFX=  1.000000  1.000000  1.000000  1.000000
 FoFCou: FMM=F IPFlag=           0 FMFlag=      100000 FMFlg1=           0
         NFxFlg=           0 DoJE=T BraDBF=F KetDBF=T FulRan=T
         wScrn=  0.000000 ICntrl=       500 IOpCl=  0 I1Cent=   200000004 NGrid=           0
         NMat0=    1 NMatS0=      1 NMatT0=    0 NMatD0=    1 NMtDS0=    0 NMtDT0=    0
 Petite list used in FoFCou.
 Keep R1 ints in memory in symmetry-blocked form, NReq=7008371.
 Requested convergence on RMS density matrix=1.00D-08 within 128 cycles.
 Requested convergence on MAX density matrix=1.00D-06.
 Requested convergence on             energy=1.00D-06.
 No special actions if energy rises.
 SCF Done:  E(RHF) =  -7734.06129531     A.U. after   10 cycles
            NFock= 10  Conv=0.74D-08     -V/T= 2.0028
 ExpMin= 1.27D-01 ExpMax= 5.74D+05 ExpMxC= 5.74D+03 IAcc=3 IRadAn=         5 AccDes= 0.00D+00
 HarFok:  IExCor=  205 AccDes= 0.00D+00 IRadAn=         5 IDoV=-2 UseB2=F ITyADJ=14
 ICtDFT= 12500011 ScaDFX=  1.000000  1.000000  1.000000  1.000000
 GSVD:  LWork=       -2193 too small for GESVD, short by        9890 words or        9890 for optimal perf.
 Range of M.O.s used for correlation:    44    81
 NBasis=    81 NAE=    55 NBE=    55 NFC=    43 NFV=     0
 NROrb=     38 NOA=    12 NOB=    12 NVA=    26 NVB=    26

 **** Warning!!: The largest alpha MO coefficient is  0.12963393D+02

 Fully direct method using O(ONN) memory.
 JobTyp=1 Pass  1:  I=  44 to  55 NPSUse=  1 ParTrn=F ParDer=F DoDerP=T.
 Spin components of T(2) and E(2):
     alpha-alpha T2 =       0.1088994774D-01 E2=     -0.2082265601D-01
     alpha-beta  T2 =       0.6141410298D-01 E2=     -0.1218824239D+00
     beta-beta   T2 =       0.1088994774D-01 E2=     -0.2082265601D-01
 ANorm=    0.1040766063D+01
 E2 =    -0.1635277359D+00 EUMP2 =    -0.77342248230441D+04
          IDoAtm=1111
          Differentiating once with respect to electric field.
                with respect to dipole field.
          Differentiating once with respect to nuclear coordinates.
 Keep R1 ints in memory in symmetry-blocked form, NReq=7009155.
          There are     1 degrees of freedom in the 1st order CPHF.  IDoFFX=0 NUNeed=     1.
 LinEq1:  Iter=  0 NonCon=     1 RMS=5.21D-03 Max=1.64D-01 NDo=     1
 AX will form     1 AO Fock derivatives at one time.
 LinEq1:  Iter=  1 NonCon=     1 RMS=2.13D-03 Max=3.64D-02 NDo=     1
 LinEq1:  Iter=  2 NonCon=     1 RMS=2.85D-04 Max=4.28D-03 NDo=     1
 LinEq1:  Iter=  3 NonCon=     1 RMS=1.81D-05 Max=2.30D-04 NDo=     1
 LinEq1:  Iter=  4 NonCon=     1 RMS=2.15D-06 Max=3.02D-05 NDo=     1
 LinEq1:  Iter=  5 NonCon=     1 RMS=3.22D-07 Max=4.15D-06 NDo=     1
 LinEq1:  Iter=  6 NonCon=     1 RMS=3.45D-08 Max=3.88D-07 NDo=     1
 LinEq1:  Iter=  7 NonCon=     1 RMS=3.21D-09 Max=3.89D-08 NDo=     1
 LinEq1:  Iter=  8 NonCon=     1 RMS=2.68D-10 Max=3.01D-09 NDo=     1
 LinEq1:  Iter=  9 NonCon=     0 RMS=1.86D-11 Max=2.68D-10 NDo=     1
 Linear equations converged to 1.000D-10 1.000D-09 after     9 iterations.
 End of Minotr F.D. properties file   721 does not exist.
 End of Minotr F.D. properties file   722 does not exist.
 End of Minotr F.D. properties file   788 does not exist.
 Calling FoFJK, ICntrl=  10002127 FMM=F ISym2X=1 I1Cent= 0 IOpClX= 0 NMat=1 NMatS=1 NMatT=0.
 ***** Axes restored to original set *****
 -------------------------------------------------------------------
 Center     Atomic                   Forces (Hartrees/Bohr)
 Number     Number              X              Y              Z
 -------------------------------------------------------------------
      1        5          -0.000000000    0.000000000    0.000000000
      2       35           0.000000000   -0.007103389    0.000000000
      3       35           0.006151716    0.003551695   -0.000000000
      4       35          -0.006151716    0.003551695    0.000000000
 -------------------------------------------------------------------
 Cartesian Forces:  Max     0.007103389 RMS     0.003551695

 GradGradGradGradGradGradGradGradGradGradGradGradGradGradGradGradGradGrad
 Berny optimization.
 Using GEDIIS/GDIIS optimizer.
 FormGI is forming the generalized inverse of G from B-inverse, IUseBI=4.
 Internal  Forces:  Max     0.007103389 RMS     0.004650260
 Search for a local minimum.
 Step number   2 out of a maximum of   20
 All quantities printed in internal units (Hartrees-Bohrs-Radians)
 Mixed Optimization -- RFO/linear search
 Update second derivatives using D2CorX and points    1    2
 DE= -1.17D-02 DEPred=-1.24D-02 R= 9.42D-01
 TightC=F SS=  1.41D+00  RLast= 3.00D-01 DXNew= 5.0454D-01 9.0000D-01
 Trust test= 9.42D-01 RLast= 3.00D-01 DXMaxT set to 5.05D-01
 The second derivative matrix:
                          R1        R2        R3        A1        A2
           R1           0.14430
           R2           0.00979   0.14430
           R3           0.00979   0.00979   0.14430
           A1          -0.00000  -0.00000  -0.00000   0.25000
           A2          -0.00000  -0.00000  -0.00000   0.00000   0.25000
           A3           0.00000   0.00000   0.00000  -0.00000  -0.00000
           D1          -0.00000  -0.00000  -0.00000   0.00000   0.00000
                          A3        D1
           A3           0.25000
           D1          -0.00000   0.00230
 ITU=  1  0
 Use linear search instead of GDIIS.
     Eigenvalues ---    0.00230   0.13451   0.13451   0.16389   0.25000
     Eigenvalues ---    0.25000
 RFO step:  Lambda= 0.00000000D+00 EMin= 2.30000000D-03
 Quartic linear search produced a step of  0.19096.
 Iteration  1 RMS(Cart)=  0.02165257 RMS(Int)=  0.00000000
 Iteration  2 RMS(Cart)=  0.00000000 RMS(Int)=  0.00000000
 ClnCor:  largest displacement from symmetrization is 4.81D-11 for atom     4.
 Variable       Old X    -DE/DX   Delta X   Delta X   Delta X     New X
                                 (Linear)    (Quad)   (Total)
    R1        3.64404  -0.00710  -0.03307  -0.00000  -0.03307   3.61097
    R2        3.64404  -0.00710  -0.03307   0.00000  -0.03307   3.61097
    R3        3.64404  -0.00710  -0.03307   0.00000  -0.03307   3.61097
    A1        2.09440   0.00000   0.00000   0.00000   0.00000   2.09440
    A2        2.09440   0.00000   0.00000   0.00000   0.00000   2.09440
    A3        2.09440  -0.00000   0.00000  -0.00000   0.00000   2.09440
    D1        3.14159   0.00000   0.00000   0.00000   0.00000   3.14159
         Item               Value     Threshold  Converged?
 Maximum Force            0.007103     0.000450     NO 
 RMS     Force            0.004650     0.000300     NO 
 Maximum Displacement     0.033075     0.001800     NO 
 RMS     Displacement     0.021653     0.001200     NO 
 Predicted change in Energy=-4.358993D-04
 GradGradGradGradGradGradGradGradGradGradGradGradGradGradGradGradGradGrad

                          Input orientation:                          
 ---------------------------------------------------------------------
 Center     Atomic      Atomic             Coordinates (Angstroms)
 Number     Number       Type             X           Y           Z
 ---------------------------------------------------------------------
      1          5           0        0.000000   -0.000000    0.000000
      2         35           0       -0.000000    1.910841    0.000000
      3         35           0       -1.654837   -0.955421   -0.000000
      4         35           0        1.654837   -0.955421    0.000000
 ---------------------------------------------------------------------
                    Distance matrix (angstroms):
                    1          2          3          4
     1  B    0.000000
     2  Br   1.910841   0.000000
     3  Br   1.910841   3.309674   0.000000
     4  Br   1.910841   3.309674   3.309674   0.000000
 Stoichiometry    BBr3
 Framework group  D3H[O(B),3C2(Br)]
 Deg. of freedom     1
 Full point group                 D3H     NOp  12
 Largest Abelian subgroup         C2V     NOp   4
 Largest concise Abelian subgroup C2      NOp   2
                         Standard orientation:                         
 ---------------------------------------------------------------------
 Center     Atomic      Atomic             Coordinates (Angstroms)
 Number     Number       Type             X           Y           Z
 ---------------------------------------------------------------------
      1          5           0        0.000000    0.000000    0.000000
      2         35           0        0.000000    1.910841    0.000000
      3         35           0        1.654837   -0.955421   -0.000000
      4         35           0       -1.654837   -0.955421   -0.000000
 ---------------------------------------------------------------------
 Rotational constants (GHZ):           1.1692268           1.1692268           0.5846134
 Standard basis: 6-31G (6D, 7F)
 There are    36 symmetry adapted cartesian basis functions of A1  symmetry.
 There are     7 symmetry adapted cartesian basis functions of A2  symmetry.
 There are    25 symmetry adapted cartesian basis functions of B1  symmetry.
 There are    13 symmetry adapted cartesian basis functions of B2  symmetry.
 There are    36 symmetry adapted basis functions of A1  symmetry.
 There are     7 symmetry adapted basis functions of A2  symmetry.
 There are    25 symmetry adapted basis functions of B1  symmetry.
 There are    13 symmetry adapted basis functions of B2  symmetry.
    81 basis functions,   253 primitive gaussians,    81 cartesian basis functions
    55 alpha electrons       55 beta electrons
       nuclear repulsion energy       732.9788268399 Hartrees.
 NAtoms=    4 NActive=    4 NUniq=    2 SFac= 4.00D+00 NAtFMM=   60 NAOKFM=F Big=F
 Integral buffers will be    131072 words long.
 Raffenetti 1 integral format.
 Two-electron integral symmetry is turned on.
 One-electron integrals computed using PRISM.
 NBasis=    81 RedAO= T EigKep=  1.44D-03  NBF=    36     7    25    13
 NBsUse=    81 1.00D-06 EigRej= -1.00D+00 NBFU=    36     7    25    13
 Initial guess from the checkpoint file:  "BBr3_MP2_6-31G.chk"
 B after Tr=    -0.000000    0.000000    0.000000
         Rot=    1.000000    0.000000    0.000000   -0.000000 Ang=   0.00 deg.
 Initial guess orbital symmetries:
       Occupied  (E') (E') (A1') (E') (E') (A1') (E') (E') (A1')
                 (E") (E") (A2") (A2') (E') (E') (E') (E') (A1')
                 (A1') (E') (E') (A1') (E") (E") (A2") (A2') (E')
                 (E') (A1') (E') (E') (A2") (E") (E") (E') (E')
                 (A2') (A1") (E") (E") (E') (E') (A1') (A1') (E')
                 (E') (A1') (E') (E') (A2") (E') (E') (E") (E")
                 (A2')
       Virtual   (A2") (A1') (E') (E') (A1') (A2") (E') (E') (E')
                 (E') (A1') (E") (E") (E') (E') (A2") (A2') (A1')
                 (E') (E') (A1') (E') (E') (A1') (E') (E')
 ExpMin= 1.27D-01 ExpMax= 5.74D+05 ExpMxC= 5.74D+03 IAcc=3 IRadAn=         5 AccDes= 0.00D+00
 Harris functional with IExCor=  205 and IRadAn=       5 diagonalized for initial guess.
 HarFok:  IExCor=  205 AccDes= 0.00D+00 IRadAn=         5 IDoV= 1 UseB2=F ITyADJ=14
 ICtDFT=  3500011 ScaDFX=  1.000000  1.000000  1.000000  1.000000
 FoFCou: FMM=F IPFlag=           0 FMFlag=      100000 FMFlg1=           0
         NFxFlg=           0 DoJE=T BraDBF=F KetDBF=T FulRan=T
         wScrn=  0.000000 ICntrl=       500 IOpCl=  0 I1Cent=   200000004 NGrid=           0
         NMat0=    1 NMatS0=      1 NMatT0=    0 NMatD0=    1 NMtDS0=    0 NMtDT0=    0
 Petite list used in FoFCou.
 Keep R1 ints in memory in symmetry-blocked form, NReq=7008371.
 Requested convergence on RMS density matrix=1.00D-08 within 128 cycles.
 Requested convergence on MAX density matrix=1.00D-06.
 Requested convergence on             energy=1.00D-06.
 No special actions if energy rises.
 SCF Done:  E(RHF) =  -7734.06208193     A.U. after    9 cycles
            NFock=  9  Conv=0.18D-08     -V/T= 2.0028
 ExpMin= 1.27D-01 ExpMax= 5.74D+05 ExpMxC= 5.74D+03 IAcc=3 IRadAn=         5 AccDes= 0.00D+00
 HarFok:  IExCor=  205 AccDes= 0.00D+00 IRadAn=         5 IDoV=-2 UseB2=F ITyADJ=14
 ICtDFT= 12500011 ScaDFX=  1.000000  1.000000  1.000000  1.000000
 GSVD:  LWork=       -2193 too small for GESVD, short by        9890 words or        9890 for optimal perf.
 Range of M.O.s used for correlation:    44    81
 NBasis=    81 NAE=    55 NBE=    55 NFC=    43 NFV=     0
 NROrb=     38 NOA=    12 NOB=    12 NVA=    26 NVB=    26

 **** Warning!!: The largest alpha MO coefficient is  0.12977151D+02

 Fully direct method using O(ONN) memory.
 JobTyp=1 Pass  1:  I=  44 to  55 NPSUse=  1 ParTrn=F ParDer=F DoDerP=T.
 Spin components of T(2) and E(2):
     alpha-alpha T2 =       0.1080806599D-01 E2=     -0.2083431249D-01
     alpha-beta  T2 =       0.6065687407D-01 E2=     -0.1214269874D+00
     beta-beta   T2 =       0.1080806599D-01 E2=     -0.2083431249D-01
 ANorm=    0.1040323510D+01
 E2 =    -0.1630956124D+00 EUMP2 =    -0.77342251775388D+04
          IDoAtm=1111
          Differentiating once with respect to electric field.
                with respect to dipole field.
          Differentiating once with respect to nuclear coordinates.
 Keep R1 ints in memory in symmetry-blocked form, NReq=7009155.
          There are     1 degrees of freedom in the 1st order CPHF.  IDoFFX=0 NUNeed=     1.
 LinEq1:  Iter=  0 NonCon=     1 RMS=5.12D-03 Max=1.61D-01 NDo=     1
 AX will form     1 AO Fock derivatives at one time.
 LinEq1:  Iter=  1 NonCon=     1 RMS=2.06D-03 Max=3.51D-02 NDo=     1
 LinEq1:  Iter=  2 NonCon=     1 RMS=2.81D-04 Max=4.07D-03 NDo=     1
 LinEq1:  Iter=  3 NonCon=     1 RMS=1.98D-05 Max=2.77D-04 NDo=     1
 LinEq1:  Iter=  4 NonCon=     1 RMS=2.83D-06 Max=4.52D-05 NDo=     1
 LinEq1:  Iter=  5 NonCon=     1 RMS=4.13D-07 Max=4.90D-06 NDo=     1
 LinEq1:  Iter=  6 NonCon=     1 RMS=3.70D-08 Max=3.89D-07 NDo=     1
 LinEq1:  Iter=  7 NonCon=     1 RMS=3.25D-09 Max=4.04D-08 NDo=     1
 LinEq1:  Iter=  8 NonCon=     1 RMS=2.68D-10 Max=3.06D-09 NDo=     1
 LinEq1:  Iter=  9 NonCon=     0 RMS=1.88D-11 Max=2.63D-10 NDo=     1
 Linear equations converged to 1.000D-10 1.000D-09 after     9 iterations.
 End of Minotr F.D. properties file   721 does not exist.
 End of Minotr F.D. properties file   722 does not exist.
 End of Minotr F.D. properties file   788 does not exist.
 Calling FoFJK, ICntrl=  10002127 FMM=F ISym2X=1 I1Cent= 0 IOpClX= 0 NMat=1 NMatS=1 NMatT=0.
 ***** Axes restored to original set *****
 -------------------------------------------------------------------
 Center     Atomic                   Forces (Hartrees/Bohr)
 Number     Number              X              Y              Z
 -------------------------------------------------------------------
      1        5          -0.000000000    0.000000000    0.000000000
      2       35          -0.000000000    0.000065563    0.000000000
      3       35          -0.000056779   -0.000032781   -0.000000000
      4       35           0.000056779   -0.000032781    0.000000000
 -------------------------------------------------------------------
 Cartesian Forces:  Max     0.000065563 RMS     0.000032781

 GradGradGradGradGradGradGradGradGradGradGradGradGradGradGradGradGradGrad
 Berny optimization.
 Using GEDIIS/GDIIS optimizer.
 FormGI is forming the generalized inverse of G from B-inverse, IUseBI=4.
 Internal  Forces:  Max     0.000065563 RMS     0.000042921
 Search for a local minimum.
 Step number   3 out of a maximum of   20
 All quantities printed in internal units (Hartrees-Bohrs-Radians)
 Mixed Optimization -- En-DIIS/RFO-DIIS
 Update second derivatives using D2CorX and points    1    2    3
 DE= -3.54D-04 DEPred=-4.36D-04 R= 8.13D-01
 TightC=F SS=  1.41D+00  RLast= 5.73D-02 DXNew= 8.4853D-01 1.7186D-01
 Trust test= 8.13D-01 RLast= 5.73D-02 DXMaxT set to 5.05D-01
 The second derivative matrix:
                          R1        R2        R3        A1        A2
           R1           0.16192
           R2           0.02741   0.16192
           R3           0.02741   0.02741   0.16192
           A1           0.00000   0.00000   0.00000   0.25000
           A2           0.00000   0.00000   0.00000   0.00000   0.25000
           A3          -0.00000  -0.00000  -0.00000  -0.00000  -0.00000
           D1          -0.00000  -0.00000  -0.00000  -0.00000  -0.00000
                          A3        D1
           A3           0.25000
           D1           0.00000   0.00230
 ITU=  1  1  0
 Use linear search instead of GDIIS.
     Eigenvalues ---    0.00230   0.13451   0.13451   0.21675   0.25000
     Eigenvalues ---    0.25000
 RFO step:  Lambda= 0.00000000D+00 EMin= 2.30000000D-03
 Quartic linear search produced a step of -0.00875.
 Iteration  1 RMS(Cart)=  0.00018951 RMS(Int)=  0.00000000
 Iteration  2 RMS(Cart)=  0.00000000 RMS(Int)=  0.00000000
 ClnCor:  largest displacement from symmetrization is 1.53D-10 for atom     3.
 Variable       Old X    -DE/DX   Delta X   Delta X   Delta X     New X
                                 (Linear)    (Quad)   (Total)
    R1        3.61097   0.00007   0.00029   0.00000   0.00029   3.61126
    R2        3.61097   0.00007   0.00029  -0.00000   0.00029   3.61126
    R3        3.61097   0.00007   0.00029   0.00000   0.00029   3.61126
    A1        2.09440   0.00000   0.00000   0.00000   0.00000   2.09440
    A2        2.09440   0.00000   0.00000   0.00000   0.00000   2.09440
    A3        2.09440  -0.00000   0.00000  -0.00000   0.00000   2.09440
    D1        3.14159   0.00000   0.00000   0.00000   0.00000   3.14159
         Item               Value     Threshold  Converged?
 Maximum Force            0.000066     0.000450     YES
 RMS     Force            0.000043     0.000300     YES
 Maximum Displacement     0.000289     0.001800     YES
 RMS     Displacement     0.000190     0.001200     YES
 Predicted change in Energy=-2.969249D-08
 Optimization completed.
    -- Stationary point found.
                           ----------------------------
                           !   Optimized Parameters   !
                           ! (Angstroms and Degrees)  !
 --------------------------                            --------------------------
 ! Name  Definition              Value          Derivative Info.                !
 --------------------------------------------------------------------------------
 ! R1    R(1,2)                  1.9108         -DE/DX =    0.0001              !
 ! R2    R(1,3)                  1.9108         -DE/DX =    0.0001              !
 ! R3    R(1,4)                  1.9108         -DE/DX =    0.0001              !
 ! A1    A(2,1,3)              120.0            -DE/DX =    0.0                 !
 ! A2    A(2,1,4)              120.0            -DE/DX =    0.0                 !
 ! A3    A(3,1,4)              120.0            -DE/DX =    0.0                 !
 ! D1    D(2,1,4,3)            180.0            -DE/DX =    0.0                 !
 --------------------------------------------------------------------------------
 GradGradGradGradGradGradGradGradGradGradGradGradGradGradGradGradGradGrad

                          Input orientation:                          
 ---------------------------------------------------------------------
 Center     Atomic      Atomic             Coordinates (Angstroms)
 Number     Number       Type             X           Y           Z
 ---------------------------------------------------------------------
      1          5           0        0.000000   -0.000000    0.000000
      2         35           0       -0.000000    1.910841    0.000000
      3         35           0       -1.654837   -0.955421   -0.000000
      4         35           0        1.654837   -0.955421    0.000000
 ---------------------------------------------------------------------
                    Distance matrix (angstroms):
                    1          2          3          4
     1  B    0.000000
     2  Br   1.910841   0.000000
     3  Br   1.910841   3.309674   0.000000
     4  Br   1.910841   3.309674   3.309674   0.000000
 Stoichiometry    BBr3
 Framework group  D3H[O(B),3C2(Br)]
 Deg. of freedom     1
 Full point group                 D3H     NOp  12
 Largest Abelian subgroup         C2V     NOp   4
 Largest concise Abelian subgroup C2      NOp   2
                         Standard orientation:                         
 ---------------------------------------------------------------------
 Center     Atomic      Atomic             Coordinates (Angstroms)
 Number     Number       Type             X           Y           Z
 ---------------------------------------------------------------------
      1          5           0        0.000000    0.000000    0.000000
      2         35           0        0.000000    1.910841    0.000000
      3         35           0        1.654837   -0.955421    0.000000
      4         35           0       -1.654837   -0.955421    0.000000
 ---------------------------------------------------------------------
 Rotational constants (GHZ):           1.1692268           1.1692268           0.5846134

 **********************************************************************

            Population analysis using the SCF Density.

 **********************************************************************

 Orbital symmetries:
       Occupied  (E') (E') (A1') (E') (E') (A1') (E') (E') (A1')
                 (E") (E") (A2") (A2') (E') (E') (E') (E') (A1')
                 (A1') (E') (E') (A1') (E") (E") (A2") (A2') (E')
                 (E') (A1') (E') (E') (A2") (E") (E") (E') (E')
                 (A2') (A1") (E") (E") (E') (E') (A1') (A1') (E')
                 (E') (A1') (E') (E') (A2") (E') (E') (E") (E")
                 (A2')
       Virtual   (A2") (A1') (E') (E') (A1') (A2") (E') (E') (E')
                 (E') (A1') (E") (E") (E') (E') (A2") (A2') (A1')
                 (E') (E') (A1') (E') (E') (A1') (E') (E')
 The electronic state is 1-A1'.
 Alpha  occ. eigenvalues -- -489.98907-489.98907-489.98888 -64.42574 -64.42574
 Alpha  occ. eigenvalues --  -64.42317 -58.58581 -58.58581 -58.58563 -58.58428
 Alpha  occ. eigenvalues --  -58.58428 -58.58423 -58.58417 -58.58396 -58.58396
 Alpha  occ. eigenvalues --   -9.72258  -9.72258  -9.72087  -7.79413  -7.48490
 Alpha  occ. eigenvalues --   -7.48490  -7.48490  -7.47760  -7.47760  -7.47759
 Alpha  occ. eigenvalues --   -7.47622  -7.47621  -7.47621  -3.22548  -3.22544
 Alpha  occ. eigenvalues --   -3.22544  -3.22318  -3.22296  -3.22296  -3.22127
 Alpha  occ. eigenvalues --   -3.22127  -3.22102  -3.21352  -3.21350  -3.21350
 Alpha  occ. eigenvalues --   -3.21343  -3.21343  -3.21343  -1.10151  -1.03525
 Alpha  occ. eigenvalues --   -1.03525  -0.67249  -0.56615  -0.56615  -0.51466
 Alpha  occ. eigenvalues --   -0.44684  -0.44684  -0.44147  -0.44147  -0.42157
 Alpha virt. eigenvalues --    0.04369   0.13734   0.21649   0.21649   0.55474
 Alpha virt. eigenvalues --    0.57752   0.59055   0.59055   0.66016   0.66016
 Alpha virt. eigenvalues --    0.66093   0.69820   0.69820   0.70439   0.70439
 Alpha virt. eigenvalues --    0.71109   0.77115   0.87908   0.93936   0.93936
 Alpha virt. eigenvalues --    7.18271   7.38741   7.38741  40.96715  43.07074
 Alpha virt. eigenvalues --   43.07074
          Condensed to atoms (all electrons):
               1          2          3          4
     1  B    4.215875   0.274897   0.274897   0.274897
     2  Br   0.274897  34.889278  -0.088848  -0.088848
     3  Br   0.274897  -0.088848  34.889278  -0.088848
     4  Br   0.274897  -0.088848  -0.088848  34.889278
 Mulliken charges:
               1
     1  B   -0.040565
     2  Br   0.013522
     3  Br   0.013522
     4  Br   0.013522
 Sum of Mulliken charges =  -0.00000
 Mulliken charges with hydrogens summed into heavy atoms:
               1
     1  B   -0.040565
     2  Br   0.013522
     3  Br   0.013522
     4  Br   0.013522
 Electronic spatial extent (au):  <R**2>=           1508.0587
 Charge=             -0.0000 electrons
 Dipole moment (field-independent basis, Debye):
    X=              0.0000    Y=             -0.0000    Z=              0.0000  Tot=              0.0000
 Quadrupole moment (field-independent basis, Debye-Ang):
   XX=            -63.1742   YY=            -63.1742   ZZ=            -60.5510
   XY=              0.0000   XZ=              0.0000   YZ=              0.0000
 Traceless Quadrupole moment (field-independent basis, Debye-Ang):
   XX=             -0.8744   YY=             -0.8744   ZZ=              1.7487
   XY=              0.0000   XZ=              0.0000   YZ=              0.0000
 Octapole moment (field-independent basis, Debye-Ang**2):
  XXX=              0.0000  YYY=              2.5660  ZZZ=              0.0000  XYY=             -0.0000
  XXY=             -2.5660  XXZ=             -0.0000  XZZ=              0.0000  YZZ=              0.0000
  YYZ=              0.0000  XYZ=             -0.0000
 Hexadecapole moment (field-independent basis, Debye-Ang**3):
 XXXX=           -652.2127 YYYY=           -652.2127 ZZZZ=            -70.4409 XXXY=             -0.0000
 XXXZ=              0.0000 YYYX=              0.0000 YYYZ=              0.0000 ZZZX=              0.0000
 ZZZY=             -0.0000 XXYY=           -217.4042 XXZZ=           -124.6349 YYZZ=           -124.6349
 XXYZ=              0.0000 YYXZ=              0.0000 ZZXY=              0.0000
 N-N= 7.329788268399D+02 E-N=-1.994530205120D+04  KE= 7.712739333029D+03
 Symmetry A1   KE= 4.058885872109D+03
 Symmetry A2   KE= 4.210327793246D+02
 Symmetry B1   KE= 2.521192732135D+03
 Symmetry B2   KE= 7.116279494593D+02
 Unable to Open any file for archive entry.
 1\1\GINC-BS001\FOpt\RMP2-FC\6-31G\B1Br3\PNATT\10-Aug-2026\0\\# opt fre
 q=hpmodes mp2/6-31g geom=connectivity\\Title Card Required\\0,1\B,0.,0
 .,0.\Br,-0.0000000021,1.9108413619,0.\Br,-1.654837161,-0.9554206828,0.
 \Br,1.6548371631,-0.9554206792,0.\\Version=ES64L-G16RevC.01\State=1-A1
 '\HF=-7734.0620819\MP2=-7734.2251775\RMSD=1.789e-09\RMSF=3.278e-05\Dip
 ole=0.,0.,0.\PG=D03H [O(B1),3C2(Br1)]\\@
 The archive entry for this job was punched.


 IT WAS A GAME, A VERY INTERESTING GAME ONE COULD
 PLAY.  WHENEVER ONE SOLVED ONE OF THE LITTLE PROBLEMS,
 ONE COULD WRITE A PAPER ABOUT IT.  IT WAS VERY EASY IN
 THOSE DAYS FOR ANY SECOND-RATE PHYSICIST TO DO
 FIRST-RATE WORK.  THERE HAS NOT BEEN SUCH A GLORIOUS
 TIME SINCE.  IT IS VERY DIFFICULT NOW FOR A FIRST-RATE
 PHYSICIST TO DO SECOND-RATE WORK.
     P.A.M. DIRAC, ON THE EARLY DAYS OF QUANTUM MECHANICS
                   DIRECTIONS IN PHYSICS, 1978, P. 7
 Job cpu time:       0 days  0 hours  0 minutes 16.2 seconds.
 Elapsed time:       0 days  0 hours  0 minutes 15.9 seconds.
 File lengths (MBytes):  RWF=      6 Int=      0 D2E=      0 Chk=      2 Scr=      1
 Normal termination of Gaussian 16 at Mon Aug 10 15:52:04 2026.
 Link1:  Proceeding to internal job step number  2.
 -------------------------------------------------------------------
 #N Geom=AllCheck Guess=TCheck SCRF=Check GenChk RMP2(FC)/6-31G Freq
 -------------------------------------------------------------------
 1/10=4,29=7,30=1,38=1,40=1/1,3;
 2/12=2,40=1/2;
 3/5=1,6=6,11=1,14=-4,25=1,30=1,70=2,71=2,116=1,140=1/1,2,3;
 4/5=101/1;
 5/5=2,38=6,98=1/2;
 8/6=3,8=1,10=2,19=11,30=-1/1;
 9/15=3,16=-3/6;
 11/6=1,8=1,15=11,17=12,24=-1,27=1,28=-2,29=300,32=6,42=3/1,2,10;
 10/6=2,21=1/2;
 8/6=4,8=1,10=2,19=11,30=-1/11,4;
 10/5=1,20=4/2;
 11/12=2,14=11,16=1,17=2,28=-2,42=3,76=2/2,10,12;
 6/7=2,8=2,9=2,10=2/1;
 7/8=11,10=1,12=2,25=1,44=2/1,2,3,16;
 1/10=4,30=1/3;
 99//99;
 Structure from the checkpoint file:  "BBr3_MP2_6-31G.chk"
 -------------------
 Title Card Required
 -------------------
 Charge =  0 Multiplicity = 1
 Redundant internal coordinates found in file.  (old form).
 B,0,0.,0.,0.
 Br,0,-0.0000000021,1.9108413619,0.
 Br,0,-1.654837161,-0.9554206828,0.
 Br,0,1.6548371631,-0.9554206792,0.
 Recover connectivity data from disk.

 GradGradGradGradGradGradGradGradGradGradGradGradGradGradGradGradGradGrad
 Berny optimization.
 Initialization pass.
                           ----------------------------
                           !    Initial Parameters    !
                           ! (Angstroms and Degrees)  !
 --------------------------                            --------------------------
 ! Name  Definition              Value          Derivative Info.                !
 --------------------------------------------------------------------------------
 ! R1    R(1,2)                  1.9108         calculate D2E/DX2 analytically  !
 ! R2    R(1,3)                  1.9108         calculate D2E/DX2 analytically  !
 ! R3    R(1,4)                  1.9108         calculate D2E/DX2 analytically  !
 ! A1    A(2,1,3)              120.0            calculate D2E/DX2 analytically  !
 ! A2    A(2,1,4)              120.0            calculate D2E/DX2 analytically  !
 ! A3    A(3,1,4)              120.0            calculate D2E/DX2 analytically  !
 ! D1    D(2,1,4,3)            180.0            calculate D2E/DX2 analytically  !
 --------------------------------------------------------------------------------
 Trust Radius=3.00D-01 FncErr=1.00D-07 GrdErr=1.00D-07 EigMax=2.50D+02 EigMin=1.00D-04
 Number of steps in this run=      2 maximum allowed number of steps=      2.
 GradGradGradGradGradGradGradGradGradGradGradGradGradGradGradGradGradGrad

                          Input orientation:                          
 ---------------------------------------------------------------------
 Center     Atomic      Atomic             Coordinates (Angstroms)
 Number     Number       Type             X           Y           Z
 ---------------------------------------------------------------------
      1          5           0        0.000000   -0.000000    0.000000
      2         35           0       -0.000000    1.910841    0.000000
      3         35           0       -1.654837   -0.955421   -0.000000
      4         35           0        1.654837   -0.955421    0.000000
 ---------------------------------------------------------------------
                    Distance matrix (angstroms):
                    1          2          3          4
     1  B    0.000000
     2  Br   1.910841   0.000000
     3  Br   1.910841   3.309674   0.000000
     4  Br   1.910841   3.309674   3.309674   0.000000
 Stoichiometry    BBr3
 Framework group  D3H[O(B),3C2(Br)]
 Deg. of freedom     1
 Full point group                 D3H     NOp  12
 Largest Abelian subgroup         C2V     NOp   4
 Largest concise Abelian subgroup C2      NOp   2
                         Standard orientation:                         
 ---------------------------------------------------------------------
 Center     Atomic      Atomic             Coordinates (Angstroms)
 Number     Number       Type             X           Y           Z
 ---------------------------------------------------------------------
      1          5           0        0.000000    0.000000    0.000000
      2         35           0        0.000000    1.910841    0.000000
      3         35           0        1.654837   -0.955421   -0.000000
      4         35           0       -1.654837   -0.955421   -0.000000
 ---------------------------------------------------------------------
 Rotational constants (GHZ):           1.1692268           1.1692268           0.5846134
 Standard basis: 6-31G (6D, 7F)
 There are    36 symmetry adapted cartesian basis functions of A1  symmetry.
 There are     7 symmetry adapted cartesian basis functions of A2  symmetry.
 There are    25 symmetry adapted cartesian basis functions of B1  symmetry.
 There are    13 symmetry adapted cartesian basis functions of B2  symmetry.
 There are    36 symmetry adapted basis functions of A1  symmetry.
 There are     7 symmetry adapted basis functions of A2  symmetry.
 There are    25 symmetry adapted basis functions of B1  symmetry.
 There are    13 symmetry adapted basis functions of B2  symmetry.
    81 basis functions,   253 primitive gaussians,    81 cartesian basis functions
    55 alpha electrons       55 beta electrons
       nuclear repulsion energy       732.9788268399 Hartrees.
 NAtoms=    4 NActive=    4 NUniq=    2 SFac= 4.00D+00 NAtFMM=   60 NAOKFM=F Big=F
 Integral buffers will be    131072 words long.
 Raffenetti 1 integral format.
 Two-electron integral symmetry is turned on.
 One-electron integrals computed using PRISM.
 NBasis=    81 RedAO= T EigKep=  1.44D-03  NBF=    36     7    25    13
 NBsUse=    81 1.00D-06 EigRej= -1.00D+00 NBFU=    36     7    25    13
 Initial guess from the checkpoint file:  "BBr3_MP2_6-31G.chk"
 B after Tr=     0.000000   -0.000000    0.000000
         Rot=    1.000000    0.000000    0.000000    0.000000 Ang=   0.00 deg.
 Initial guess orbital symmetries:
       Occupied  (E') (E') (A1') (E') (E') (A1') (E') (E') (A1')
                 (E") (E") (A2") (A2') (E') (E') (E') (E') (A1')
                 (A1') (E') (E') (A1') (E") (E") (A2") (A2') (E')
                 (E') (A1') (E') (E') (A2") (E") (E") (E') (E')
                 (A2') (A1") (E") (E") (E') (E') (A1') (A1') (E')
                 (E') (A1') (E') (E') (A2") (E') (E') (E") (E")
                 (A2')
       Virtual   (A2") (A1') (E') (E') (A1') (A2") (E') (E') (E')
                 (E') (A1') (E") (E") (E') (E') (A2") (A2') (A1')
                 (E') (E') (A1') (E') (E') (A1') (E') (E')
 Keep R1 ints in memory in symmetry-blocked form, NReq=7008371.
 Requested convergence on RMS density matrix=1.00D-08 within 128 cycles.
 Requested convergence on MAX density matrix=1.00D-06.
 Requested convergence on             energy=1.00D-06.
 No special actions if energy rises.
 Skip diagonalization as Alpha Fock matrix is already diagonal.
 SCF Done:  E(RHF) =  -7734.06208193     A.U. after    1 cycles
            NFock=  1  Conv=0.16D-16     -V/T= 2.0028
 ExpMin= 1.27D-01 ExpMax= 5.74D+05 ExpMxC= 5.74D+03 IAcc=3 IRadAn=         5 AccDes= 0.00D+00
 HarFok:  IExCor=  205 AccDes= 0.00D+00 IRadAn=         5 IDoV=-2 UseB2=F ITyADJ=14
 ICtDFT= 12500011 ScaDFX=  1.000000  1.000000  1.000000  1.000000
 GSVD:  LWork=       -2193 too small for GESVD, short by        9890 words or        9890 for optimal perf.
 Range of M.O.s used for correlation:    44    81
 NBasis=    81 NAE=    55 NBE=    55 NFC=    43 NFV=     0
 NROrb=     38 NOA=    12 NOB=    12 NVA=    26 NVB=    26

 **** Warning!!: The largest alpha MO coefficient is  0.12977151D+02

 Disk-based method using ON**2 memory for 12 occupieds at a time.
 Permanent disk used for amplitudes=     2527525 words.
 Estimated scratch disk usage=     7087189 words.
 Actual    scratch disk usage=     7087189 words.
 JobTyp=1 Pass  1:  I=  44 to  55 NPSUse=  1 ParTrn=F ParDer=F DoDerP=T.
 (rs|ai) integrals will be sorted in core.
 Spin components of T(2) and E(2):
     alpha-alpha T2 =       0.1080806599D-01 E2=     -0.2083431248D-01
     alpha-beta  T2 =       0.6065687407D-01 E2=     -0.1214269874D+00
     beta-beta   T2 =       0.1080806599D-01 E2=     -0.2083431248D-01
 ANorm=    0.1040323510D+01
 E2 =    -0.1630956124D+00 EUMP2 =    -0.77342251775388D+04
 G2DrvN: will do     5 centers at a time, making    1 passes.
 Calling FoFCou, ICntrl=  3107 FMM=F I1Cent=   0 AccDes= 0.00D+00.
 End of G2Drv F.D. properties file   721 does not exist.
 End of G2Drv F.D. properties file   722 does not exist.
 End of G2Drv F.D. properties file   788 does not exist.
          IDoAtm=1111
          Differentiating once with respect to electric field.
                with respect to dipole field.
          Differentiating once with respect to nuclear coordinates.
 Keep R1 ints in memory in symmetry-blocked form, NReq=7009155.
          There are    15 degrees of freedom in the 1st order CPHF.  IDoFFX=6 NUNeed=    15.
     12 vectors produced by pass  0 Test12= 9.53D-15 6.67D-09 XBig12= 2.00D+01 2.61D+00.
 AX will form    12 AO Fock derivatives at one time.
     12 vectors produced by pass  1 Test12= 9.53D-15 6.67D-09 XBig12= 5.80D-01 1.85D-01.
     12 vectors produced by pass  2 Test12= 9.53D-15 6.67D-09 XBig12= 1.76D-02 4.64D-02.
     12 vectors produced by pass  3 Test12= 9.53D-15 6.67D-09 XBig12= 3.48D-04 5.03D-03.
     12 vectors produced by pass  4 Test12= 9.53D-15 6.67D-09 XBig12= 1.91D-06 3.99D-04.
     12 vectors produced by pass  5 Test12= 9.53D-15 6.67D-09 XBig12= 1.02D-08 2.23D-05.
     12 vectors produced by pass  6 Test12= 9.53D-15 6.67D-09 XBig12= 2.85D-11 1.47D-06.
      5 vectors produced by pass  7 Test12= 9.53D-15 6.67D-09 XBig12= 2.27D-13 1.51D-07.
      2 vectors produced by pass  8 Test12= 9.53D-15 6.67D-09 XBig12= 1.16D-15 7.56D-09.
 InvSVY:  IOpt=1 It=  1 EMax= 8.88D-16
 Solved reduced A of dimension    91 with    12 vectors.
 End of Minotr F.D. properties file   721 does not exist.
 End of Minotr F.D. properties file   722 does not exist.
 End of Minotr F.D. properties file   788 does not exist.
 MDV=   104857600.
 Form MO integral derivatives with frozen-active canonical formalism.
 Discarding MO integrals.
 Reordered first order wavefunction length =      4089800
 In DefCFB: NBatch=  1 ICI= 55 ICA= 26 LFMax= 28
            Large arrays: LIAPS=    37528920 LIARS=    19459440 words.
 Semi-Direct transformation.
 ModeAB=           4 MOrb=            55 LenV=     104549995
 LASXX=      6219180 LTotXX=     6219180 LenRXX=    13880350
 LTotAB=     7661170 MaxLAS=     7996725 LenRXY=           0
 NonZer=    20099530 LenScr=    30904320 LnRSAI=     7996725
 LnScr1=    12742656 LExtra=           0 Total=     65524051
 MaxDsk=          -1 SrtSym=           T ITran=            4
 JobTyp=0 Pass  1:  I=   1 to  55.
 (rs|ai) integrals will be sorted in core.
 Spin components of T(2) and E(2):
     alpha-alpha T2 =       0.1080806599D-01 E2=     -0.2083431248D-01
     alpha-beta  T2 =       0.6065687407D-01 E2=     -0.1214269874D+00
     beta-beta   T2 =       0.1080806599D-01 E2=     -0.2083431248D-01
 ANorm=    0.1471239617D+01
 E2 =    -0.1630956124D+00 EUMP2 =    -0.77342251775388D+04
          IDoAtm=1111
          Differentiating once with respect to electric field.
                with respect to dipole field.
          Differentiating once with respect to nuclear coordinates.
          There are     1 degrees of freedom in the 1st order CPHF.  IDoFFX=0 NUNeed=     1.
 LinEq1:  Iter=  0 NonCon=     1 RMS=5.12D-03 Max=1.61D-01 NDo=     1
 LinEq1:  Iter=  1 NonCon=     1 RMS=2.06D-03 Max=3.51D-02 NDo=     1
 LinEq1:  Iter=  2 NonCon=     1 RMS=2.81D-04 Max=4.07D-03 NDo=     1
 LinEq1:  Iter=  3 NonCon=     1 RMS=1.98D-05 Max=2.77D-04 NDo=     1
 LinEq1:  Iter=  4 NonCon=     1 RMS=2.83D-06 Max=4.52D-05 NDo=     1
 LinEq1:  Iter=  5 NonCon=     1 RMS=4.13D-07 Max=4.90D-06 NDo=     1
 LinEq1:  Iter=  6 NonCon=     1 RMS=3.70D-08 Max=3.89D-07 NDo=     1
 LinEq1:  Iter=  7 NonCon=     1 RMS=3.25D-09 Max=4.04D-08 NDo=     1
 LinEq1:  Iter=  8 NonCon=     1 RMS=2.68D-10 Max=3.06D-09 NDo=     1
 LinEq1:  Iter=  9 NonCon=     0 RMS=1.88D-11 Max=2.63D-10 NDo=     1
 Linear equations converged to 1.000D-10 1.000D-09 after     9 iterations.
 End of Minotr F.D. properties file   721 does not exist.
 End of Minotr F.D. properties file   722 does not exist.
 End of Minotr F.D. properties file   788 does not exist.
 Symmetrizing basis deriv contribution to polar:
 IMax=3 JMax=2 DiffMx= 0.00D+00
 G2DrvN: will do     5 centers at a time, making    1 passes.
 Calling FoFCou, ICntrl=  3107 FMM=F I1Cent=   0 AccDes= 0.00D+00.
 End of G2Drv F.D. properties file   721 does not exist.
 End of G2Drv F.D. properties file   722 does not exist.
 End of G2Drv F.D. properties file   788 does not exist.
 R2 and R3 integrals will be kept in memory, NReq=    11997987.
 DD1Dir will call FoFMem   1 times, MxPair=      3080
 NAB=  1540 NAA=     0 NBB=     0.
 Discarding MO integrals.

 **********************************************************************

            Population analysis using the SCF Density.

 **********************************************************************

 Orbital symmetries:
       Occupied  (E') (E') (A1') (E') (E') (A1') (E') (E') (A1')
                 (E") (E") (A2") (A2') (E') (E') (E') (E') (A1')
                 (A1') (E') (E') (A1') (E") (E") (A2") (A2') (E')
                 (E') (A1') (E') (E') (A2") (E") (E") (E') (E')
                 (A2') (A1") (E") (E") (E') (E') (A1') (A1') (E')
                 (E') (A1') (E') (E') (A2") (E') (E') (E") (E")
                 (A2')
       Virtual   (A2") (A1') (E') (E') (A1') (A2") (E') (E') (E')
                 (E') (A1') (E") (E") (E') (E') (A2") (A2') (A1')
                 (E') (E') (A1') (E') (E') (A1') (E') (E')
 The electronic state is 1-A1'.
 Alpha  occ. eigenvalues -- -489.98907-489.98907-489.98888 -64.42574 -64.42574
 Alpha  occ. eigenvalues --  -64.42317 -58.58581 -58.58581 -58.58563 -58.58428
 Alpha  occ. eigenvalues --  -58.58428 -58.58423 -58.58417 -58.58396 -58.58396
 Alpha  occ. eigenvalues --   -9.72258  -9.72258  -9.72087  -7.79413  -7.48490
 Alpha  occ. eigenvalues --   -7.48490  -7.48490  -7.47760  -7.47760  -7.47759
 Alpha  occ. eigenvalues --   -7.47622  -7.47621  -7.47621  -3.22548  -3.22544
 Alpha  occ. eigenvalues --   -3.22544  -3.22318  -3.22296  -3.22296  -3.22127
 Alpha  occ. eigenvalues --   -3.22127  -3.22102  -3.21352  -3.21350  -3.21350
 Alpha  occ. eigenvalues --   -3.21343  -3.21343  -3.21343  -1.10151  -1.03525
 Alpha  occ. eigenvalues --   -1.03525  -0.67249  -0.56615  -0.56615  -0.51466
 Alpha  occ. eigenvalues --   -0.44684  -0.44684  -0.44147  -0.44147  -0.42157
 Alpha virt. eigenvalues --    0.04369   0.13734   0.21649   0.21649   0.55474
 Alpha virt. eigenvalues --    0.57752   0.59055   0.59055   0.66016   0.66016
 Alpha virt. eigenvalues --    0.66093   0.69820   0.69820   0.70439   0.70439
 Alpha virt. eigenvalues --    0.71109   0.77115   0.87908   0.93936   0.93936
 Alpha virt. eigenvalues --    7.18271   7.38741   7.38741  40.96715  43.07074
 Alpha virt. eigenvalues --   43.07074
          Condensed to atoms (all electrons):
               1          2          3          4
     1  B    4.215875   0.274897   0.274897   0.274897
     2  Br   0.274897  34.889278  -0.088848  -0.088848
     3  Br   0.274897  -0.088848  34.889278  -0.088848
     4  Br   0.274897  -0.088848  -0.088848  34.889278
 Mulliken charges:
               1
     1  B   -0.040565
     2  Br   0.013522
     3  Br   0.013522
     4  Br   0.013522
 Sum of Mulliken charges =  -0.00000
 Mulliken charges with hydrogens summed into heavy atoms:
               1
     1  B   -0.040565
     2  Br   0.013522
     3  Br   0.013522
     4  Br   0.013522
 APT charges:
               1
     1  B    1.234354
     2  Br  -0.411451
     3  Br  -0.411451
     4  Br  -0.411451
 Sum of APT charges =  -0.00000
 APT charges with hydrogens summed into heavy atoms:
               1
     1  B    1.234354
     2  Br  -0.411451
     3  Br  -0.411451
     4  Br  -0.411451
 Electronic spatial extent (au):  <R**2>=           1508.0587
 Charge=             -0.0000 electrons
 Dipole moment (field-independent basis, Debye):
    X=              0.0000    Y=              0.0000    Z=              0.0000  Tot=              0.0000
 Quadrupole moment (field-independent basis, Debye-Ang):
   XX=            -63.1742   YY=            -63.1742   ZZ=            -60.5510
   XY=             -0.0000   XZ=              0.0000   YZ=              0.0000
 Traceless Quadrupole moment (field-independent basis, Debye-Ang):
   XX=             -0.8744   YY=             -0.8744   ZZ=              1.7487
   XY=             -0.0000   XZ=              0.0000   YZ=              0.0000
 Octapole moment (field-independent basis, Debye-Ang**2):
  XXX=              0.0000  YYY=              2.5660  ZZZ=              0.0000  XYY=              0.0000
  XXY=             -2.5660  XXZ=             -0.0000  XZZ=              0.0000  YZZ=             -0.0000
  YYZ=              0.0000  XYZ=             -0.0000
 Hexadecapole moment (field-independent basis, Debye-Ang**3):
 XXXX=           -652.2127 YYYY=           -652.2127 ZZZZ=            -70.4409 XXXY=              0.0000
 XXXZ=              0.0000 YYYX=              0.0000 YYYZ=              0.0000 ZZZX=              0.0000
 ZZZY=             -0.0000 XXYY=           -217.4042 XXZZ=           -124.6349 YYZZ=           -124.6349
 XXYZ=              0.0000 YYXZ=              0.0000 ZZXY=              0.0000
 N-N= 7.329788268399D+02 E-N=-1.994530205120D+04  KE= 7.712739333029D+03
 Symmetry A1   KE= 4.058885872109D+03
 Symmetry A2   KE= 4.210327793246D+02
 Symmetry B1   KE= 2.521192732135D+03
 Symmetry B2   KE= 7.116279494593D+02
  Exact polarizability:      64.664       0.000      64.664      -0.000       0.000      16.506
 Approx polarizability:      51.614      -0.000      51.614       0.000       0.000      13.398
 Calling FoFJK, ICntrl=  10100127 FMM=F ISym2X=1 I1Cent= 0 IOpClX= 0 NMat=1 NMatS=1 NMatT=0.
 Full mass-weighted force constant matrix:
 Low frequencies ---   -2.4661   -2.4650   -2.4650   -0.0122   -0.0094    0.0045
 Low frequencies ---  169.9557  169.9557  275.4635
 Diagonal vibrational polarizability:
       12.7717209      12.7717209       0.3477996
 Harmonic frequencies (cm**-1), IR intensities (KM/Mole), Raman scattering
 activities (A**4/AMU), depolarization ratios for plane and unpolarized
 incident light, reduced masses (AMU), force constants (mDyne/A),
 and normal coordinates:
                           1         2         3         4         5
                          E'        E'        A1'       A2"       E'
       Frequencies ---   169.9557  169.9557  275.4635  435.6414  795.9894
    Reduced masses ---    67.7016   67.7016   78.9183   11.4470   11.7289
   Force constants ---     1.1522    1.1522    3.5282    1.2800    4.3784
    IR Intensities ---     0.2100    0.2100    0.0000    2.4528  296.0910
 Coord Atom Element:
   1     1     5         -0.40530   0.03011   0.00000   0.00000   0.30151
   2     1     5          0.03011   0.40530   0.00000  -0.00000   0.94789
   3     1     5         -0.00000   0.00000   0.00000   0.99677   0.00000
   1     2    35          0.54458  -0.04046  -0.00000   0.00000  -0.00271
   2     2    35          0.03766   0.50688   0.57735   0.00000  -0.07964
   3     2    35          0.00000  -0.00000  -0.00000  -0.04635  -0.00000
   1     3    35         -0.27785  -0.43716   0.50000  -0.00000   0.01112
   2     3    35          0.43436  -0.31554  -0.28868   0.00000  -0.01650
   3     3    35          0.00000  -0.00000  -0.00000  -0.04635  -0.00000
   1     4    35         -0.21019   0.47343  -0.50000  -0.00000  -0.05047
   2     4    35         -0.47623  -0.24788  -0.28868  -0.00000  -0.03609
   3     4    35          0.00000  -0.00000  -0.00000  -0.04635  -0.00000
                           6
                          E'
       Frequencies ---   795.9894
    Reduced masses ---    11.7289
   Force constants ---     4.3784
    IR Intensities ---   296.0910
 Coord Atom Element:
   1     1     5          0.94789
   2     1     5         -0.30151
   3     1     5         -0.00000
   1     2    35         -0.00852
   2     2    35          0.02533
   3     2    35          0.00000
   1     3    35         -0.07165
   2     3    35          0.03916
   3     3    35          0.00000
   1     4    35         -0.05206
   2     4    35         -0.02243
   3     4    35          0.00000
 Harmonic frequencies (cm**-1), IR intensities (KM/Mole), Raman scattering
 activities (A**4/AMU), depolarization ratios for plane and unpolarized
 incident light, reduced masses (AMU), force constants (mDyne/A),
 and normal coordinates:
                      1                      2                      3
                     E'                     E'                     A1'
 Frequencies --    169.9557               169.9557               275.4635
 Red. masses --     67.7016                67.7016                78.9183
 Frc consts  --      1.1522                 1.1522                 3.5282
 IR Inten    --      0.2100                 0.2100                 0.0000
  Atom  AN      X      Y      Z        X      Y      Z        X      Y      Z
     1   5    -0.41   0.03  -0.00     0.03   0.41   0.00     0.00   0.00   0.00
     2  35     0.54   0.04   0.00    -0.04   0.51  -0.00    -0.00   0.58  -0.00
     3  35    -0.28   0.43   0.00    -0.44  -0.32  -0.00     0.50  -0.29  -0.00
     4  35    -0.21  -0.48   0.00     0.47  -0.25  -0.00    -0.50  -0.29  -0.00
                      4                      5                      6
                     A2"                    E'                     E'
 Frequencies --    435.6414               795.9894               795.9894
 Red. masses --     11.4470                11.7289                11.7289
 Frc consts  --      1.2800                 4.3784                 4.3784
 IR Inten    --      2.4528               296.0910               296.0910
  Atom  AN      X      Y      Z        X      Y      Z        X      Y      Z
     1   5     0.00  -0.00   1.00     0.30   0.95   0.00     0.95  -0.30  -0.00
     2  35     0.00   0.00  -0.05    -0.00  -0.08  -0.00    -0.01   0.03   0.00
     3  35    -0.00   0.00  -0.05     0.01  -0.02  -0.00    -0.07   0.04   0.00
     4  35    -0.00  -0.00  -0.05    -0.05  -0.04  -0.00    -0.05  -0.02   0.00

 -------------------
 - Thermochemistry -
 -------------------
 Temperature   298.150 Kelvin.  Pressure   1.00000 Atm.
 Atom     1 has atomic number  5 and mass  11.00931
 Atom     2 has atomic number 35 and mass  78.91834
 Atom     3 has atomic number 35 and mass  78.91834
 Atom     4 has atomic number 35 and mass  78.91834
 Molecular mass:   247.76431 amu.
 Principal axes and moments of inertia in atomic units:
                           1         2         3
     Eigenvalues --  1543.533931543.533933087.06786
           X           -0.52573   0.85065   0.00000
           Y            0.85065   0.52573   0.00000
           Z           -0.00000  -0.00000   1.00000
 This molecule is an oblate symmetric top.
 Rotational symmetry number  6.
 Warning -- assumption of classical behavior for rotation
           may cause significant error
 Rotational temperatures (Kelvin)      0.05611     0.05611     0.02806
 Rotational constants (GHZ):           1.16923     1.16923     0.58461
 Zero-point vibrational energy      15808.6 (Joules/Mol)
                                    3.77835 (Kcal/Mol)
 Warning -- explicit consideration of   4 degrees of freedom as
           vibrations may cause significant error
 Vibrational temperatures:    244.53   244.53   396.33   626.79  1145.25
          (Kelvin)           1145.25
 
 Zero-point correction=                           0.006021 (Hartree/Particle)
 Thermal correction to Energy=                    0.010960
 Thermal correction to Enthalpy=                  0.011904
 Thermal correction to Gibbs Free Energy=        -0.024650
 Sum of electronic and zero-point Energies=          -7734.219156
 Sum of electronic and thermal Energies=             -7734.214218
 Sum of electronic and thermal Enthalpies=           -7734.213274
 Sum of electronic and thermal Free Energies=        -7734.249827
 
                     E (Thermal)             CV                S
                      KCal/Mol        Cal/Mol-Kelvin    Cal/Mol-Kelvin
 Total                    6.877             14.147             76.933
 Electronic               0.000              0.000              0.000
 Translational            0.889              2.981             42.423
 Rotational               0.889              2.981             26.816
 Vibrational              5.100              8.185              7.695
 Vibration     1          0.625              1.879              2.436
 Vibration     2          0.625              1.879              2.436
 Vibration     3          0.677              1.719              1.562
 Vibration     4          0.796              1.393              0.840
                       Q            Log10(Q)             Ln(Q)
 Total Bot       0.217817D+12         11.338092         26.106923
 Total V=0       0.128128D+15         14.107643         32.484048
 Vib (Bot)       0.878207D-02         -2.056403         -4.735043
 Vib (Bot)    1  0.118577D+01          0.074001          0.170394
 Vib (Bot)    2  0.118577D+01          0.074001          0.170394
 Vib (Bot)    3  0.699616D+00         -0.155140         -0.357224
 Vib (Bot)    4  0.398192D+00         -0.399907         -0.920820
 Vib (V=0)       0.516592D+01          0.713147          1.642082
 Vib (V=0)    1  0.178688D+01          0.252095          0.580470
 Vib (V=0)    2  0.178688D+01          0.252095          0.580470
 Vib (V=0)    3  0.135992D+01          0.133513          0.307426
 Vib (V=0)    4  0.113918D+01          0.056594          0.130313
 Electronic      0.100000D+01          0.000000          0.000000
 Translational   0.153289D+09          8.185512         18.847838
 Rotational      0.161802D+06          5.208984         11.994128
 ***** Axes restored to original set *****
 -------------------------------------------------------------------
 Center     Atomic                   Forces (Hartrees/Bohr)
 Number     Number              X              Y              Z
 -------------------------------------------------------------------
      1        5          -0.000000000    0.000000000   -0.000000000
      2       35          -0.000000000    0.000065563   -0.000000000
      3       35          -0.000056779   -0.000032782    0.000000000
      4       35           0.000056779   -0.000032782   -0.000000000
 -------------------------------------------------------------------
 Cartesian Forces:  Max     0.000065563 RMS     0.000032782
 FormGI is forming the generalized inverse of G from B-inverse, IUseBI=4.

 GradGradGradGradGradGradGradGradGradGradGradGradGradGradGradGradGradGrad
 Berny optimization.
 Internal  Forces:  Max     0.000065563 RMS     0.000042921
 Search for a local minimum.
 Step number   1 out of a maximum of    2
 All quantities printed in internal units (Hartrees-Bohrs-Radians)
 Second derivative matrix not updated -- analytic derivatives used.
 The second derivative matrix:
                          R1        R2        R3        A1        A2
           R1           0.19044
           R2           0.01809   0.19044
           R3           0.01809   0.01809   0.19044
           A1           0.01918   0.01918  -0.03836   0.13481
           A2           0.01918  -0.03836   0.01918  -0.06740   0.13481
           A3          -0.03836   0.01918   0.01918  -0.06740  -0.06740
           D1           0.00000  -0.00000   0.00000  -0.00000   0.00000
                          A3        D1
           A3           0.13481
           D1          -0.00000   0.08216
 ITU=  0
     Eigenvalues ---    0.08216   0.12783   0.12783   0.22662   0.24673
     Eigenvalues ---    0.24673
 Angle between quadratic step and forces=   0.00 degrees.
 Linear search not attempted -- first point.
 Iteration  1 RMS(Cart)=  0.00018940 RMS(Int)=  0.00000000
 Iteration  2 RMS(Cart)=  0.00000000 RMS(Int)=  0.00000000
 ClnCor:  largest displacement from symmetrization is 1.93D-11 for atom     4.
 Variable       Old X    -DE/DX   Delta X   Delta X   Delta X     New X
                                 (Linear)    (Quad)   (Total)
    R1        3.61097   0.00007   0.00000   0.00029   0.00029   3.61126
    R2        3.61097   0.00007   0.00000   0.00029   0.00029   3.61126
    R3        3.61097   0.00007   0.00000   0.00029   0.00029   3.61126
    A1        2.09440  -0.00000   0.00000  -0.00000   0.00000   2.09440
    A2        2.09440  -0.00000   0.00000  -0.00000   0.00000   2.09440
    A3        2.09440   0.00000   0.00000   0.00000   0.00000   2.09440
    D1        3.14159   0.00000   0.00000   0.00000   0.00000   3.14159
         Item               Value     Threshold  Converged?
 Maximum Force            0.000066     0.000450     YES
 RMS     Force            0.000043     0.000300     YES
 Maximum Displacement     0.000289     0.001800     YES
 RMS     Displacement     0.000189     0.001200     YES
 Predicted change in Energy=-2.845201D-08
 Optimization completed.
    -- Stationary point found.
                           ----------------------------
                           !   Optimized Parameters   !
                           ! (Angstroms and Degrees)  !
 --------------------------                            --------------------------
 ! Name  Definition              Value          Derivative Info.                !
 --------------------------------------------------------------------------------
 ! R1    R(1,2)                  1.9108         -DE/DX =    0.0001              !
 ! R2    R(1,3)                  1.9108         -DE/DX =    0.0001              !
 ! R3    R(1,4)                  1.9108         -DE/DX =    0.0001              !
 ! A1    A(2,1,3)              120.0            -DE/DX =    0.0                 !
 ! A2    A(2,1,4)              120.0            -DE/DX =    0.0                 !
 ! A3    A(3,1,4)              120.0            -DE/DX =    0.0                 !
 ! D1    D(2,1,4,3)            180.0            -DE/DX =    0.0                 !
 --------------------------------------------------------------------------------
 GradGradGradGradGradGradGradGradGradGradGradGradGradGradGradGradGradGrad

 Dipole is zero, so no output in dipole orientation.

 ----------------------------------------------------------------------

 Electric dipole moment (input orientation):
 (Debye = 10**-18 statcoulomb cm , SI units = C m)
                  (au)            (Debye)         (10**-30 SI)
   Tot        0.000000D+00      0.000000D+00      0.000000D+00
   x          0.000000D+00      0.000000D+00      0.000000D+00
   y          0.000000D+00      0.000000D+00      0.000000D+00
   z          0.000000D+00      0.000000D+00      0.000000D+00

 Dipole polarizability, Alpha (input orientation).
 (esu units = cm**3 , SI units = C**2 m**2 J**-1)
 Alpha(0;0):
               (au)            (10**-24 esu)      (10**-40 SI)
   iso        0.486112D+02      0.720344D+01      0.801490D+01
   aniso      0.481578D+02      0.713625D+01      0.794015D+01
   xx         0.646638D+02      0.958219D+01      0.106616D+02
   yx         0.000000D+00      0.000000D+00      0.000000D+00
   yy         0.646638D+02      0.958219D+01      0.106616D+02
   zx         0.000000D+00      0.000000D+00      0.000000D+00
   zy         0.000000D+00      0.000000D+00      0.000000D+00
   zz         0.165060D+02      0.244593D+01      0.272147D+01

 ----------------------------------------------------------------------
 Unable to Open any file for archive entry.
 1\1\GINC-BS001\Freq\RMP2-FC\6-31G\B1Br3\PNATT\10-Aug-2026\0\\#N Geom=A
 llCheck Guess=TCheck SCRF=Check GenChk RMP2(FC)/6-31G Freq\\Title Card
  Required\\0,1\B,0.,0.,0.\Br,-0.0000000021,1.9108413619,0.\Br,-1.65483
 7161,-0.9554206828,0.\Br,1.6548371631,-0.9554206792,0.\\Version=ES64L-
 G16RevC.01\State=1-A1'\HF=-7734.0620819\MP2=-7734.2251775\RMSD=1.577e-
 17\RMSF=3.278e-05\ZeroPoint=0.0060212\Thermal=0.0109596\ETot=-7734.214
 218\HTot=-7734.2132738\GTot=-7734.2498273\Dipole=0.,0.,0.\DipoleDeriv=
 1.7701851,0.,0.,0.,1.7701851,0.,0.,0.,0.1626903,-0.1903825,0.,0.,0.,-0
 .9897409,0.,0.,0.,-0.0542301,-0.7899013,-0.3461324,0.,-0.3461324,-0.39
 02221,0.,0.,0.,-0.0542301,-0.7899013,0.3461324,0.,0.3461324,-0.3902221
 ,0.,0.,0.,-0.0542301\Polar=64.6637979,0.,64.6637979,0.,0.,16.5059867\P
 G=D03H [O(B1),3C2(Br1)]\NImag=0\\0.24548011,0.,0.24548011,0.,0.,0.0755
 5618,-0.01890393,0.,0.,0.03099779,0.,-0.14474948,0.,0.,0.19044074,0.,0
 .,-0.02518539,0.,0.,0.00838303,-0.11328809,-0.05449272,0.,-0.00604693,
 -0.00769794,0.,0.15058000,-0.05449272,-0.05036532,0.,-0.02139826,-0.02
 284563,0.,0.06904082,0.07085853,0.,0.,-0.02518539,0.,0.,0.00840118,0.,
 0.,0.00838303,-0.11328809,0.05449272,0.,-0.00604693,0.00769794,0.,-0.0
 3124498,0.00685016,0.,0.15058000,0.05449272,-0.05036532,0.,0.02139826,
 -0.02284563,0.,-0.00685016,0.00235242,0.,-0.06904082,0.07085853,0.,0.,
 -0.02518539,0.,0.,0.00840118,0.,0.,0.00840118,0.,0.,0.00838303\\0.,0.,
 0.,0.,-0.00006556,0.,0.00005678,0.00003278,0.,-0.00005678,0.00003278,0
 .\\\@
 The archive entry for this job was punched.


 ACHIEVEMENT--  THE MAN WHO ROWS THE BOAT GENERALLY 
                DOESN'T HAVE TIME TO ROCK IT.

                   -- FROM THE BACK OF A SUGAR PACKET
 Job cpu time:       0 days  0 hours  0 minutes 57.8 seconds.
 Elapsed time:       0 days  0 hours  0 minutes 57.6 seconds.
 File lengths (MBytes):  RWF=    534 Int=      0 D2E=      0 Chk=      2 Scr=      1
 Normal termination of Gaussian 16 at Mon Aug 10 15:53:02 2026.
