 Entering Gaussian System, Link 0=g09
 Input=BF3.com
 Output=BF3.log
 Initial command:
 /usr/local/g09/l1.exe /scratch/james/Gau-32682.inp -scrdir=/scratch/james/
 Entering Link 1 = /usr/local/g09/l1.exe PID=     32686.
  
 Copyright (c) 1988,1990,1992,1993,1995,1998,2003,2009,2011,
            Gaussian, Inc.  All Rights Reserved.
  
 This is part of the Gaussian(R) 09 program.  It is based on
 the Gaussian(R) 03 system (copyright 2003, Gaussian, Inc.),
 the Gaussian(R) 98 system (copyright 1998, Gaussian, Inc.),
 the Gaussian(R) 94 system (copyright 1995, Gaussian, Inc.),
 the Gaussian 92(TM) system (copyright 1992, Gaussian, Inc.),
 the Gaussian 90(TM) system (copyright 1990, Gaussian, Inc.),
 the Gaussian 88(TM) system (copyright 1988, Gaussian, Inc.),
 the Gaussian 86(TM) system (copyright 1986, Carnegie Mellon
 University), and the Gaussian 82(TM) system (copyright 1983,
 Carnegie Mellon University). Gaussian is a federally registered
 trademark of Gaussian, Inc.
  
 This software contains proprietary and confidential information,
 including trade secrets, belonging to Gaussian, Inc.
  
 This software is provided under written license and may be
 used, copied, transmitted, or stored only in accord with that
 written license.
  
 The following legend is applicable only to US Government
 contracts under FAR:
  
                    RESTRICTED RIGHTS LEGEND
  
 Use, reproduction and disclosure by the US Government is
 subject to restrictions as set forth in subparagraphs (a)
 and (c) of the Commercial Computer Software - Restricted
 Rights clause in FAR 52.227-19.
  
 Gaussian, Inc.
 340 Quinnipiac St., Bldg. 40, Wallingford CT 06492
  
  
 ---------------------------------------------------------------
 Warning -- This program may not be used in any manner that
 competes with the business of Gaussian, Inc. or will provide
 assistance to any competitor of Gaussian, Inc.  The licensee
 of this program is prohibited from giving any competitor of
 Gaussian, Inc. access to this program.  By using this program,
 the user acknowledges that Gaussian, Inc. is engaged in the
 business of creating and licensing software in the field of
 computational chemistry and represents and warrants to the
 licensee that it is not a competitor of Gaussian, Inc. and that
 it will not use this program in any manner prohibited above.
 ---------------------------------------------------------------
  

 Cite this work as:
 Gaussian 09, Revision C.01,
 M. J. Frisch, G. W. Trucks, H. B. Schlegel, G. E. Scuseria, 
 M. A. Robb, J. R. Cheeseman, G. Scalmani, V. Barone, B. Mennucci, 
 G. A. Petersson, H. Nakatsuji, M. Caricato, X. Li, H. P. Hratchian, 
 A. F. Izmaylov, J. Bloino, G. Zheng, J. L. Sonnenberg, M. Hada, 
 M. Ehara, K. Toyota, R. Fukuda, J. Hasegawa, M. Ishida, T. Nakajima, 
 Y. Honda, O. Kitao, H. Nakai, T. Vreven, J. A. Montgomery, Jr., 
 J. E. Peralta, F. Ogliaro, M. Bearpark, J. J. Heyd, E. Brothers, 
 K. N. Kudin, V. N. Staroverov, T. Keith, R. Kobayashi, J. Normand, 
 K. Raghavachari, A. Rendell, J. C. Burant, S. S. Iyengar, J. Tomasi, 
 M. Cossi, N. Rega, J. M. Millam, M. Klene, J. E. Knox, J. B. Cross, 
 V. Bakken, C. Adamo, J. Jaramillo, R. Gomperts, R. E. Stratmann, 
 O. Yazyev, A. J. Austin, R. Cammi, C. Pomelli, J. W. Ochterski, 
 R. L. Martin, K. Morokuma, V. G. Zakrzewski, G. A. Voth, 
 P. Salvador, J. J. Dannenberg, S. Dapprich, A. D. Daniels, 
 O. Farkas, J. B. Foresman, J. V. Ortiz, J. Cioslowski, 
 and D. J. Fox, Gaussian, Inc., Wallingford CT, 2010.
 
 ******************************************
 Gaussian 09:  AM64L-G09RevC.01 23-Sep-2011
                18-Sep-2023 
 ******************************************
 %chk=BF3.chk
 ----------------------------------------------
 # opt freq=hpmodes mp2/3-21g geom=connectivity
 ----------------------------------------------
 1/18=20,19=15,38=1,57=2/1,3;
 2/9=110,12=2,17=6,18=5,40=1/2;
 3/5=5,11=9,16=1,25=1,30=1,71=1/1,2,3;
 4//1;
 5/5=2,38=5/2;
 8/6=4,10=1/1;
 9/15=2,16=-3/6;
 10/5=1/2;
 6/7=2,8=2,9=2,10=2/1;
 7/12=2/1,2,3,16;
 1/18=20,19=15/3(2);
 2/9=110/2;
 99//99;
 2/9=110/2;
 3/5=5,11=9,16=1,25=1,30=1,71=1/1,2,3;
 4/5=5,16=3/1;
 5/5=2,38=5/2;
 8/6=4,10=1/1;
 9/15=2,16=-3/6;
 10/5=1/2;
 7/12=2/1,2,3,16;
 1/18=20,19=15/3(-8);
 2/9=110/2;
 6/7=2,8=2,9=2,10=2/1;
 99//99;
 -------------------
 Title Card Required
 -------------------
 Charge =  0 Multiplicity = 1
 Symbolic Z-Matrix:
 B                     0.        0.        0. 
 F                     0.        1.46      0. 
 F                    -1.2644   -0.73      0. 
 F                     1.2644   -0.73      0. 
 

 GradGradGradGradGradGradGradGradGradGradGradGradGradGradGradGradGradGrad
 Berny optimization.
 Initialization pass.
                           ----------------------------
                           !    Initial Parameters    !
                           ! (Angstroms and Degrees)  !
 --------------------------                            --------------------------
 ! Name  Definition              Value          Derivative Info.                !
 --------------------------------------------------------------------------------
 ! R1    R(1,2)                  1.46           estimate D2E/DX2                !
 ! R2    R(1,3)                  1.46           estimate D2E/DX2                !
 ! R3    R(1,4)                  1.46           estimate D2E/DX2                !
 ! A1    A(2,1,3)              120.0            estimate D2E/DX2                !
 ! A2    A(2,1,4)              120.0            estimate D2E/DX2                !
 ! A3    A(3,1,4)              120.0            estimate D2E/DX2                !
 ! D1    D(2,1,4,3)            180.0            estimate D2E/DX2                !
 --------------------------------------------------------------------------------
 Trust Radius=3.00D-01 FncErr=1.00D-07 GrdErr=1.00D-07
 Number of steps in this run=     20 maximum allowed number of steps=    100.
 GradGradGradGradGradGradGradGradGradGradGradGradGradGradGradGradGradGrad

                          Input orientation:                          
 ---------------------------------------------------------------------
 Center     Atomic      Atomic             Coordinates (Angstroms)
 Number     Number       Type             X           Y           Z
 ---------------------------------------------------------------------
      1          5           0        0.000000    0.000000    0.000000
      2          9           0        0.000000    1.460000    0.000000
      3          9           0       -1.264397   -0.730000    0.000000
      4          9           0        1.264397   -0.730000    0.000000
 ---------------------------------------------------------------------
                    Distance matrix (angstroms):
                    1          2          3          4
     1  B    0.000000
     2  F    1.460000   0.000000
     3  F    1.460000   2.528794   0.000000
     4  F    1.460000   2.528794   2.528794   0.000000
 Stoichiometry    BF3
 Framework group  D3H[O(B),3C2(F)]
 Deg. of freedom     1
 Full point group                 D3H     NOp  12
 Largest Abelian subgroup         C2V     NOp   4
 Largest concise Abelian subgroup C2      NOp   2
                         Standard orientation:                         
 ---------------------------------------------------------------------
 Center     Atomic      Atomic             Coordinates (Angstroms)
 Number     Number       Type             X           Y           Z
 ---------------------------------------------------------------------
      1          5           0        0.000000    0.000000    0.000000
      2          9           0        0.000000    1.460000    0.000000
      3          9           0        1.264397   -0.730000   -0.000000
      4          9           0       -1.264397   -0.730000   -0.000000
 ---------------------------------------------------------------------
 Rotational constants (GHZ):      8.3196130      8.3196130      4.1598065
 Standard basis: 3-21G (6D, 7F)
 There are    17 symmetry adapted basis functions of A1  symmetry.
 There are     2 symmetry adapted basis functions of A2  symmetry.
 There are    11 symmetry adapted basis functions of B1  symmetry.
 There are     6 symmetry adapted basis functions of B2  symmetry.
 Integral buffers will be    131072 words long.
 Raffenetti 1 integral format.
 Two-electron integral symmetry is turned on.
    36 basis functions,    60 primitive gaussians,    36 cartesian basis functions
    16 alpha electrons       16 beta electrons
       nuclear repulsion energy        99.7811163630 Hartrees.
 NAtoms=    4 NActive=    4 NUniq=    2 SFac= 4.00D+00 NAtFMM=   60 NAOKFM=F Big=F
 One-electron integrals computed using PRISM.
 NBasis=    36 RedAO= T  NBF=    17     2    11     6
 NBsUse=    36 1.00D-06 NBFU=    17     2    11     6
 Harris functional with IExCor=  205 diagonalized for initial guess.
 ExpMin= 1.24D-01 ExpMax= 4.14D+02 ExpMxC= 4.14D+02 IAcc=1 IRadAn=         1 AccDes= 0.00D+00
 HarFok:  IExCor=  205 AccDes= 0.00D+00 IRadAn=         1 IDoV= 1
 ScaDFX=  1.000000  1.000000  1.000000  1.000000
 FoFCou: FMM=F IPFlag=           0 FMFlag=      100000 FMFlg1=           0
         NFxFlg=           0 DoJE=T BraDBF=F KetDBF=T FulRan=T
         Omega=  0.000000  0.000000  1.000000  0.000000  0.000000 ICntrl=     500 IOpCl=  0
         NMat0=    1 NMatS0=    1 NMatT0=    0 NMatD0=    1 NMtDS0=    0 NMtDT0=    0
         I1Cent=           4 NGrid=           0.
 Petite list used in FoFCou.
 Initial guess orbital symmetries:
       Occupied  (A1') (E') (E') (A1') (A1') (E') (E') (A1') (E')
                 (E') (A2") (E') (E') (E") (E") (A2')
       Virtual   (A2") (A1') (E') (E') (A2") (E') (E') (A1') (E")
                 (E") (A2') (E') (E') (E') (E') (A2") (A1') (E')
                 (E') (A1')
 The electronic state of the initial guess is 1-A1'.
 Requested convergence on RMS density matrix=1.00D-08 within 128 cycles.
 Requested convergence on MAX density matrix=1.00D-06.
 Requested convergence on             energy=1.00D-06.
 No special actions if energy rises.
 Keep R1 ints in memory in canonical form, NReq=1044815.
 SCF Done:  E(RHF) =  -321.418697733     A.U. after   10 cycles
             Convg  =    0.1676D-08             -V/T =  2.0069
 ExpMin= 1.24D-01 ExpMax= 4.14D+02 ExpMxC= 4.14D+02 IAcc=3 IRadAn=         5 AccDes= 0.00D+00
 HarFok:  IExCor=  205 AccDes= 0.00D+00 IRadAn=         5 IDoV=-2
 ScaDFX=  1.000000  1.000000  1.000000  1.000000
 Range of M.O.s used for correlation:     5    36
 NBasis=    36 NAE=    16 NBE=    16 NFC=     4 NFV=     0
 NROrb=     32 NOA=    12 NOB=    12 NVA=    20 NVB=    20
 Fully direct method using O(ONN) memory.
 JobTyp=1 Pass  1:  I=   5 to  16 NPSUse=  1 ParTrn=F ParDer=F DoDerP=T.
 Spin components of T(2) and E(2):
     alpha-alpha T2 =       0.1347994189D-01 E2=     -0.5668449994D-01
     alpha-beta  T2 =       0.7145199645D-01 E2=     -0.3071335015D+00
     beta-beta   T2 =       0.1347994189D-01 E2=     -0.5668449994D-01
 ANorm=    0.1048051468D+01
 E2 =    -0.4205025013D+00 EUMP2 =    -0.32183920023435D+03
          IDoAtm=1111
          Differentiating once with respect to electric field.
                with respect to dipole field.
          Differentiating once with respect to nuclear coordinates.
          Keep R1 ints in memory in canonical form, NReq=1022944.
          There are     1 degrees of freedom in the 1st order CPHF.  IDoFFX=0.
 LinEq1:  Iter=  0 NonCon=     1 RMS=1.41D-02 Max=1.94D-01
 AX will form     1 AO Fock derivatives at one time.
 LinEq1:  Iter=  1 NonCon=     1 RMS=3.23D-03 Max=2.19D-02
 LinEq1:  Iter=  2 NonCon=     1 RMS=1.02D-03 Max=6.39D-03
 LinEq1:  Iter=  3 NonCon=     1 RMS=2.37D-04 Max=2.06D-03
 LinEq1:  Iter=  4 NonCon=     1 RMS=1.60D-05 Max=1.12D-04
 LinEq1:  Iter=  5 NonCon=     1 RMS=1.07D-06 Max=6.43D-06
 LinEq1:  Iter=  6 NonCon=     1 RMS=1.29D-07 Max=9.22D-07
 LinEq1:  Iter=  7 NonCon=     1 RMS=9.29D-09 Max=6.52D-08
 LinEq1:  Iter=  8 NonCon=     1 RMS=4.48D-10 Max=2.28D-09
 LinEq1:  Iter=  9 NonCon=     0 RMS=2.41D-11 Max=1.33D-10
 Linear equations converged to 1.000D-10 1.000D-09 after     9 iterations.
 End of Minotr Frequency-dependent properties file   721 does not exist.
 End of Minotr Frequency-dependent properties file   722 does not exist.

 **********************************************************************

            Population analysis using the SCF density.

 **********************************************************************

 Orbital symmetries:
       Occupied  (A1') (E') (E') (A1') (A1') (E') (E') (A1') (E')
                 (E') (A2") (E') (E') (E") (E") (A2')
       Virtual   (A2") (A1') (E') (E') (A2") (E') (E') (A1') (E")
                 (E") (A2') (E') (E') (A2") (E') (E') (A1') (E')
                 (E') (A1')
 The electronic state is 1-A1'.
 Alpha  occ. eigenvalues --  -26.20953 -26.20945 -26.20945  -7.82764  -1.62215
 Alpha  occ. eigenvalues --   -1.59326  -1.59326  -0.80159  -0.74049  -0.74049
 Alpha  occ. eigenvalues --   -0.71013  -0.65322  -0.65322  -0.65126  -0.65126
 Alpha  occ. eigenvalues --   -0.64217
 Alpha virt. eigenvalues --    0.11486   0.19296   0.36396   0.36396   0.55427
 Alpha virt. eigenvalues --    0.65745   0.65745   0.77483   2.17138   2.17138
 Alpha virt. eigenvalues --    2.24150   2.28978   2.28978   2.38586   2.41111
 Alpha virt. eigenvalues --    2.41111   2.42351   3.86431   3.86431   3.88151
          Condensed to atoms (all electrons):
              1          2          3          4
     1  B    2.976372   0.277194   0.277194   0.277194
     2  F    0.277194   9.131327  -0.005586  -0.005586
     3  F    0.277194  -0.005586   9.131327  -0.005586
     4  F    0.277194  -0.005586  -0.005586   9.131327
 Mulliken atomic charges:
              1
     1  B    1.192047
     2  F   -0.397349
     3  F   -0.397349
     4  F   -0.397349
 Sum of Mulliken atomic charges =  -0.00000
 Mulliken charges with hydrogens summed into heavy atoms:
              1
     1  B    1.192047
     2  F   -0.397349
     3  F   -0.397349
     4  F   -0.397349
 Sum of Mulliken charges with hydrogens summed into heavy atoms =  -0.00000
 Electronic spatial extent (au):  <R**2>=            253.5001
 Charge=             -0.0000 electrons
 Dipole moment (field-independent basis, Debye):
    X=              0.0000    Y=              0.0000    Z=              0.0000  Tot=              0.0000
 Quadrupole moment (field-independent basis, Debye-Ang):
   XX=            -23.6994   YY=            -23.6994   ZZ=            -17.1278
   XY=              0.0000   XZ=             -0.0000   YZ=             -0.0000
 Traceless Quadrupole moment (field-independent basis, Debye-Ang):
   XX=             -2.1905   YY=             -2.1905   ZZ=              4.3811
   XY=              0.0000   XZ=             -0.0000   YZ=             -0.0000
 Octapole moment (field-independent basis, Debye-Ang**2):
  XXX=              0.0000  YYY=             -3.9423  ZZZ=              0.0000  XYY=              0.0000
  XXY=              3.9423  XXZ=             -0.0000  XZZ=              0.0000  YZZ=              0.0000
  YYZ=              0.0000  XYZ=             -0.0000
 Hexadecapole moment (field-independent basis, Debye-Ang**3):
 XXXX=           -109.1857 YYYY=           -109.1857 ZZZZ=             -9.9921 XXXY=              0.0000
 XXXZ=             -0.0000 YYYX=              0.0000 YYYZ=             -0.0000 ZZZX=             -0.0000
 ZZZY=             -0.0000 XXYY=            -36.3952 XXZZ=            -18.6538 YYZZ=            -18.6538
 XXYZ=             -0.0000 YYXZ=             -0.0000 ZZXY=              0.0000
 N-N= 9.978111636299D+01 E-N=-9.666144466940D+02  KE= 3.192319127531D+02
 Symmetry A1   KE= 2.014153696533D+02
 Symmetry A2   KE= 6.348021799756D+00
 Symmetry B1   KE= 9.978398807256D+01
 Symmetry B2   KE= 1.168453322746D+01
 Calling FoFJK, ICntrl=      2127 FMM=F ISym2X=1 I1Cent= 0 IOpClX= 0 NMat=1 NMatS=1 NMatT=0.
 ***** Axes restored to original set *****
 -------------------------------------------------------------------
 Center     Atomic                   Forces (Hartrees/Bohr)
 Number     Number              X              Y              Z
 -------------------------------------------------------------------
      1        5           0.000000000   -0.000000000    0.000000000
      2        9           0.000000000   -0.093287648    0.000000000
      3        9           0.080789473    0.046643824   -0.000000000
      4        9          -0.080789473    0.046643824    0.000000000
 -------------------------------------------------------------------
 Cartesian Forces:  Max     0.093287648 RMS     0.046643824

 GradGradGradGradGradGradGradGradGradGradGradGradGradGradGradGradGradGrad
 Berny optimization.
 Internal  Forces:  Max     0.093287648 RMS     0.061071101
 Search for a local minimum.
 Step number   1 out of a maximum of   20
 All quantities printed in internal units (Hartrees-Bohrs-Radians)
 Mixed Optimization -- RFO/linear search
 Second derivative matrix not updated -- first step.
 The second derivative matrix:
                          R1        R2        R3        A1        A2
           R1           0.36964
           R2           0.00000   0.36964
           R3           0.00000   0.00000   0.36964
           A1           0.00000   0.00000   0.00000   0.25000
           A2           0.00000   0.00000   0.00000   0.00000   0.25000
           A3           0.00000   0.00000   0.00000   0.00000   0.00000
           D1           0.00000   0.00000   0.00000   0.00000   0.00000
                          A3        D1
           A3           0.25000
           D1           0.00000   0.01163
 ITU=  0
     Eigenvalues ---    0.01163   0.25000   0.25000   0.36964   0.36964
     Eigenvalues ---    0.36964
 RFO step:  Lambda=-6.06713445D-02 EMin= 1.16274561D-02
 Linear search not attempted -- first point.
 Maximum step size (   0.300) exceeded in Quadratic search.
    -- Step size scaled by   0.799
 Iteration  1 RMS(Cart)=  0.11338934 RMS(Int)=  0.00000000
 Iteration  2 RMS(Cart)=  0.00000000 RMS(Int)=  0.00000000
 ClnCor:  largest displacement from symmetrization is 2.15D-13 for atom     4.
 Variable       Old X    -DE/DX   Delta X   Delta X   Delta X     New X
                                 (Linear)    (Quad)   (Total)
    R1        2.75900  -0.09329   0.00000  -0.17321  -0.17321   2.58580
    R2        2.75900  -0.09329   0.00000  -0.17321  -0.17321   2.58580
    R3        2.75900  -0.09329   0.00000  -0.17321  -0.17321   2.58580
    A1        2.09440  -0.00000   0.00000  -0.00000   0.00000   2.09440
    A2        2.09440  -0.00000   0.00000  -0.00000   0.00000   2.09440
    A3        2.09440   0.00000   0.00000   0.00000   0.00000   2.09440
    D1        3.14159   0.00000   0.00000   0.00000   0.00000   3.14159
         Item               Value     Threshold  Converged?
 Maximum Force            0.093288     0.000450     NO 
 RMS     Force            0.061071     0.000300     NO 
 Maximum Displacement     0.173205     0.001800     NO 
 RMS     Displacement     0.113389     0.001200     NO 
 Predicted change in Energy=-3.183974D-02
 GradGradGradGradGradGradGradGradGradGradGradGradGradGradGradGradGradGrad

                          Input orientation:                          
 ---------------------------------------------------------------------
 Center     Atomic      Atomic             Coordinates (Angstroms)
 Number     Number       Type             X           Y           Z
 ---------------------------------------------------------------------
      1          5           0       -0.000000   -0.000000   -0.000000
      2          9           0       -0.000000    1.368344    0.000000
      3          9           0       -1.185021   -0.684172   -0.000000
      4          9           0        1.185021   -0.684172    0.000000
 ---------------------------------------------------------------------
                    Distance matrix (angstroms):
                    1          2          3          4
     1  B    0.000000
     2  F    1.368344   0.000000
     3  F    1.368344   2.370041   0.000000
     4  F    1.368344   2.370041   2.370041   0.000000
 Stoichiometry    BF3
 Framework group  D3H[O(B),3C2(F)]
 Deg. of freedom     1
 Full point group                 D3H     NOp  12
 Largest Abelian subgroup         C2V     NOp   4
 Largest concise Abelian subgroup C2      NOp   2
                         Standard orientation:                         
 ---------------------------------------------------------------------
 Center     Atomic      Atomic             Coordinates (Angstroms)
 Number     Number       Type             X           Y           Z
 ---------------------------------------------------------------------
      1          5           0        0.000000    0.000000    0.000000
      2          9           0        0.000000    1.368344    0.000000
      3          9           0        1.185021   -0.684172    0.000000
      4          9           0       -1.185021   -0.684172    0.000000
 ---------------------------------------------------------------------
 Rotational constants (GHZ):      9.4714913      9.4714913      4.7357457
 Standard basis: 3-21G (6D, 7F)
 There are    17 symmetry adapted basis functions of A1  symmetry.
 There are     2 symmetry adapted basis functions of A2  symmetry.
 There are    11 symmetry adapted basis functions of B1  symmetry.
 There are     6 symmetry adapted basis functions of B2  symmetry.
 Integral buffers will be    131072 words long.
 Raffenetti 1 integral format.
 Two-electron integral symmetry is turned on.
    36 basis functions,    60 primitive gaussians,    36 cartesian basis functions
    16 alpha electrons       16 beta electrons
       nuclear repulsion energy       106.4647845687 Hartrees.
 NAtoms=    4 NActive=    4 NUniq=    2 SFac= 4.00D+00 NAtFMM=   60 NAOKFM=F Big=F
 One-electron integrals computed using PRISM.
 NBasis=    36 RedAO= T  NBF=    17     2    11     6
 NBsUse=    36 1.00D-06 NBFU=    17     2    11     6
 Initial guess read from the read-write file.
 B after Tr=     0.000000    0.000000    0.000000
         Rot=    1.000000    0.000000    0.000000    0.000000 Ang=   0.00 deg.
 Initial guess orbital symmetries:
       Occupied  (A1') (E') (E') (A1') (A1') (E') (E') (A1') (E')
                 (E') (A2") (E') (E') (E") (E") (A2')
       Virtual   (A2") (A1') (E') (E') (A2") (E') (E') (A1') (E")
                 (E") (A2') (E') (E') (A2") (E') (E') (A1') (E')
                 (E') (A1')
 Harris functional with IExCor=  205 diagonalized for initial guess.
 ExpMin= 1.24D-01 ExpMax= 4.14D+02 ExpMxC= 4.14D+02 IAcc=1 IRadAn=         1 AccDes= 0.00D+00
 HarFok:  IExCor=  205 AccDes= 0.00D+00 IRadAn=         1 IDoV= 1
 ScaDFX=  1.000000  1.000000  1.000000  1.000000
 FoFCou: FMM=F IPFlag=           0 FMFlag=      100000 FMFlg1=           0
         NFxFlg=           0 DoJE=T BraDBF=F KetDBF=T FulRan=T
         Omega=  0.000000  0.000000  1.000000  0.000000  0.000000 ICntrl=     500 IOpCl=  0
         NMat0=    1 NMatS0=    1 NMatT0=    0 NMatD0=    1 NMtDS0=    0 NMtDT0=    0
         I1Cent=           4 NGrid=           0.
 Petite list used in FoFCou.
 Requested convergence on RMS density matrix=1.00D-08 within 128 cycles.
 Requested convergence on MAX density matrix=1.00D-06.
 Requested convergence on             energy=1.00D-06.
 No special actions if energy rises.
 Keep R1 ints in memory in canonical form, NReq=1044815.
 SCF Done:  E(RHF) =  -321.460715672     A.U. after   10 cycles
             Convg  =    0.2265D-08             -V/T =  2.0054
 ExpMin= 1.24D-01 ExpMax= 4.14D+02 ExpMxC= 4.14D+02 IAcc=3 IRadAn=         5 AccDes= 0.00D+00
 HarFok:  IExCor=  205 AccDes= 0.00D+00 IRadAn=         5 IDoV=-2
 ScaDFX=  1.000000  1.000000  1.000000  1.000000
 Range of M.O.s used for correlation:     5    36
 NBasis=    36 NAE=    16 NBE=    16 NFC=     4 NFV=     0
 NROrb=     32 NOA=    12 NOB=    12 NVA=    20 NVB=    20
 Fully direct method using O(ONN) memory.
 JobTyp=1 Pass  1:  I=   5 to  16 NPSUse=  1 ParTrn=F ParDer=F DoDerP=T.
 Spin components of T(2) and E(2):
     alpha-alpha T2 =       0.1261511419D-01 E2=     -0.5552666561D-01
     alpha-beta  T2 =       0.6595867974D-01 E2=     -0.2997950039D+00
     beta-beta   T2 =       0.1261511419D-01 E2=     -0.5552666561D-01
 ANorm=    0.1044599879D+01
 E2 =    -0.4108483351D+00 EUMP2 =    -0.32187156400673D+03
          IDoAtm=1111
          Differentiating once with respect to electric field.
                with respect to dipole field.
          Differentiating once with respect to nuclear coordinates.
          Keep R1 ints in memory in canonical form, NReq=1022944.
          There are     1 degrees of freedom in the 1st order CPHF.  IDoFFX=0.
 LinEq1:  Iter=  0 NonCon=     1 RMS=1.23D-02 Max=1.68D-01
 AX will form     1 AO Fock derivatives at one time.
 LinEq1:  Iter=  1 NonCon=     1 RMS=2.48D-03 Max=1.95D-02
 LinEq1:  Iter=  2 NonCon=     1 RMS=7.69D-04 Max=4.94D-03
 LinEq1:  Iter=  3 NonCon=     1 RMS=1.82D-04 Max=1.76D-03
 LinEq1:  Iter=  4 NonCon=     1 RMS=1.12D-05 Max=7.53D-05
 LinEq1:  Iter=  5 NonCon=     1 RMS=8.72D-07 Max=5.40D-06
 LinEq1:  Iter=  6 NonCon=     1 RMS=9.31D-08 Max=7.95D-07
 LinEq1:  Iter=  7 NonCon=     1 RMS=6.97D-09 Max=4.12D-08
 LinEq1:  Iter=  8 NonCon=     1 RMS=3.74D-10 Max=1.78D-09
 LinEq1:  Iter=  9 NonCon=     0 RMS=2.29D-11 Max=1.41D-10
 Linear equations converged to 1.000D-10 1.000D-09 after     9 iterations.
 End of Minotr Frequency-dependent properties file   721 does not exist.
 End of Minotr Frequency-dependent properties file   722 does not exist.
 Calling FoFJK, ICntrl=      2127 FMM=F ISym2X=1 I1Cent= 0 IOpClX= 0 NMat=1 NMatS=1 NMatT=0.
 ***** Axes restored to original set *****
 -------------------------------------------------------------------
 Center     Atomic                   Forces (Hartrees/Bohr)
 Number     Number              X              Y              Z
 -------------------------------------------------------------------
      1        5          -0.000000000    0.000000000    0.000000000
      2        9           0.000000000   -0.024734360    0.000000000
      3        9           0.021420584    0.012367180   -0.000000000
      4        9          -0.021420584    0.012367180    0.000000000
 -------------------------------------------------------------------
 Cartesian Forces:  Max     0.024734360 RMS     0.012367180

 GradGradGradGradGradGradGradGradGradGradGradGradGradGradGradGradGradGrad
 Berny optimization.
 Using GEDIIS/GDIIS optimizer.
 Internal  Forces:  Max     0.024734360 RMS     0.016192440
 Search for a local minimum.
 Step number   2 out of a maximum of   20
 All quantities printed in internal units (Hartrees-Bohrs-Radians)
 Mixed Optimization -- RFO/linear search
 Update second derivatives using D2CorX and points    1    2
 DE= -3.24D-02 DEPred=-3.18D-02 R= 1.02D+00
 SS=  1.41D+00  RLast= 3.00D-01 DXNew= 5.0454D-01 9.0000D-01
 Trust test= 1.02D+00 RLast= 3.00D-01 DXMaxT set to 5.05D-01
 The second derivative matrix:
                          R1        R2        R3        A1        A2
           R1           0.37836
           R2           0.00872   0.37836
           R3           0.00872   0.00872   0.37836
           A1           0.00000   0.00000   0.00000   0.25000
           A2           0.00000   0.00000   0.00000   0.00000   0.25000
           A3          -0.00000  -0.00000  -0.00000  -0.00000  -0.00000
           D1           0.00000   0.00000   0.00000   0.00000   0.00000
                          A3        D1
           A3           0.25000
           D1          -0.00000   0.01163
 ITU=  1  0
 Use linear search instead of GDIIS.
     Eigenvalues ---    0.01163   0.25000   0.25000   0.36964   0.36964
     Eigenvalues ---    0.39579
 RFO step:  Lambda= 0.00000000D+00 EMin= 1.16274561D-02
 Quartic linear search produced a step of  0.26007.
 Iteration  1 RMS(Cart)=  0.02948879 RMS(Int)=  0.00000000
 Iteration  2 RMS(Cart)=  0.00000000 RMS(Int)=  0.00000000
 ClnCor:  largest displacement from symmetrization is 8.38D-14 for atom     3.
 Variable       Old X    -DE/DX   Delta X   Delta X   Delta X     New X
                                 (Linear)    (Quad)   (Total)
    R1        2.58580  -0.02473  -0.04504   0.00000  -0.04504   2.54075
    R2        2.58580  -0.02473  -0.04504  -0.00000  -0.04504   2.54075
    R3        2.58580  -0.02473  -0.04504   0.00000  -0.04504   2.54075
    A1        2.09440  -0.00000  -0.00000  -0.00000   0.00000   2.09440
    A2        2.09440   0.00000   0.00000   0.00000   0.00000   2.09440
    A3        2.09440   0.00000   0.00000  -0.00000   0.00000   2.09440
    D1        3.14159   0.00000   0.00000   0.00000   0.00000   3.14159
         Item               Value     Threshold  Converged?
 Maximum Force            0.024734     0.000450     NO 
 RMS     Force            0.016192     0.000300     NO 
 Maximum Displacement     0.045045     0.001800     NO 
 RMS     Displacement     0.029489     0.001200     NO 
 Predicted change in Energy=-2.137849D-03
 GradGradGradGradGradGradGradGradGradGradGradGradGradGradGradGradGradGrad

                          Input orientation:                          
 ---------------------------------------------------------------------
 Center     Atomic      Atomic             Coordinates (Angstroms)
 Number     Number       Type             X           Y           Z
 ---------------------------------------------------------------------
      1          5           0        0.000000   -0.000000    0.000000
      2          9           0       -0.000000    1.344507    0.000000
      3          9           0       -1.164377   -0.672254   -0.000000
      4          9           0        1.164377   -0.672254    0.000000
 ---------------------------------------------------------------------
                    Distance matrix (angstroms):
                    1          2          3          4
     1  B    0.000000
     2  F    1.344507   0.000000
     3  F    1.344507   2.328755   0.000000
     4  F    1.344507   2.328755   2.328755   0.000000
 Stoichiometry    BF3
 Framework group  D3H[O(B),3C2(F)]
 Deg. of freedom     1
 Full point group                 D3H     NOp  12
 Largest Abelian subgroup         C2V     NOp   4
 Largest concise Abelian subgroup C2      NOp   2
                         Standard orientation:                         
 ---------------------------------------------------------------------
 Center     Atomic      Atomic             Coordinates (Angstroms)
 Number     Number       Type             X           Y           Z
 ---------------------------------------------------------------------
      1          5           0        0.000000    0.000000    0.000000
      2          9           0        0.000000    1.344507    0.000000
      3          9           0        1.164377   -0.672254    0.000000
      4          9           0       -1.164377   -0.672254    0.000000
 ---------------------------------------------------------------------
 Rotational constants (GHZ):      9.8103078      9.8103078      4.9051539
 Standard basis: 3-21G (6D, 7F)
 There are    17 symmetry adapted basis functions of A1  symmetry.
 There are     2 symmetry adapted basis functions of A2  symmetry.
 There are    11 symmetry adapted basis functions of B1  symmetry.
 There are     6 symmetry adapted basis functions of B2  symmetry.
 Integral buffers will be    131072 words long.
 Raffenetti 1 integral format.
 Two-electron integral symmetry is turned on.
    36 basis functions,    60 primitive gaussians,    36 cartesian basis functions
    16 alpha electrons       16 beta electrons
       nuclear repulsion energy       108.3522947908 Hartrees.
 NAtoms=    4 NActive=    4 NUniq=    2 SFac= 4.00D+00 NAtFMM=   60 NAOKFM=F Big=F
 One-electron integrals computed using PRISM.
 NBasis=    36 RedAO= T  NBF=    17     2    11     6
 NBsUse=    36 1.00D-06 NBFU=    17     2    11     6
 Initial guess read from the read-write file.
 B after Tr=     0.000000    0.000000    0.000000
         Rot=    1.000000    0.000000    0.000000    0.000000 Ang=   0.00 deg.
 Initial guess orbital symmetries:
       Occupied  (A1') (E') (E') (A1') (A1') (E') (E') (A1') (E')
                 (E') (A2") (E') (E') (E") (E") (A2')
       Virtual   (A2") (A1') (E') (E') (A2") (E') (E') (A1') (E")
                 (E") (A2') (E') (E') (A1') (A2") (E') (E') (E')
                 (E') (A1')
 Harris functional with IExCor=  205 diagonalized for initial guess.
 ExpMin= 1.24D-01 ExpMax= 4.14D+02 ExpMxC= 4.14D+02 IAcc=1 IRadAn=         1 AccDes= 0.00D+00
 HarFok:  IExCor=  205 AccDes= 0.00D+00 IRadAn=         1 IDoV= 1
 ScaDFX=  1.000000  1.000000  1.000000  1.000000
 FoFCou: FMM=F IPFlag=           0 FMFlag=      100000 FMFlg1=           0
         NFxFlg=           0 DoJE=T BraDBF=F KetDBF=T FulRan=T
         Omega=  0.000000  0.000000  1.000000  0.000000  0.000000 ICntrl=     500 IOpCl=  0
         NMat0=    1 NMatS0=    1 NMatT0=    0 NMatD0=    1 NMtDS0=    0 NMtDT0=    0
         I1Cent=           4 NGrid=           0.
 Petite list used in FoFCou.
 Requested convergence on RMS density matrix=1.00D-08 within 128 cycles.
 Requested convergence on MAX density matrix=1.00D-06.
 Requested convergence on             energy=1.00D-06.
 No special actions if energy rises.
 Keep R1 ints in memory in canonical form, NReq=1044815.
 SCF Done:  E(RHF) =  -321.464977040     A.U. after    9 cycles
             Convg  =    0.1326D-08             -V/T =  2.0049
 ExpMin= 1.24D-01 ExpMax= 4.14D+02 ExpMxC= 4.14D+02 IAcc=3 IRadAn=         5 AccDes= 0.00D+00
 HarFok:  IExCor=  205 AccDes= 0.00D+00 IRadAn=         5 IDoV=-2
 ScaDFX=  1.000000  1.000000  1.000000  1.000000
 Range of M.O.s used for correlation:     5    36
 NBasis=    36 NAE=    16 NBE=    16 NFC=     4 NFV=     0
 NROrb=     32 NOA=    12 NOB=    12 NVA=    20 NVB=    20
 Fully direct method using O(ONN) memory.
 JobTyp=1 Pass  1:  I=   5 to  16 NPSUse=  1 ParTrn=F ParDer=F DoDerP=T.
 Spin components of T(2) and E(2):
     alpha-alpha T2 =       0.1238781221D-01 E2=     -0.5519838959D-01
     alpha-beta  T2 =       0.6464261801D-01 E2=     -0.2978786558D+00
     beta-beta   T2 =       0.1238781221D-01 E2=     -0.5519838959D-01
 ANorm=    0.1043752002D+01
 E2 =    -0.4082754349D+00 EUMP2 =    -0.32187325247510D+03
          IDoAtm=1111
          Differentiating once with respect to electric field.
                with respect to dipole field.
          Differentiating once with respect to nuclear coordinates.
          Keep R1 ints in memory in canonical form, NReq=1022944.
          There are     1 degrees of freedom in the 1st order CPHF.  IDoFFX=0.
 LinEq1:  Iter=  0 NonCon=     1 RMS=1.19D-02 Max=1.61D-01
 AX will form     1 AO Fock derivatives at one time.
 LinEq1:  Iter=  1 NonCon=     1 RMS=2.30D-03 Max=1.85D-02
 LinEq1:  Iter=  2 NonCon=     1 RMS=7.09D-04 Max=4.58D-03
 LinEq1:  Iter=  3 NonCon=     1 RMS=1.69D-04 Max=1.67D-03
 LinEq1:  Iter=  4 NonCon=     1 RMS=1.00D-05 Max=6.59D-05
 LinEq1:  Iter=  5 NonCon=     1 RMS=8.20D-07 Max=5.09D-06
 LinEq1:  Iter=  6 NonCon=     1 RMS=8.36D-08 Max=7.37D-07
 LinEq1:  Iter=  7 NonCon=     1 RMS=6.36D-09 Max=3.60D-08
 LinEq1:  Iter=  8 NonCon=     1 RMS=3.50D-10 Max=1.65D-09
 LinEq1:  Iter=  9 NonCon=     0 RMS=2.17D-11 Max=1.33D-10
 Linear equations converged to 1.000D-10 1.000D-09 after     9 iterations.
 End of Minotr Frequency-dependent properties file   721 does not exist.
 End of Minotr Frequency-dependent properties file   722 does not exist.
 Calling FoFJK, ICntrl=      2127 FMM=F ISym2X=1 I1Cent= 0 IOpClX= 0 NMat=1 NMatS=1 NMatT=0.
 ***** Axes restored to original set *****
 -------------------------------------------------------------------
 Center     Atomic                   Forces (Hartrees/Bohr)
 Number     Number              X              Y              Z
 -------------------------------------------------------------------
      1        5          -0.000000000   -0.000000000    0.000000000
      2        9          -0.000000000    0.000331329    0.000000000
      3        9          -0.000286939   -0.000165664   -0.000000000
      4        9           0.000286939   -0.000165664    0.000000000
 -------------------------------------------------------------------
 Cartesian Forces:  Max     0.000331329 RMS     0.000165664

 GradGradGradGradGradGradGradGradGradGradGradGradGradGradGradGradGradGrad
 Berny optimization.
 Using GEDIIS/GDIIS optimizer.
 Internal  Forces:  Max     0.000331329 RMS     0.000216906
 Search for a local minimum.
 Step number   3 out of a maximum of   20
 All quantities printed in internal units (Hartrees-Bohrs-Radians)
 Mixed Optimization -- En-DIIS/RFO-DIIS
 Update second derivatives using D2CorX and points    1    2    3
 DE= -1.69D-03 DEPred=-2.14D-03 R= 7.90D-01
 SS=  1.41D+00  RLast= 7.80D-02 DXNew= 8.4853D-01 2.3406D-01
 Trust test= 7.90D-01 RLast= 7.80D-02 DXMaxT set to 5.05D-01
 The second derivative matrix:
                          R1        R2        R3        A1        A2
           R1           0.43192
           R2           0.06227   0.43192
           R3           0.06227   0.06227   0.43192
           A1           0.00000   0.00000   0.00000   0.25000
           A2          -0.00000  -0.00000  -0.00000  -0.00000   0.25000
           A3          -0.00000  -0.00000  -0.00000  -0.00000   0.00000
           D1           0.00000   0.00000   0.00000   0.00000  -0.00000
                          A3        D1
           A3           0.25000
           D1          -0.00000   0.01163
 ITU=  1  1  0
 Use linear search instead of GDIIS.
     Eigenvalues ---    0.01163   0.25000   0.25000   0.36964   0.36964
     Eigenvalues ---    0.55646
 RFO step:  Lambda= 0.00000000D+00 EMin= 1.16274561D-02
 Quartic linear search produced a step of -0.01235.
 Iteration  1 RMS(Cart)=  0.00036426 RMS(Int)=  0.00000000
 Iteration  2 RMS(Cart)=  0.00000000 RMS(Int)=  0.00000000
 ClnCor:  largest displacement from symmetrization is 4.70D-14 for atom     4.
 Variable       Old X    -DE/DX   Delta X   Delta X   Delta X     New X
                                 (Linear)    (Quad)   (Total)
    R1        2.54075   0.00033   0.00056  -0.00000   0.00056   2.54131
    R2        2.54075   0.00033   0.00056  -0.00000   0.00056   2.54131
    R3        2.54075   0.00033   0.00056   0.00000   0.00056   2.54131
    A1        2.09440  -0.00000  -0.00000  -0.00000   0.00000   2.09440
    A2        2.09440   0.00000   0.00000   0.00000   0.00000   2.09440
    A3        2.09440   0.00000   0.00000   0.00000   0.00000   2.09440
    D1        3.14159   0.00000   0.00000   0.00000   0.00000   3.14159
         Item               Value     Threshold  Converged?
 Maximum Force            0.000331     0.000450     YES
 RMS     Force            0.000217     0.000300     YES
 Maximum Displacement     0.000556     0.001800     YES
 RMS     Displacement     0.000364     0.001200     YES
 Predicted change in Energy=-2.946506D-07
 Optimization completed.
    -- Stationary point found.
                           ----------------------------
                           !   Optimized Parameters   !
                           ! (Angstroms and Degrees)  !
 --------------------------                            --------------------------
 ! Name  Definition              Value          Derivative Info.                !
 --------------------------------------------------------------------------------
 ! R1    R(1,2)                  1.3445         -DE/DX =    0.0003              !
 ! R2    R(1,3)                  1.3445         -DE/DX =    0.0003              !
 ! R3    R(1,4)                  1.3445         -DE/DX =    0.0003              !
 ! A1    A(2,1,3)              120.0            -DE/DX =    0.0                 !
 ! A2    A(2,1,4)              120.0            -DE/DX =    0.0                 !
 ! A3    A(3,1,4)              120.0            -DE/DX =    0.0                 !
 ! D1    D(2,1,4,3)            180.0            -DE/DX =    0.0                 !
 --------------------------------------------------------------------------------
 GradGradGradGradGradGradGradGradGradGradGradGradGradGradGradGradGradGrad

                          Input orientation:                          
 ---------------------------------------------------------------------
 Center     Atomic      Atomic             Coordinates (Angstroms)
 Number     Number       Type             X           Y           Z
 ---------------------------------------------------------------------
      1          5           0        0.000000   -0.000000    0.000000
      2          9           0       -0.000000    1.344507    0.000000
      3          9           0       -1.164377   -0.672254   -0.000000
      4          9           0        1.164377   -0.672254    0.000000
 ---------------------------------------------------------------------
                    Distance matrix (angstroms):
                    1          2          3          4
     1  B    0.000000
     2  F    1.344507   0.000000
     3  F    1.344507   2.328755   0.000000
     4  F    1.344507   2.328755   2.328755   0.000000
 Stoichiometry    BF3
 Framework group  D3H[O(B),3C2(F)]
 Deg. of freedom     1
 Full point group                 D3H     NOp  12
 Largest Abelian subgroup         C2V     NOp   4
 Largest concise Abelian subgroup C2      NOp   2
                         Standard orientation:                         
 ---------------------------------------------------------------------
 Center     Atomic      Atomic             Coordinates (Angstroms)
 Number     Number       Type             X           Y           Z
 ---------------------------------------------------------------------
      1          5           0        0.000000    0.000000    0.000000
      2          9           0        0.000000    1.344507    0.000000
      3          9           0        1.164377   -0.672254   -0.000000
      4          9           0       -1.164377   -0.672254   -0.000000
 ---------------------------------------------------------------------
 Rotational constants (GHZ):      9.8103078      9.8103078      4.9051539

 **********************************************************************

            Population analysis using the SCF density.

 **********************************************************************

 Orbital symmetries:
       Occupied  (A1') (E') (E') (A1') (A1') (E') (E') (A1') (E')
                 (E') (A2") (E') (E') (E") (E") (A2')
       Virtual   (A2") (A1') (E') (E') (A2") (E') (E') (A1') (E")
                 (E") (E') (E') (A2') (A1') (A2") (E') (E') (E')
                 (E') (A1')
 The electronic state is 1-A1'.
 Alpha  occ. eigenvalues --  -26.21494 -26.21479 -26.21479  -7.78599  -1.66883
 Alpha  occ. eigenvalues --   -1.62484  -1.62484  -0.82865  -0.78142  -0.78142
 Alpha  occ. eigenvalues --   -0.74499  -0.67113  -0.67113  -0.66379  -0.66379
 Alpha  occ. eigenvalues --   -0.64682
 Alpha virt. eigenvalues --    0.16979   0.25162   0.41017   0.41017   0.55304
 Alpha virt. eigenvalues --    0.75983   0.75983   0.87658   2.17056   2.17056
 Alpha virt. eigenvalues --    2.28465   2.28465   2.28590   2.38757   2.42032
 Alpha virt. eigenvalues --    2.44553   2.44553   3.98925   3.98925   4.02345
          Condensed to atoms (all electrons):
              1          2          3          4
     1  B    2.897100   0.306832   0.306832   0.306832
     2  F    0.306832   9.109926  -0.011311  -0.011311
     3  F    0.306832  -0.011311   9.109926  -0.011311
     4  F    0.306832  -0.011311  -0.011311   9.109926
 Mulliken atomic charges:
              1
     1  B    1.182405
     2  F   -0.394135
     3  F   -0.394135
     4  F   -0.394135
 Sum of Mulliken atomic charges =  -0.00000
 Mulliken charges with hydrogens summed into heavy atoms:
              1
     1  B    1.182405
     2  F   -0.394135
     3  F   -0.394135
     4  F   -0.394135
 Sum of Mulliken charges with hydrogens summed into heavy atoms =  -0.00000
 Electronic spatial extent (au):  <R**2>=            220.7814
 Charge=             -0.0000 electrons
 Dipole moment (field-independent basis, Debye):
    X=              0.0000    Y=             -0.0000    Z=              0.0000  Tot=              0.0000
 Quadrupole moment (field-independent basis, Debye-Ang):
   XX=            -22.7983   YY=            -22.7983   ZZ=            -16.9278
   XY=              0.0000   XZ=              0.0000   YZ=             -0.0000
 Traceless Quadrupole moment (field-independent basis, Debye-Ang):
   XX=             -1.9568   YY=             -1.9568   ZZ=              3.9136
   XY=              0.0000   XZ=              0.0000   YZ=             -0.0000
 Octapole moment (field-independent basis, Debye-Ang**2):
  XXX=              0.0000  YYY=             -3.2686  ZZZ=             -0.0000  XYY=              0.0000
  XXY=              3.2686  XXZ=              0.0000  XZZ=              0.0000  YZZ=              0.0000
  YYZ=              0.0000  XYZ=             -0.0000
 Hexadecapole moment (field-independent basis, Debye-Ang**3):
 XXXX=            -93.2906 YYYY=            -93.2906 ZZZZ=             -9.6428 XXXY=              0.0000
 XXXZ=              0.0000 YYYX=              0.0000 YYYZ=             -0.0000 ZZZX=             -0.0000
 ZZZY=             -0.0000 XXYY=            -31.0969 XXZZ=            -16.2119 YYZZ=            -16.2119
 XXYZ=             -0.0000 YYXZ=              0.0000 ZZXY=              0.0000
 N-N= 1.083522947908D+02 E-N=-9.839189402271D+02  KE= 3.198887802030D+02
 Symmetry A1   KE= 2.019467440973D+02
 Symmetry A2   KE= 6.350236173978D+00
 Symmetry B1   KE= 1.000835618183D+02
 Symmetry B2   KE= 1.150823811341D+01
 1\1\GINC-SRU01\FOpt\RMP2-FC\3-21G\B1F3\JAMES\18-Sep-2023\0\\# opt freq
 =hpmodes mp2/3-21g geom=connectivity\\Title Card Required\\0,1\B,0.,0.
 ,0.\F,-0.0000000002,1.3445071022,0.\F,-1.164377306,-0.6722535513,0.\F,
 1.1643773062,-0.6722535509,0.\\Version=AM64L-G09RevC.01\State=1-A1'\HF
 =-321.464977\MP2=-321.8732525\RMSD=1.326e-09\RMSF=1.657e-04\Dipole=0.,
 0.,0.\PG=D03H [O(B1),3C2(F1)]\\@


 THE RARE EARTHS PERPLEX US IN OUR RESEARCHES,
 BAFFLE US IN OUR SPECULATIONS, AND HAUNT US IN OUR
 VERY DREAMS.  THEY STRETCH LIKE AN UNKNOWN BEFORE US,
 MOCKING, MYSTIFYING, AND MURMURING STRANGE REVELATIONS
 AND POSSIBILITIES.  -- SIR WILLIAM CROOKE, 1832-1919
 Job cpu time:  0 days  0 hours  0 minutes  2.0 seconds.
 File lengths (MBytes):  RWF=      5 Int=      0 D2E=      0 Chk=      2 Scr=      1
 Normal termination of Gaussian 09 at Mon Sep 18 09:11:33 2023.
 Link1:  Proceeding to internal job step number  2.
 -------------------------------------------------------------------
 #N Geom=AllCheck Guess=TCheck SCRF=Check GenChk RMP2(FC)/3-21G Freq
 -------------------------------------------------------------------
 1/10=4,29=7,30=1,38=1,40=1/1,3;
 2/12=2,40=1/2;
 3/5=5,11=1,14=-4,16=1,25=1,30=1,70=2,71=2,116=1/1,2,3;
 4/5=101/1;
 5/5=2,98=1/2;
 8/6=3,8=1,10=1,19=11,30=-1/1;
 9/15=3,16=-3/6;
 11/6=1,8=1,15=11,17=12,24=-1,27=1,28=-2,29=300,32=6,42=3/1,2,10;
 10/6=2,21=1/2;
 8/6=4,8=1,10=1,19=11,30=-1/11,4;
 10/5=1,20=4/2;
 11/12=2,14=11,16=1,17=2,28=-2,42=3/2,10,12;
 6/7=2,8=2,9=2,10=2/1;
 7/8=11,10=1,12=2,25=1,44=2/1,2,3,16;
 1/10=4,30=1/3;
 99//99;
 Structure from the checkpoint file:  BF3.chk
 -------------------
 Title Card Required
 -------------------
 Charge =  0 Multiplicity = 1
 Redundant internal coordinates found in file.
 B,0,0.,0.,0.
 F,0,-0.0000000002,1.3445071022,0.
 F,0,-1.164377306,-0.6722535513,0.
 F,0,1.1643773062,-0.6722535509,0.
 Recover connectivity data from disk.

 GradGradGradGradGradGradGradGradGradGradGradGradGradGradGradGradGradGrad
 Berny optimization.
 Initialization pass.
                           ----------------------------
                           !    Initial Parameters    !
                           ! (Angstroms and Degrees)  !
 --------------------------                            --------------------------
 ! Name  Definition              Value          Derivative Info.                !
 --------------------------------------------------------------------------------
 ! R1    R(1,2)                  1.3445         calculate D2E/DX2 analytically  !
 ! R2    R(1,3)                  1.3445         calculate D2E/DX2 analytically  !
 ! R3    R(1,4)                  1.3445         calculate D2E/DX2 analytically  !
 ! A1    A(2,1,3)              120.0            calculate D2E/DX2 analytically  !
 ! A2    A(2,1,4)              120.0            calculate D2E/DX2 analytically  !
 ! A3    A(3,1,4)              120.0            calculate D2E/DX2 analytically  !
 ! D1    D(2,1,4,3)            180.0            calculate D2E/DX2 analytically  !
 --------------------------------------------------------------------------------
 Trust Radius=3.00D-01 FncErr=1.00D-07 GrdErr=1.00D-07
 Number of steps in this run=      2 maximum allowed number of steps=      2.
 GradGradGradGradGradGradGradGradGradGradGradGradGradGradGradGradGradGrad

                          Input orientation:                          
 ---------------------------------------------------------------------
 Center     Atomic      Atomic             Coordinates (Angstroms)
 Number     Number       Type             X           Y           Z
 ---------------------------------------------------------------------
      1          5           0        0.000000   -0.000000    0.000000
      2          9           0       -0.000000    1.344507    0.000000
      3          9           0       -1.164377   -0.672254   -0.000000
      4          9           0        1.164377   -0.672254    0.000000
 ---------------------------------------------------------------------
                    Distance matrix (angstroms):
                    1          2          3          4
     1  B    0.000000
     2  F    1.344507   0.000000
     3  F    1.344507   2.328755   0.000000
     4  F    1.344507   2.328755   2.328755   0.000000
 Stoichiometry    BF3
 Framework group  D3H[O(B),3C2(F)]
 Deg. of freedom     1
 Full point group                 D3H     NOp  12
 Largest Abelian subgroup         C2V     NOp   4
 Largest concise Abelian subgroup C2      NOp   2
                         Standard orientation:                         
 ---------------------------------------------------------------------
 Center     Atomic      Atomic             Coordinates (Angstroms)
 Number     Number       Type             X           Y           Z
 ---------------------------------------------------------------------
      1          5           0        0.000000    0.000000    0.000000
      2          9           0        0.000000    1.344507    0.000000
      3          9           0        1.164377   -0.672254   -0.000000
      4          9           0       -1.164377   -0.672254   -0.000000
 ---------------------------------------------------------------------
 Rotational constants (GHZ):      9.8103078      9.8103078      4.9051539
 Standard basis: 3-21G (6D, 7F)
 There are    17 symmetry adapted basis functions of A1  symmetry.
 There are     2 symmetry adapted basis functions of A2  symmetry.
 There are    11 symmetry adapted basis functions of B1  symmetry.
 There are     6 symmetry adapted basis functions of B2  symmetry.
 Integral buffers will be    131072 words long.
 Raffenetti 1 integral format.
 Two-electron integral symmetry is turned on.
    36 basis functions,    60 primitive gaussians,    36 cartesian basis functions
    16 alpha electrons       16 beta electrons
       nuclear repulsion energy       108.3522947908 Hartrees.
 NAtoms=    4 NActive=    4 NUniq=    2 SFac= 4.00D+00 NAtFMM=   60 NAOKFM=F Big=F
 One-electron integrals computed using PRISM.
 NBasis=    36 RedAO= T  NBF=    17     2    11     6
 NBsUse=    36 1.00D-06 NBFU=    17     2    11     6
 Initial guess read from the checkpoint file:  BF3.chk
 B after Tr=     0.000000    0.000000    0.000000
         Rot=    1.000000    0.000000    0.000000    0.000000 Ang=   0.00 deg.
 Initial guess orbital symmetries:
       Occupied  (A1') (E') (E') (A1') (A1') (E') (E') (A1') (E')
                 (E') (A2") (E') (E') (E") (E") (A2')
       Virtual   (A2") (A1') (E') (E') (A2") (E') (E') (A1') (E")
                 (E") (E') (E') (A2') (A1') (A2") (E') (E') (E')
                 (E') (A1')
 Requested convergence on RMS density matrix=1.00D-08 within 128 cycles.
 Requested convergence on MAX density matrix=1.00D-06.
 Requested convergence on             energy=1.00D-06.
 No special actions if energy rises.
 Keep R1 ints in memory in canonical form, NReq=1044815.
 SCF Done:  E(RHF) =  -321.464977040     A.U. after    1 cycles
             Convg  =    0.3999D-10             -V/T =  2.0049
 ExpMin= 1.24D-01 ExpMax= 4.14D+02 ExpMxC= 4.14D+02 IAcc=3 IRadAn=         5 AccDes= 0.00D+00
 HarFok:  IExCor=  205 AccDes= 0.00D+00 IRadAn=         5 IDoV=-2
 ScaDFX=  1.000000  1.000000  1.000000  1.000000
 Range of M.O.s used for correlation:     5    36
 NBasis=    36 NAE=    16 NBE=    16 NFC=     4 NFV=     0
 NROrb=     32 NOA=    12 NOB=    12 NVA=    20 NVB=    20
 Disk-based method using ON**2 memory for 12 occupieds at a time.
 Permanent disk used for amplitudes=      125200 words.
 Estimated scratch disk usage=     1174252 words.
 Actual    scratch disk usage=     1174252 words.
 JobTyp=1 Pass  1:  I=   5 to  16 NPSUse=  1 ParTrn=F ParDer=F DoDerP=T.
 (rs|ai) integrals will be sorted in core.
 Spin components of T(2) and E(2):
     alpha-alpha T2 =       0.1238781222D-01 E2=     -0.5519838960D-01
     alpha-beta  T2 =       0.6464261803D-01 E2=     -0.2978786558D+00
     beta-beta   T2 =       0.1238781222D-01 E2=     -0.5519838960D-01
 ANorm=    0.1043752002D+01
 E2 =    -0.4082754350D+00 EUMP2 =    -0.32187325247517D+03
 G2DrvN: will do     5 centers at a time, making    1 passes doing MaxLOS=1.
 Calling FoFCou, ICntrl=  3107 FMM=F I1Cent=   0 AccDes= 0.00D+00.
 FoFDir/FoFCou used for L=0 through L=1.
 End of G2Drv Frequency-dependent properties file   721 does not exist.
 End of G2Drv Frequency-dependent properties file   722 does not exist.
          IDoAtm=1111
          Differentiating once with respect to electric field.
                with respect to dipole field.
          Differentiating once with respect to nuclear coordinates.
          Keep R1 ints in memory in canonical form, NReq=1022944.
          There are    15 degrees of freedom in the 1st order CPHF.  IDoFFX=5.
     12 vectors produced by pass  0 Test12= 2.13D-15 6.67D-09 XBig12= 1.78D+00 8.03D-01.
 AX will form    12 AO Fock derivatives at one time.
     12 vectors produced by pass  1 Test12= 2.13D-15 6.67D-09 XBig12= 8.33D-02 1.06D-01.
     12 vectors produced by pass  2 Test12= 2.13D-15 6.67D-09 XBig12= 2.15D-03 1.48D-02.
     12 vectors produced by pass  3 Test12= 2.13D-15 6.67D-09 XBig12= 1.28D-05 1.39D-03.
     12 vectors produced by pass  4 Test12= 2.13D-15 6.67D-09 XBig12= 8.93D-08 8.87D-05.
     12 vectors produced by pass  5 Test12= 2.13D-15 6.67D-09 XBig12= 4.14D-10 6.76D-06.
      9 vectors produced by pass  6 Test12= 2.13D-15 6.67D-09 XBig12= 1.42D-12 5.20D-07.
      3 vectors produced by pass  7 Test12= 2.13D-15 6.67D-09 XBig12= 5.51D-15 2.19D-08.
 Inverted reduced A of dimension    84 with in-core refinement.
 End of Minotr Frequency-dependent properties file   721 does not exist.
 End of Minotr Frequency-dependent properties file   722 does not exist.
 MDV=    33554432.
 Form MO integral derivatives with frozen-active canonical formalism.
 Discarding MO integrals.
 Reordered first order wavefunction length =       204800
 In DefCFB: NBatch=  1 ICI= 16 ICA= 20 LFMax= 20
            Large arrays: LIAPS=     1658880 LIARS=      725760 words.
 Semi-Direct transformation.
 ModeAB=           4 MOrb=            16 LenV=      33430942
 LASXX=       231660 LTotXX=      231660 LenRXX=      491836
 LTotAB=      260176 MaxLAS=      263232 LenRXY=           0
 NonZer=      723496 LenScr=     1626624 LnRSAI=      263232
 LnScr1=      789504 LExtra=           0 Total=      3171196
 MaxDsk=          -1 SrtSym=           T ITran=            4
 JobTyp=0 Pass  1:  I=   1 to  16.
 (rs|ai) integrals will be sorted in core.
 Spin components of T(2) and E(2):
     alpha-alpha T2 =       0.1238781222D-01 E2=     -0.5519838960D-01
     alpha-beta  T2 =       0.6464261803D-01 E2=     -0.2978786558D+00
     beta-beta   T2 =       0.1238781222D-01 E2=     -0.5519838960D-01
 ANorm=    0.1476088238D+01
 E2 =    -0.4082754350D+00 EUMP2 =    -0.32187325247517D+03
          IDoAtm=1111
          Differentiating once with respect to electric field.
                with respect to dipole field.
          Differentiating once with respect to nuclear coordinates.
          There are     1 degrees of freedom in the 1st order CPHF.  IDoFFX=0.
 LinEq1:  Iter=  0 NonCon=     1 RMS=1.19D-02 Max=1.61D-01
 LinEq1:  Iter=  1 NonCon=     1 RMS=2.30D-03 Max=1.85D-02
 LinEq1:  Iter=  2 NonCon=     1 RMS=7.09D-04 Max=4.58D-03
 LinEq1:  Iter=  3 NonCon=     1 RMS=1.69D-04 Max=1.67D-03
 LinEq1:  Iter=  4 NonCon=     1 RMS=1.00D-05 Max=6.59D-05
 LinEq1:  Iter=  5 NonCon=     1 RMS=8.20D-07 Max=5.09D-06
 LinEq1:  Iter=  6 NonCon=     1 RMS=8.36D-08 Max=7.37D-07
 LinEq1:  Iter=  7 NonCon=     1 RMS=6.36D-09 Max=3.60D-08
 LinEq1:  Iter=  8 NonCon=     1 RMS=3.50D-10 Max=1.65D-09
 LinEq1:  Iter=  9 NonCon=     0 RMS=2.17D-11 Max=1.33D-10
 Linear equations converged to 1.000D-10 1.000D-09 after     9 iterations.
 End of Minotr Frequency-dependent properties file   721 does not exist.
 End of Minotr Frequency-dependent properties file   722 does not exist.
 Symmetrizing basis deriv contribution to polar:
 IMax=3 JMax=2 DiffMx= 0.00D+00
 G2DrvN: will do     5 centers at a time, making    1 passes doing MaxLOS=1.
 Calling FoFCou, ICntrl=  3107 FMM=F I1Cent=   0 AccDes= 0.00D+00.
 FoFDir/FoFCou used for L=0 through L=1.
 End of G2Drv Frequency-dependent properties file   721 does not exist.
 End of G2Drv Frequency-dependent properties file   722 does not exist.
 R2 and R3 integrals will be kept in memory, NReq=     1244222.
 DD1Dir will call FoFMem   1 times, MxPair=       272
 NAB=   136 NAA=     0 NBB=     0.
 Discarding MO integrals.

 **********************************************************************

            Population analysis using the SCF density.

 **********************************************************************

 Orbital symmetries:
       Occupied  (A1') (E') (E') (A1') (A1') (E') (E') (A1') (E')
                 (E') (A2") (E') (E') (E") (E") (A2')
       Virtual   (A2") (A1') (E') (E') (A2") (E') (E') (A1') (E")
                 (E") (E') (E') (A2') (A1') (A2") (E') (E') (E')
                 (E') (A1')
 The electronic state is 1-A1'.
 Alpha  occ. eigenvalues --  -26.21494 -26.21479 -26.21479  -7.78599  -1.66883
 Alpha  occ. eigenvalues --   -1.62484  -1.62484  -0.82865  -0.78142  -0.78142
 Alpha  occ. eigenvalues --   -0.74499  -0.67113  -0.67113  -0.66379  -0.66379
 Alpha  occ. eigenvalues --   -0.64682
 Alpha virt. eigenvalues --    0.16979   0.25162   0.41017   0.41017   0.55304
 Alpha virt. eigenvalues --    0.75983   0.75983   0.87658   2.17056   2.17056
 Alpha virt. eigenvalues --    2.28465   2.28465   2.28590   2.38757   2.42032
 Alpha virt. eigenvalues --    2.44553   2.44553   3.98925   3.98925   4.02345
          Condensed to atoms (all electrons):
              1          2          3          4
     1  B    2.897100   0.306832   0.306832   0.306832
     2  F    0.306832   9.109926  -0.011311  -0.011311
     3  F    0.306832  -0.011311   9.109926  -0.011311
     4  F    0.306832  -0.011311  -0.011311   9.109926
 Mulliken atomic charges:
              1
     1  B    1.182405
     2  F   -0.394135
     3  F   -0.394135
     4  F   -0.394135
 Sum of Mulliken atomic charges =  -0.00000
 Mulliken charges with hydrogens summed into heavy atoms:
              1
     1  B    1.182405
     2  F   -0.394135
     3  F   -0.394135
     4  F   -0.394135
 Sum of Mulliken charges with hydrogens summed into heavy atoms =  -0.00000
 APT atomic charges:
              1
     1  B    1.570681
     2  F   -0.523560
     3  F   -0.523560
     4  F   -0.523560
 Sum of APT charges=  -0.00000
 APT Atomic charges with hydrogens summed into heavy atoms:
              1
     1  B    1.570681
     2  F   -0.523560
     3  F   -0.523560
     4  F   -0.523560
 Sum of APT charges=  -0.00000
 Electronic spatial extent (au):  <R**2>=            220.7814
 Charge=             -0.0000 electrons
 Dipole moment (field-independent basis, Debye):
    X=              0.0000    Y=             -0.0000    Z=              0.0000  Tot=              0.0000
 Quadrupole moment (field-independent basis, Debye-Ang):
   XX=            -22.7983   YY=            -22.7983   ZZ=            -16.9278
   XY=             -0.0000   XZ=              0.0000   YZ=             -0.0000
 Traceless Quadrupole moment (field-independent basis, Debye-Ang):
   XX=             -1.9568   YY=             -1.9568   ZZ=              3.9136
   XY=             -0.0000   XZ=              0.0000   YZ=             -0.0000
 Octapole moment (field-independent basis, Debye-Ang**2):
  XXX=              0.0000  YYY=             -3.2686  ZZZ=              0.0000  XYY=              0.0000
  XXY=              3.2686  XXZ=             -0.0000  XZZ=              0.0000  YZZ=              0.0000
  YYZ=              0.0000  XYZ=             -0.0000
 Hexadecapole moment (field-independent basis, Debye-Ang**3):
 XXXX=            -93.2906 YYYY=            -93.2906 ZZZZ=             -9.6428 XXXY=              0.0000
 XXXZ=              0.0000 YYYX=              0.0000 YYYZ=             -0.0000 ZZZX=             -0.0000
 ZZZY=             -0.0000 XXYY=            -31.0969 XXZZ=            -16.2119 YYZZ=            -16.2119
 XXYZ=             -0.0000 YYXZ=              0.0000 ZZXY=              0.0000
 N-N= 1.083522947908D+02 E-N=-9.839189402283D+02  KE= 3.198887802045D+02
 Symmetry A1   KE= 2.019467440972D+02
 Symmetry A2   KE= 6.350236174002D+00
 Symmetry B1   KE= 1.000835618210D+02
 Symmetry B2   KE= 1.150823811230D+01
  Exact polarizability:  10.477  -0.000  10.477   0.000   0.000   5.138
 Approx polarizability:   7.839  -0.000   7.839   0.000   0.000   3.333
 Calling FoFJK, ICntrl=    100127 FMM=F ISym2X=1 I1Cent= 0 IOpClX= 0 NMat=1 NMatS=1 NMatT=0.
 Full mass-weighted force constant matrix:
 Low frequencies ---  -13.4679  -13.4679  -13.4678   -0.0007   -0.0005    0.0015
 Low frequencies ---  484.2209  484.2209  663.5273
 Harmonic frequencies (cm**-1), IR intensities (KM/Mole), Raman scattering
 activities (A**4/AMU), depolarization ratios for plane and unpolarized
 incident light, reduced masses (AMU), force constants (mDyne/A),
 and normal coordinates:
                           1         2         3         4         5
                          E'        E'        A2"       A1'       E'
       Frequencies ---   484.2209  484.2209  663.5273  910.6945 1583.6032
    Reduced masses ---    17.8577   17.8577   11.8135   18.9984   12.3022
   Force constants ---     2.4670    2.4670    3.0644    9.2835   18.1771
    IR Intensities ---    17.7400   17.7400  120.7606    0.0000  336.6475
 Coord Atom Element:
   1     1     5         -0.37787  -0.00078   0.00000  -0.00000  -0.00231
   2     1     5         -0.00078   0.37787  -0.00000  -0.00000   0.91551
   3     1     5          0.00000   0.00000   0.94833   0.00000   0.00000
   1     2     9          0.60253   0.00125  -0.00000   0.00000   0.00007
   2     2     9         -0.00094   0.45655  -0.00000   0.57735  -0.32741
   3     2     9         -0.00000  -0.00000  -0.18318  -0.00000  -0.00000
   1     3     9         -0.19083  -0.45899   0.00000   0.50000   0.13103
   2     3     9          0.45929  -0.33681  -0.00000  -0.28868  -0.10189
   3     3     9         -0.00000  -0.00000  -0.18318  -0.00000  -0.00000
   1     4     9         -0.19273   0.45820   0.00000  -0.50000  -0.12976
   2     4     9         -0.45789  -0.33871   0.00000  -0.28868  -0.10123
   3     4     9         -0.00000  -0.00000  -0.18318  -0.00000  -0.00000
                           6
                          E'
       Frequencies ---  1583.6032
    Reduced masses ---    12.3022
   Force constants ---    18.1771
    IR Intensities ---   336.6475
 Coord Atom Element:
   1     1     5          0.91551
   2     1     5          0.00231
   3     1     5         -0.00000
   1     2     9         -0.02627
   2     2     9         -0.00083
   3     2     9          0.00000
   1     3     9         -0.25180
   2     3     9          0.13014
   3     3     9          0.00000
   1     4     9         -0.25246
   2     4     9         -0.13065
   3     4     9          0.00000
 Harmonic frequencies (cm**-1), IR intensities (KM/Mole), Raman scattering
 activities (A**4/AMU), depolarization ratios for plane and unpolarized
 incident light, reduced masses (AMU), force constants (mDyne/A),
 and normal coordinates:
                     1                      2                      3
                    E'                     E'                     A2"
 Frequencies --   484.2209               484.2209               663.5273
 Red. masses --    17.8577                17.8577                11.8135
 Frc consts  --     2.4670                 2.4670                 3.0644
 IR Inten    --    17.7400                17.7400               120.7606
  Atom  AN      X      Y      Z        X      Y      Z        X      Y      Z
     1   5    -0.38  -0.00   0.00    -0.00   0.38   0.00     0.00  -0.00   0.95
     2   9     0.60  -0.00  -0.00     0.00   0.46  -0.00    -0.00  -0.00  -0.18
     3   9    -0.19   0.46  -0.00    -0.46  -0.34  -0.00     0.00  -0.00  -0.18
     4   9    -0.19  -0.46  -0.00     0.46  -0.34  -0.00     0.00   0.00  -0.18
                     4                      5                      6
                    A1'                    E'                     E'
 Frequencies --   910.6945              1583.6032              1583.6032
 Red. masses --    18.9984                12.3022                12.3022
 Frc consts  --     9.2835                18.1771                18.1771
 IR Inten    --     0.0000               336.6475               336.6475
  Atom  AN      X      Y      Z        X      Y      Z        X      Y      Z
     1   5    -0.00  -0.00   0.00    -0.00   0.92   0.00     0.92   0.00  -0.00
     2   9     0.00   0.58  -0.00     0.00  -0.33  -0.00    -0.03  -0.00   0.00
     3   9     0.50  -0.29  -0.00     0.13  -0.10  -0.00    -0.25   0.13   0.00
     4   9    -0.50  -0.29  -0.00    -0.13  -0.10  -0.00    -0.25  -0.13   0.00

 -------------------
 - Thermochemistry -
 -------------------
 Temperature   298.150 Kelvin.  Pressure   1.00000 Atm.
 Atom     1 has atomic number  5 and mass  11.00931
 Atom     2 has atomic number  9 and mass  18.99840
 Atom     3 has atomic number  9 and mass  18.99840
 Atom     4 has atomic number  9 and mass  18.99840
 Molecular mass:    68.00452 amu.
 Principal axes and moments of inertia in atomic units:
                           1         2         3
     Eigenvalues --   183.96377 183.96377 367.92754
           X           -0.52573   0.85065   0.00000
           Y            0.85065   0.52573   0.00000
           Z            0.00000   0.00000   1.00000
 This molecule is an oblate symmetric top.
 Rotational symmetry number  6.
 Rotational temperatures (Kelvin)      0.47082     0.47082     0.23541
 Rotational constants (GHZ):           9.81031     9.81031     4.90515
 Zero-point vibrational energy      34152.6 (Joules/Mol)
                                    8.16267 (Kcal/Mol)
 Warning -- explicit consideration of   2 degrees of freedom as
           vibrations may cause significant error
 Vibrational temperatures:    696.68   696.68   954.67  1310.28  2278.45
          (Kelvin)           2278.45
 
 Zero-point correction=                           0.013008 (Hartree/Particle)
 Thermal correction to Energy=                    0.016500
 Thermal correction to Enthalpy=                  0.017444
 Thermal correction to Gibbs Free Energy=        -0.011513
 Sum of electronic and zero-point Energies=           -321.860244
 Sum of electronic and thermal Energies=              -321.856753
 Sum of electronic and thermal Enthalpies=            -321.855809
 Sum of electronic and thermal Free Energies=         -321.884765
 
                     E (Thermal)             CV                S
                      KCal/Mol        Cal/Mol-Kelvin    Cal/Mol-Kelvin
 Total                   10.354             10.029             60.944
 Electronic               0.000              0.000              0.000
 Translational            0.889              2.981             38.569
 Rotational               0.889              2.981             20.475
 Vibrational              8.576              4.068              1.900
 Vibration     1          0.840              1.285              0.699
 Vibration     2          0.840              1.285              0.699
                       Q            Log10(Q)             Ln(Q)
 Total Bot       0.197439D+06          5.295433         12.193184
 Total V=0       0.189978D+12         11.278703         25.970174
 Vib (Bot)       0.134543D-05         -5.871138        -13.518794
 Vib (Bot)    1  0.344141D+00         -0.463264         -1.066705
 Vib (Bot)    2  0.344141D+00         -0.463264         -1.066705
 Vib (V=0)       0.129459D+01          0.112133          0.258195
 Vib (V=0)    1  0.110699D+01          0.044142          0.101642
 Vib (V=0)    2  0.110699D+01          0.044142          0.101642
 Electronic      0.100000D+01          0.000000          0.000000
 Translational   0.220425D+08          7.343262         16.908485
 Rotational      0.665746D+04          3.823309          8.803493
 ***** Axes restored to original set *****
 -------------------------------------------------------------------
 Center     Atomic                   Forces (Hartrees/Bohr)
 Number     Number              X              Y              Z
 -------------------------------------------------------------------
      1        5           0.000000000   -0.000000000    0.000000000
      2        9          -0.000000000    0.000331329   -0.000000000
      3        9          -0.000286940   -0.000165665    0.000000000
      4        9           0.000286940   -0.000165665   -0.000000000
 -------------------------------------------------------------------
 Cartesian Forces:  Max     0.000331329 RMS     0.000165665

 GradGradGradGradGradGradGradGradGradGradGradGradGradGradGradGradGradGrad
 Berny optimization.
 Internal  Forces:  Max     0.000331329 RMS     0.000216906
 Search for a local minimum.
 Step number   1 out of a maximum of    2
 All quantities printed in internal units (Hartrees-Bohrs-Radians)
 Second derivative matrix not updated -- analytic derivatives used.
 The second derivative matrix:
                          R1        R2        R3        A1        A2
           R1           0.53463
           R2           0.03083   0.53463
           R3           0.03083   0.03083   0.53463
           A1           0.01862   0.01862  -0.03723   0.14443
           A2           0.01862  -0.03723   0.01862  -0.07221   0.14443
           A3          -0.03723   0.01862   0.01862  -0.07221  -0.07221
           D1           0.00000  -0.00000  -0.00000   0.00000   0.00000
                          A3        D1
           A3           0.14443
           D1          -0.00000   0.08291
 ITU=  0
     Eigenvalues ---    0.08291   0.20616   0.20616   0.51428   0.51428
     Eigenvalues ---    0.59629
 Angle between quadratic step and forces=   0.00 degrees.
 Linear search not attempted -- first point.
 Iteration  1 RMS(Cart)=  0.00036376 RMS(Int)=  0.00000000
 Iteration  2 RMS(Cart)=  0.00000000 RMS(Int)=  0.00000000
 ClnCor:  largest displacement from symmetrization is 4.98D-12 for atom     3.
 Variable       Old X    -DE/DX   Delta X   Delta X   Delta X     New X
                                 (Linear)    (Quad)   (Total)
    R1        2.54075   0.00033   0.00000   0.00056   0.00056   2.54131
    R2        2.54075   0.00033   0.00000   0.00056   0.00056   2.54131
    R3        2.54075   0.00033   0.00000   0.00056   0.00056   2.54131
    A1        2.09440  -0.00000   0.00000   0.00000   0.00000   2.09440
    A2        2.09440   0.00000   0.00000   0.00000   0.00000   2.09440
    A3        2.09440  -0.00000   0.00000  -0.00000   0.00000   2.09440
    D1        3.14159   0.00000   0.00000   0.00000   0.00000   3.14159
         Item               Value     Threshold  Converged?
 Maximum Force            0.000331     0.000450     YES
 RMS     Force            0.000217     0.000300     YES
 Maximum Displacement     0.000556     0.001800     YES
 RMS     Displacement     0.000364     0.001200     YES
 Predicted change in Energy=-2.761577D-07
 Optimization completed.
    -- Stationary point found.
                           ----------------------------
                           !   Optimized Parameters   !
                           ! (Angstroms and Degrees)  !
 --------------------------                            --------------------------
 ! Name  Definition              Value          Derivative Info.                !
 --------------------------------------------------------------------------------
 ! R1    R(1,2)                  1.3445         -DE/DX =    0.0003              !
 ! R2    R(1,3)                  1.3445         -DE/DX =    0.0003              !
 ! R3    R(1,4)                  1.3445         -DE/DX =    0.0003              !
 ! A1    A(2,1,3)              120.0            -DE/DX =    0.0                 !
 ! A2    A(2,1,4)              120.0            -DE/DX =    0.0                 !
 ! A3    A(3,1,4)              120.0            -DE/DX =    0.0                 !
 ! D1    D(2,1,4,3)            180.0            -DE/DX =    0.0                 !
 --------------------------------------------------------------------------------
 GradGradGradGradGradGradGradGradGradGradGradGradGradGradGradGradGradGrad

 1\1\GINC-SRU01\Freq\RMP2-FC\3-21G\B1F3\JAMES\18-Sep-2023\0\\#N Geom=Al
 lCheck Guess=TCheck SCRF=Check GenChk RMP2(FC)/3-21G Freq\\Title Card 
 Required\\0,1\B,0.,0.,0.\F,-0.0000000002,1.3445071022,0.\F,-1.16437730
 6,-0.6722535513,0.\F,1.1643773062,-0.6722535509,0.\\Version=AM64L-G09R
 evC.01\State=1-A1'\HF=-321.464977\MP2=-321.8732525\RMSD=3.999e-11\RMSF
 =1.657e-04\ZeroPoint=0.013008\Thermal=0.0164997\Dipole=0.,0.,0.\Dipole
 Deriv=1.8214731,0.,0.,0.,1.8214731,0.,0.,0.,1.0690974,-0.449043,0.,0.,
 0.,-0.7652724,0.,0.,0.,-0.3563658,-0.686215,-0.1369314,0.,-0.1369314,-
 0.5281003,0.,0.,0.,-0.3563658,-0.686215,0.1369314,0.,0.1369314,-0.5281
 003,0.,0.,0.,-0.3563658\Polar=10.4772834,0.,10.4772834,0.,0.,5.1375139
 \PG=D03H [O(B1),3C2(F1)]\NImag=0\\0.79230317,0.,0.79230317,0.,0.,0.153
 73388,-0.06247473,0.,0.,0.06698794,0.,-0.46572738,0.,0.,0.53462820,0.,
 0.,-0.05124463,0.,0.,0.01699460,-0.36491422,-0.17461352,0.,-0.00225661
 ,-0.01570765,0.,0.41771814,-0.17461352,-0.16328789,0.,-0.04005365,-0.0
 3445041,0.,0.20249417,0.18389801,0.,0.,-0.05124463,0.,0.,0.01712501,0.
 ,0.,0.01699460,-0.36491422,0.17461352,0.,-0.00225661,0.01570765,0.,-0.
 05054731,0.01217300,0.,0.41771814,0.17461352,-0.16328789,0.,0.04005365
 ,-0.03445041,0.,-0.01217300,0.01384029,0.,-0.20249417,0.18389801,0.,0.
 ,-0.05124463,0.,0.,0.01712501,0.,0.,0.01712501,0.,0.,0.01699460\\0.,0.
 ,0.,0.,-0.00033133,0.,0.00028694,0.00016566,0.,-0.00028694,0.00016566,
 0.\\\@


 A ROPE OVER THE TOP OF A FENCE HAS THE SAME LENGTH ON EACH SIDE.
 WEIGHS 1/3 POUND PER FOOT.  ON ONE END HANGS A MONKEY HOLDING A
 BANANA, AND ON THE OTHER END A WEIGHT EQUAL TO THE WEIGHT
 OF THE MONKEY.  THE BANANA WEIGHS TWO OUNCES PER INCH.
 THE ROPE IS AS LONG AS THE AGE OF THE MONKEY, 
 AND THE WEIGHT OF THE MONKEY (IN OUNCES) IS AS MUCH
 AS THE AGE OF THE MONKEY'S MOTHER.  THE COMBINED AGES OF MONKEY
 AND MOTHER ARE THIRTY YEARS.  HALF THE WEIGHT OF THE MONKEY,
  PLUS THE WEIGHT OF THE BANANA, IS ONE FOURTH AS MUCH AS THE WEIGHT
 OF THE WEIGHT AND THE ROPE.
 THE MONKEY'S MOTHER IS HALF AS OLD AS THE MONKEY WILL BE
 WHEN IT IS 3 TIMES AS OLD AS ITS MOTHER WAS WHEN
 SHE WAS HALF AS OLD AS THE MONKEY WILL BE WHEN IT IS
 AS OLD AS ITS MOTHER WILL BE WHEN SHE IS 4 TIMES AS
 OLD AS THE MONKEY WAS WHEN IT WAS TWICE AS OLD AS 
 ITS MOTHER WAS WHEN SHE WAS ONE THIRD AS OLD AS THE
 MONKEY WAS WHEN IT WAS AS OLD AS ITS MOTHER WAS WHEN 
 SHE WAS 3 TIMES AS OLD AS THE MONKEY WAS WHEN IT WAS AS OLD AS ITS
 MOTHER WAS WHEN SHE WAS 3 TIMES AS OLD AS THE MONKEY 
 WAS WHEN IT WAS ONE FOURTH WAS OLD AS IT IS NOW.

 HOW LONG IS THE BANANA?
 Job cpu time:  0 days  0 hours  0 minutes  2.2 seconds.
 File lengths (MBytes):  RWF=     33 Int=      0 D2E=      0 Chk=      2 Scr=      1
 Normal termination of Gaussian 09 at Mon Sep 18 09:11:37 2023.
