 Entering Gaussian System, Link 0=g09
 Input=/home/james/3-bonds/D3h_planar/BH3/BH3.com
 Output=/home/james/3-bonds/D3h_planar/BH3/BH3.log
 Initial command:
 /usr/local/g09/l1.exe /scratch/james/Gau-25838.inp -scrdir=/scratch/james/
 Entering Link 1 = /usr/local/g09/l1.exe PID=     25840.
  
 Copyright (c) 1988,1990,1992,1993,1995,1998,2003,2009,2011,
            Gaussian, Inc.  All Rights Reserved.
  
 This is part of the Gaussian(R) 09 program.  It is based on
 the Gaussian(R) 03 system (copyright 2003, Gaussian, Inc.),
 the Gaussian(R) 98 system (copyright 1998, Gaussian, Inc.),
 the Gaussian(R) 94 system (copyright 1995, Gaussian, Inc.),
 the Gaussian 92(TM) system (copyright 1992, Gaussian, Inc.),
 the Gaussian 90(TM) system (copyright 1990, Gaussian, Inc.),
 the Gaussian 88(TM) system (copyright 1988, Gaussian, Inc.),
 the Gaussian 86(TM) system (copyright 1986, Carnegie Mellon
 University), and the Gaussian 82(TM) system (copyright 1983,
 Carnegie Mellon University). Gaussian is a federally registered
 trademark of Gaussian, Inc.
  
 This software contains proprietary and confidential information,
 including trade secrets, belonging to Gaussian, Inc.
  
 This software is provided under written license and may be
 used, copied, transmitted, or stored only in accord with that
 written license.
  
 The following legend is applicable only to US Government
 contracts under FAR:
  
                    RESTRICTED RIGHTS LEGEND
  
 Use, reproduction and disclosure by the US Government is
 subject to restrictions as set forth in subparagraphs (a)
 and (c) of the Commercial Computer Software - Restricted
 Rights clause in FAR 52.227-19.
  
 Gaussian, Inc.
 340 Quinnipiac St., Bldg. 40, Wallingford CT 06492
  
  
 ---------------------------------------------------------------
 Warning -- This program may not be used in any manner that
 competes with the business of Gaussian, Inc. or will provide
 assistance to any competitor of Gaussian, Inc.  The licensee
 of this program is prohibited from giving any competitor of
 Gaussian, Inc. access to this program.  By using this program,
 the user acknowledges that Gaussian, Inc. is engaged in the
 business of creating and licensing software in the field of
 computational chemistry and represents and warrants to the
 licensee that it is not a competitor of Gaussian, Inc. and that
 it will not use this program in any manner prohibited above.
 ---------------------------------------------------------------
  

 Cite this work as:
 Gaussian 09, Revision C.01,
 M. J. Frisch, G. W. Trucks, H. B. Schlegel, G. E. Scuseria, 
 M. A. Robb, J. R. Cheeseman, G. Scalmani, V. Barone, B. Mennucci, 
 G. A. Petersson, H. Nakatsuji, M. Caricato, X. Li, H. P. Hratchian, 
 A. F. Izmaylov, J. Bloino, G. Zheng, J. L. Sonnenberg, M. Hada, 
 M. Ehara, K. Toyota, R. Fukuda, J. Hasegawa, M. Ishida, T. Nakajima, 
 Y. Honda, O. Kitao, H. Nakai, T. Vreven, J. A. Montgomery, Jr., 
 J. E. Peralta, F. Ogliaro, M. Bearpark, J. J. Heyd, E. Brothers, 
 K. N. Kudin, V. N. Staroverov, T. Keith, R. Kobayashi, J. Normand, 
 K. Raghavachari, A. Rendell, J. C. Burant, S. S. Iyengar, J. Tomasi, 
 M. Cossi, N. Rega, J. M. Millam, M. Klene, J. E. Knox, J. B. Cross, 
 V. Bakken, C. Adamo, J. Jaramillo, R. Gomperts, R. E. Stratmann, 
 O. Yazyev, A. J. Austin, R. Cammi, C. Pomelli, J. W. Ochterski, 
 R. L. Martin, K. Morokuma, V. G. Zakrzewski, G. A. Voth, 
 P. Salvador, J. J. Dannenberg, S. Dapprich, A. D. Daniels, 
 O. Farkas, J. B. Foresman, J. V. Ortiz, J. Cioslowski, 
 and D. J. Fox, Gaussian, Inc., Wallingford CT, 2010.
 
 ******************************************
 Gaussian 09:  AM64L-G09RevC.01 23-Sep-2011
                17-Sep-2023 
 ******************************************
 %chk=BH3.chk
 ----------------------------------------------
 # opt freq=hpmodes mp2/3-21g geom=connectivity
 ----------------------------------------------
 1/18=20,19=15,38=1,57=2/1,3;
 2/9=110,12=2,17=6,18=5,40=1/2;
 3/5=5,11=9,16=1,25=1,30=1,71=1/1,2,3;
 4//1;
 5/5=2,38=5/2;
 8/6=4,10=1/1;
 9/15=2,16=-3/6;
 10/5=1/2;
 6/7=2,8=2,9=2,10=2/1;
 7/12=2/1,2,3,16;
 1/18=20,19=15/3(2);
 2/9=110/2;
 99//99;
 2/9=110/2;
 3/5=5,11=9,16=1,25=1,30=1,71=1/1,2,3;
 4/5=5,16=3/1;
 5/5=2,38=5/2;
 8/6=4,10=1/1;
 9/15=2,16=-3/6;
 10/5=1/2;
 7/12=2/1,2,3,16;
 1/18=20,19=15/3(-8);
 2/9=110/2;
 6/7=2,8=2,9=2,10=2/1;
 99//99;
 -------------------
 Title Card Required
 -------------------
 Charge =  0 Multiplicity = 1
 Symbolic Z-Matrix:
 B                     0.        0.        0. 
 H                     0.        1.18      0. 
 H                    -1.02191  -0.59      0. 
 H                     1.02191  -0.59      0. 
 

 GradGradGradGradGradGradGradGradGradGradGradGradGradGradGradGradGradGrad
 Berny optimization.
 Initialization pass.
                           ----------------------------
                           !    Initial Parameters    !
                           ! (Angstroms and Degrees)  !
 --------------------------                            --------------------------
 ! Name  Definition              Value          Derivative Info.                !
 --------------------------------------------------------------------------------
 ! R1    R(1,2)                  1.18           estimate D2E/DX2                !
 ! R2    R(1,3)                  1.18           estimate D2E/DX2                !
 ! R3    R(1,4)                  1.18           estimate D2E/DX2                !
 ! A1    A(2,1,3)              120.0            estimate D2E/DX2                !
 ! A2    A(2,1,4)              120.0            estimate D2E/DX2                !
 ! A3    A(3,1,4)              120.0            estimate D2E/DX2                !
 ! D1    D(2,1,4,3)            180.0            estimate D2E/DX2                !
 --------------------------------------------------------------------------------
 Trust Radius=3.00D-01 FncErr=1.00D-07 GrdErr=1.00D-07
 Number of steps in this run=     20 maximum allowed number of steps=    100.
 GradGradGradGradGradGradGradGradGradGradGradGradGradGradGradGradGradGrad

                          Input orientation:                          
 ---------------------------------------------------------------------
 Center     Atomic      Atomic             Coordinates (Angstroms)
 Number     Number       Type             X           Y           Z
 ---------------------------------------------------------------------
      1          5           0        0.000000    0.000000    0.000000
      2          1           0        0.000000    1.180000    0.000000
      3          1           0       -1.021910   -0.590000    0.000000
      4          1           0        1.021910   -0.590000    0.000000
 ---------------------------------------------------------------------
                    Distance matrix (angstroms):
                    1          2          3          4
     1  B    0.000000
     2  H    1.180000   0.000000
     3  H    1.180000   2.043820   0.000000
     4  H    1.180000   2.043820   2.043820   0.000000
 Stoichiometry    BH3
 Framework group  D3H[O(B),3C2(H)]
 Deg. of freedom     1
 Full point group                 D3H     NOp  12
 Largest Abelian subgroup         C2V     NOp   4
 Largest concise Abelian subgroup C2      NOp   2
                         Standard orientation:                         
 ---------------------------------------------------------------------
 Center     Atomic      Atomic             Coordinates (Angstroms)
 Number     Number       Type             X           Y           Z
 ---------------------------------------------------------------------
      1          5           0        0.000000    0.000000    0.000000
      2          1           0        0.000000    1.180000    0.000000
      3          1           0        1.021910   -0.590000    0.000000
      4          1           0       -1.021910   -0.590000    0.000000
 ---------------------------------------------------------------------
 Rotational constants (GHZ):    240.0914968    240.0914968    120.0457484
 Standard basis: 3-21G (6D, 7F)
 There are     9 symmetry adapted basis functions of A1  symmetry.
 There are     0 symmetry adapted basis functions of A2  symmetry.
 There are     4 symmetry adapted basis functions of B1  symmetry.
 There are     2 symmetry adapted basis functions of B2  symmetry.
 Integral buffers will be    131072 words long.
 Raffenetti 1 integral format.
 Two-electron integral symmetry is turned on.
    15 basis functions,    24 primitive gaussians,    15 cartesian basis functions
     4 alpha electrons        4 beta electrons
       nuclear repulsion energy         7.5035762206 Hartrees.
 NAtoms=    4 NActive=    4 NUniq=    2 SFac= 4.00D+00 NAtFMM=   60 NAOKFM=F Big=F
 One-electron integrals computed using PRISM.
 NBasis=    15 RedAO= T  NBF=     9     0     4     2
 NBsUse=    15 1.00D-06 NBFU=     9     0     4     2
 Harris functional with IExCor=  205 diagonalized for initial guess.
 ExpMin= 1.24D-01 ExpMax= 1.16D+02 ExpMxC= 1.16D+02 IAcc=1 IRadAn=         1 AccDes= 0.00D+00
 HarFok:  IExCor=  205 AccDes= 0.00D+00 IRadAn=         1 IDoV= 1
 ScaDFX=  1.000000  1.000000  1.000000  1.000000
 FoFCou: FMM=F IPFlag=           0 FMFlag=      100000 FMFlg1=           0
         NFxFlg=           0 DoJE=T BraDBF=F KetDBF=T FulRan=T
         Omega=  0.000000  0.000000  1.000000  0.000000  0.000000 ICntrl=     500 IOpCl=  0
         NMat0=    1 NMatS0=    1 NMatT0=    0 NMatD0=    1 NMtDS0=    0 NMtDT0=    0
         I1Cent=           4 NGrid=           0.
 Petite list used in FoFCou.
 Initial guess orbital symmetries:
       Occupied  (A1') (A1') (E') (E')
       Virtual   (A2") (E') (E') (A1') (E') (E') (A2") (A1') (A1')
                 (E') (E')
 The electronic state of the initial guess is 1-A1'.
 Requested convergence on RMS density matrix=1.00D-08 within 128 cycles.
 Requested convergence on MAX density matrix=1.00D-06.
 Requested convergence on             energy=1.00D-06.
 No special actions if energy rises.
 Keep R1 ints in memory in canonical form, NReq=827141.
 SCF Done:  E(RHF) =  -26.2372138590     A.U. after    8 cycles
             Convg  =    0.3483D-08             -V/T =  2.0026
 ExpMin= 1.24D-01 ExpMax= 1.16D+02 ExpMxC= 1.16D+02 IAcc=3 IRadAn=         5 AccDes= 0.00D+00
 HarFok:  IExCor=  205 AccDes= 0.00D+00 IRadAn=         5 IDoV=-2
 ScaDFX=  1.000000  1.000000  1.000000  1.000000
 Range of M.O.s used for correlation:     2    15
 NBasis=    15 NAE=     4 NBE=     4 NFC=     1 NFV=     0
 NROrb=     14 NOA=     3 NOB=     3 NVA=    11 NVB=    11
 Fully direct method using O(ONN) memory.
 JobTyp=1 Pass  1:  I=   2 to   4 NPSUse=  1 ParTrn=F ParDer=F DoDerP=T.
 Spin components of T(2) and E(2):
     alpha-alpha T2 =       0.1167484476D-02 E2=     -0.2589754921D-02
     alpha-beta  T2 =       0.2029754638D-01 E2=     -0.4963854682D-01
     beta-beta   T2 =       0.1167484476D-02 E2=     -0.2589754921D-02
 ANorm=    0.1011252943D+01
 E2 =    -0.5481805666D-01 EUMP2 =    -0.26292031915626D+02
          IDoAtm=1111
          Differentiating once with respect to electric field.
                with respect to dipole field.
          Differentiating once with respect to nuclear coordinates.
          Keep R1 ints in memory in canonical form, NReq=807910.
          There are     1 degrees of freedom in the 1st order CPHF.  IDoFFX=0.
 LinEq1:  Iter=  0 NonCon=     1 RMS=3.40D-03 Max=1.36D-02
 AX will form     1 AO Fock derivatives at one time.
 LinEq1:  Iter=  1 NonCon=     1 RMS=6.24D-04 Max=2.31D-03
 LinEq1:  Iter=  2 NonCon=     1 RMS=3.47D-05 Max=1.09D-04
 LinEq1:  Iter=  3 NonCon=     1 RMS=3.25D-06 Max=1.30D-05
 LinEq1:  Iter=  4 NonCon=     1 RMS=1.44D-07 Max=5.70D-07
 LinEq1:  Iter=  5 NonCon=     1 RMS=8.51D-09 Max=3.22D-08
 LinEq1:  Iter=  6 NonCon=     1 RMS=1.41D-10 Max=5.98D-10
 LinEq1:  Iter=  7 NonCon=     0 RMS=7.16D-12 Max=3.26D-11
 Linear equations converged to 1.000D-10 1.000D-09 after     7 iterations.
 End of Minotr Frequency-dependent properties file   721 does not exist.
 End of Minotr Frequency-dependent properties file   722 does not exist.

 **********************************************************************

            Population analysis using the SCF density.

 **********************************************************************

 Orbital symmetries:
       Occupied  (A1') (A1') (E') (E')
       Virtual   (A2") (E') (E') (A1') (E') (E') (A2") (A1') (A1')
                 (E') (E')
 The electronic state is 1-A1'.
 Alpha  occ. eigenvalues --   -7.57185  -0.70854  -0.50091  -0.50091
 Alpha virt. eigenvalues --    0.07757   0.32468   0.32468   0.35221   0.59825
 Alpha virt. eigenvalues --    0.59825   0.68595   0.77384   1.37440   1.43549
 Alpha virt. eigenvalues --    1.43549
          Condensed to atoms (all electrons):
              1          2          3          4
     1  B    3.649141   0.406575   0.406575   0.406575
     2  H    0.406575   0.687777  -0.025321  -0.025321
     3  H    0.406575  -0.025321   0.687777  -0.025321
     4  H    0.406575  -0.025321  -0.025321   0.687777
 Mulliken atomic charges:
              1
     1  B    0.131133
     2  H   -0.043711
     3  H   -0.043711
     4  H   -0.043711
 Sum of Mulliken atomic charges =   0.00000
 Mulliken charges with hydrogens summed into heavy atoms:
              1
     1  B    0.000000
 Sum of Mulliken charges with hydrogens summed into heavy atoms =   0.00000
 Electronic spatial extent (au):  <R**2>=             34.6348
 Charge=              0.0000 electrons
 Dipole moment (field-independent basis, Debye):
    X=              0.0000    Y=              0.0000    Z=             -0.0000  Tot=              0.0000
 Quadrupole moment (field-independent basis, Debye-Ang):
   XX=             -9.6687   YY=             -9.6687   ZZ=             -7.1836
   XY=             -0.0000   XZ=              0.0000   YZ=             -0.0000
 Traceless Quadrupole moment (field-independent basis, Debye-Ang):
   XX=             -0.8284   YY=             -0.8284   ZZ=              1.6567
   XY=             -0.0000   XZ=              0.0000   YZ=             -0.0000
 Octapole moment (field-independent basis, Debye-Ang**2):
  XXX=              0.0000  YYY=             -0.2416  ZZZ=             -0.0000  XYY=              0.0000
  XXY=              0.2416  XXZ=              0.0000  XZZ=              0.0000  YZZ=              0.0000
  YYZ=             -0.0000  XYZ=             -0.0000
 Hexadecapole moment (field-independent basis, Debye-Ang**3):
 XXXX=            -24.4613 YYYY=            -24.4613 ZZZZ=             -7.1739 XXXY=              0.0000
 XXXZ=              0.0000 YYYX=              0.0000 YYYZ=             -0.0000 ZZZX=              0.0000
 ZZZY=             -0.0000 XXYY=             -8.1538 XXZZ=             -5.3614 YYZZ=             -5.3614
 XXYZ=             -0.0000 YYXZ=              0.0000 ZZXY=              0.0000
 N-N= 7.503576220623D+00 E-N=-7.508594902967D+01  KE= 2.616880290778D+01
 Symmetry A1   KE= 2.474295611230D+01
 Symmetry A2   KE= 0.000000000000D+00
 Symmetry B1   KE= 1.425846795479D+00
 Symmetry B2   KE= 2.149191858753D-33
 Calling FoFJK, ICntrl=      2127 FMM=F ISym2X=1 I1Cent= 0 IOpClX= 0 NMat=1 NMatS=1 NMatT=0.
 ***** Axes restored to original set *****
 -------------------------------------------------------------------
 Center     Atomic                   Forces (Hartrees/Bohr)
 Number     Number              X              Y              Z
 -------------------------------------------------------------------
      1        5           0.000000000    0.000000000    0.000000000
      2        1          -0.000000000    0.008453057    0.000000000
      3        1          -0.007320562   -0.004226528   -0.000000000
      4        1           0.007320562   -0.004226528    0.000000000
 -------------------------------------------------------------------
 Cartesian Forces:  Max     0.008453057 RMS     0.004226528

 GradGradGradGradGradGradGradGradGradGradGradGradGradGradGradGradGradGrad
 Berny optimization.
 Internal  Forces:  Max     0.008453057 RMS     0.005533825
 Search for a local minimum.
 Step number   1 out of a maximum of   20
 All quantities printed in internal units (Hartrees-Bohrs-Radians)
 Mixed Optimization -- RFO/linear search
 Second derivative matrix not updated -- first step.
 The second derivative matrix:
                          R1        R2        R3        A1        A2
           R1           0.26185
           R2           0.00000   0.26185
           R3           0.00000   0.00000   0.26185
           A1           0.00000   0.00000   0.00000   0.16000
           A2           0.00000   0.00000   0.00000   0.00000   0.16000
           A3           0.00000   0.00000   0.00000   0.00000   0.00000
           D1           0.00000   0.00000   0.00000   0.00000   0.00000
                          A3        D1
           A3           0.16000
           D1           0.00000   0.00230
 ITU=  0
     Eigenvalues ---    0.00230   0.16000   0.16000   0.26185   0.26185
     Eigenvalues ---    0.26185
 RFO step:  Lambda=-8.16103755D-04 EMin= 2.30000000D-03
 Linear search not attempted -- first point.
 Iteration  1 RMS(Cart)=  0.02106814 RMS(Int)=  0.00000000
 Iteration  2 RMS(Cart)=  0.00000000 RMS(Int)=  0.00000000
 ClnCor:  largest displacement from symmetrization is 6.26D-15 for atom     2.
 Variable       Old X    -DE/DX   Delta X   Delta X   Delta X     New X
                                 (Linear)    (Quad)   (Total)
    R1        2.22988   0.00845   0.00000   0.03218   0.03218   2.26206
    R2        2.22988   0.00845   0.00000   0.03218   0.03218   2.26206
    R3        2.22988   0.00845   0.00000   0.03218   0.03218   2.26206
    A1        2.09440  -0.00000   0.00000  -0.00000   0.00000   2.09440
    A2        2.09440   0.00000   0.00000   0.00000   0.00000   2.09440
    A3        2.09440  -0.00000   0.00000  -0.00000   0.00000   2.09440
    D1        3.14159   0.00000   0.00000   0.00000   0.00000   3.14159
         Item               Value     Threshold  Converged?
 Maximum Force            0.008453     0.000450     NO 
 RMS     Force            0.005534     0.000300     NO 
 Maximum Displacement     0.032182     0.001800     NO 
 RMS     Displacement     0.021068     0.001200     NO 
 Predicted change in Energy=-4.093237D-04
 GradGradGradGradGradGradGradGradGradGradGradGradGradGradGradGradGradGrad

                          Input orientation:                          
 ---------------------------------------------------------------------
 Center     Atomic      Atomic             Coordinates (Angstroms)
 Number     Number       Type             X           Y           Z
 ---------------------------------------------------------------------
      1          5           0       -0.000000   -0.000000    0.000000
      2          1           0       -0.000000    1.197030    0.000000
      3          1           0       -1.036658   -0.598515   -0.000000
      4          1           0        1.036658   -0.598515    0.000000
 ---------------------------------------------------------------------
                    Distance matrix (angstroms):
                    1          2          3          4
     1  B    0.000000
     2  H    1.197030   0.000000
     3  H    1.197030   2.073317   0.000000
     4  H    1.197030   2.073317   2.073317   0.000000
 Stoichiometry    BH3
 Framework group  D3H[O(B),3C2(H)]
 Deg. of freedom     1
 Full point group                 D3H     NOp  12
 Largest Abelian subgroup         C2V     NOp   4
 Largest concise Abelian subgroup C2      NOp   2
                         Standard orientation:                         
 ---------------------------------------------------------------------
 Center     Atomic      Atomic             Coordinates (Angstroms)
 Number     Number       Type             X           Y           Z
 ---------------------------------------------------------------------
      1          5           0        0.000000    0.000000    0.000000
      2          1           0        0.000000    1.197030    0.000000
      3          1           0        1.036658   -0.598515   -0.000000
      4          1           0       -1.036658   -0.598515   -0.000000
 ---------------------------------------------------------------------
 Rotational constants (GHZ):    233.3085716    233.3085716    116.6542858
 Standard basis: 3-21G (6D, 7F)
 There are     9 symmetry adapted basis functions of A1  symmetry.
 There are     0 symmetry adapted basis functions of A2  symmetry.
 There are     4 symmetry adapted basis functions of B1  symmetry.
 There are     2 symmetry adapted basis functions of B2  symmetry.
 Integral buffers will be    131072 words long.
 Raffenetti 1 integral format.
 Two-electron integral symmetry is turned on.
    15 basis functions,    24 primitive gaussians,    15 cartesian basis functions
     4 alpha electrons        4 beta electrons
       nuclear repulsion energy         7.3968235062 Hartrees.
 NAtoms=    4 NActive=    4 NUniq=    2 SFac= 4.00D+00 NAtFMM=   60 NAOKFM=F Big=F
 One-electron integrals computed using PRISM.
 NBasis=    15 RedAO= T  NBF=     9     0     4     2
 NBsUse=    15 1.00D-06 NBFU=     9     0     4     2
 Initial guess read from the read-write file.
 B after Tr=     0.000000    0.000000    0.000000
         Rot=    1.000000    0.000000    0.000000    0.000000 Ang=   0.00 deg.
 Initial guess orbital symmetries:
       Occupied  (A1') (A1') (E') (E')
       Virtual   (A2") (E') (E') (A1') (E') (E') (A2") (A1') (A1')
                 (E') (E')
 Harris functional with IExCor=  205 diagonalized for initial guess.
 ExpMin= 1.24D-01 ExpMax= 1.16D+02 ExpMxC= 1.16D+02 IAcc=1 IRadAn=         1 AccDes= 0.00D+00
 HarFok:  IExCor=  205 AccDes= 0.00D+00 IRadAn=         1 IDoV= 1
 ScaDFX=  1.000000  1.000000  1.000000  1.000000
 FoFCou: FMM=F IPFlag=           0 FMFlag=      100000 FMFlg1=           0
         NFxFlg=           0 DoJE=T BraDBF=F KetDBF=T FulRan=T
         Omega=  0.000000  0.000000  1.000000  0.000000  0.000000 ICntrl=     500 IOpCl=  0
         NMat0=    1 NMatS0=    1 NMatT0=    0 NMatD0=    1 NMtDS0=    0 NMtDT0=    0
         I1Cent=           4 NGrid=           0.
 Petite list used in FoFCou.
 Requested convergence on RMS density matrix=1.00D-08 within 128 cycles.
 Requested convergence on MAX density matrix=1.00D-06.
 Requested convergence on             energy=1.00D-06.
 No special actions if energy rises.
 Keep R1 ints in memory in canonical form, NReq=827141.
 SCF Done:  E(RHF) =  -26.2371750602     A.U. after    7 cycles
             Convg  =    0.4582D-08             -V/T =  2.0047
 ExpMin= 1.24D-01 ExpMax= 1.16D+02 ExpMxC= 1.16D+02 IAcc=3 IRadAn=         5 AccDes= 0.00D+00
 HarFok:  IExCor=  205 AccDes= 0.00D+00 IRadAn=         5 IDoV=-2
 ScaDFX=  1.000000  1.000000  1.000000  1.000000
 Range of M.O.s used for correlation:     2    15
 NBasis=    15 NAE=     4 NBE=     4 NFC=     1 NFV=     0
 NROrb=     14 NOA=     3 NOB=     3 NVA=    11 NVB=    11
 Fully direct method using O(ONN) memory.
 JobTyp=1 Pass  1:  I=   2 to   4 NPSUse=  1 ParTrn=F ParDer=F DoDerP=T.
 Spin components of T(2) and E(2):
     alpha-alpha T2 =       0.1177786864D-02 E2=     -0.2595951494D-02
     alpha-beta  T2 =       0.2072005416D-01 E2=     -0.5005210683D-01
     beta-beta   T2 =       0.1177786864D-02 E2=     -0.2595951494D-02
 ANorm=    0.1011472010D+01
 E2 =    -0.5524400981D-01 EUMP2 =    -0.26292419070058D+02
          IDoAtm=1111
          Differentiating once with respect to electric field.
                with respect to dipole field.
          Differentiating once with respect to nuclear coordinates.
          Keep R1 ints in memory in canonical form, NReq=807910.
          There are     1 degrees of freedom in the 1st order CPHF.  IDoFFX=0.
 LinEq1:  Iter=  0 NonCon=     1 RMS=3.52D-03 Max=1.40D-02
 AX will form     1 AO Fock derivatives at one time.
 LinEq1:  Iter=  1 NonCon=     1 RMS=6.34D-04 Max=2.31D-03
 LinEq1:  Iter=  2 NonCon=     1 RMS=3.59D-05 Max=1.25D-04
 LinEq1:  Iter=  3 NonCon=     1 RMS=3.38D-06 Max=1.50D-05
 LinEq1:  Iter=  4 NonCon=     1 RMS=1.55D-07 Max=5.44D-07
 LinEq1:  Iter=  5 NonCon=     1 RMS=9.24D-09 Max=3.79D-08
 LinEq1:  Iter=  6 NonCon=     1 RMS=1.92D-10 Max=9.03D-10
 LinEq1:  Iter=  7 NonCon=     0 RMS=9.18D-12 Max=4.52D-11
 Linear equations converged to 1.000D-10 1.000D-09 after     7 iterations.
 End of Minotr Frequency-dependent properties file   721 does not exist.
 End of Minotr Frequency-dependent properties file   722 does not exist.
 Calling FoFJK, ICntrl=      2127 FMM=F ISym2X=1 I1Cent= 0 IOpClX= 0 NMat=1 NMatS=1 NMatT=0.
 ***** Axes restored to original set *****
 -------------------------------------------------------------------
 Center     Atomic                   Forces (Hartrees/Bohr)
 Number     Number              X              Y              Z
 -------------------------------------------------------------------
      1        5           0.000000000   -0.000000000    0.000000000
      2        1           0.000000000   -0.000309358    0.000000000
      3        1           0.000267912    0.000154679   -0.000000000
      4        1          -0.000267912    0.000154679    0.000000000
 -------------------------------------------------------------------
 Cartesian Forces:  Max     0.000309358 RMS     0.000154679

 GradGradGradGradGradGradGradGradGradGradGradGradGradGradGradGradGradGrad
 Berny optimization.
 Using GEDIIS/GDIIS optimizer.
 Internal  Forces:  Max     0.000309358 RMS     0.000202523
 Search for a local minimum.
 Step number   2 out of a maximum of   20
 All quantities printed in internal units (Hartrees-Bohrs-Radians)
 Mixed Optimization -- En-DIIS/RFO-DIIS
 Update second derivatives using D2CorX and points    1    2
 DE= -3.87D-04 DEPred=-4.09D-04 R= 9.46D-01
 SS=  1.41D+00  RLast= 5.57D-02 DXNew= 5.0454D-01 1.6722D-01
 Trust test= 9.46D-01 RLast= 5.57D-02 DXMaxT set to 3.00D-01
 The second derivative matrix:
                          R1        R2        R3        A1        A2
           R1           0.26532
           R2           0.00348   0.26532
           R3           0.00348   0.00348   0.26532
           A1           0.00000   0.00000   0.00000   0.16000
           A2           0.00000   0.00000   0.00000   0.00000   0.16000
           A3          -0.00000  -0.00000  -0.00000  -0.00000  -0.00000
           D1          -0.00000  -0.00000  -0.00000  -0.00000  -0.00000
                          A3        D1
           A3           0.16000
           D1           0.00000   0.00230
 ITU=  1  0
 Use linear search instead of GDIIS.
     Eigenvalues ---    0.00230   0.16000   0.16000   0.26185   0.26185
     Eigenvalues ---    0.27228
 RFO step:  Lambda= 0.00000000D+00 EMin= 2.30000000D-03
 Quartic linear search produced a step of -0.03680.
 Iteration  1 RMS(Cart)=  0.00077521 RMS(Int)=  0.00000000
 Iteration  2 RMS(Cart)=  0.00000000 RMS(Int)=  0.00000000
 ClnCor:  largest displacement from symmetrization is 5.62D-15 for atom     3.
 Variable       Old X    -DE/DX   Delta X   Delta X   Delta X     New X
                                 (Linear)    (Quad)   (Total)
    R1        2.26206  -0.00031  -0.00118   0.00000  -0.00118   2.26087
    R2        2.26206  -0.00031  -0.00118  -0.00000  -0.00118   2.26087
    R3        2.26206  -0.00031  -0.00118  -0.00000  -0.00118   2.26087
    A1        2.09440  -0.00000  -0.00000  -0.00000   0.00000   2.09440
    A2        2.09440   0.00000  -0.00000   0.00000  -0.00000   2.09440
    A3        2.09440   0.00000   0.00000   0.00000   0.00000   2.09440
    D1        3.14159   0.00000   0.00000   0.00000   0.00000   3.14159
         Item               Value     Threshold  Converged?
 Maximum Force            0.000309     0.000450     YES
 RMS     Force            0.000203     0.000300     YES
 Maximum Displacement     0.001184     0.001800     YES
 RMS     Displacement     0.000775     0.001200     YES
 Predicted change in Energy=-5.262972D-07
 Optimization completed.
    -- Stationary point found.
                           ----------------------------
                           !   Optimized Parameters   !
                           ! (Angstroms and Degrees)  !
 --------------------------                            --------------------------
 ! Name  Definition              Value          Derivative Info.                !
 --------------------------------------------------------------------------------
 ! R1    R(1,2)                  1.197          -DE/DX =   -0.0003              !
 ! R2    R(1,3)                  1.197          -DE/DX =   -0.0003              !
 ! R3    R(1,4)                  1.197          -DE/DX =   -0.0003              !
 ! A1    A(2,1,3)              120.0            -DE/DX =    0.0                 !
 ! A2    A(2,1,4)              120.0            -DE/DX =    0.0                 !
 ! A3    A(3,1,4)              120.0            -DE/DX =    0.0                 !
 ! D1    D(2,1,4,3)            180.0            -DE/DX =    0.0                 !
 --------------------------------------------------------------------------------
 GradGradGradGradGradGradGradGradGradGradGradGradGradGradGradGradGradGrad

                          Input orientation:                          
 ---------------------------------------------------------------------
 Center     Atomic      Atomic             Coordinates (Angstroms)
 Number     Number       Type             X           Y           Z
 ---------------------------------------------------------------------
      1          5           0        0.000000   -0.000000    0.000000
      2          1           0       -0.000000    1.197030    0.000000
      3          1           0       -1.036658   -0.598515   -0.000000
      4          1           0        1.036658   -0.598515    0.000000
 ---------------------------------------------------------------------
                    Distance matrix (angstroms):
                    1          2          3          4
     1  B    0.000000
     2  H    1.197030   0.000000
     3  H    1.197030   2.073317   0.000000
     4  H    1.197030   2.073317   2.073317   0.000000
 Stoichiometry    BH3
 Framework group  D3H[O(B),3C2(H)]
 Deg. of freedom     1
 Full point group                 D3H     NOp  12
 Largest Abelian subgroup         C2V     NOp   4
 Largest concise Abelian subgroup C2      NOp   2
                         Standard orientation:                         
 ---------------------------------------------------------------------
 Center     Atomic      Atomic             Coordinates (Angstroms)
 Number     Number       Type             X           Y           Z
 ---------------------------------------------------------------------
      1          5           0        0.000000    0.000000    0.000000
      2          1           0        0.000000    1.197030    0.000000
      3          1           0        1.036658   -0.598515    0.000000
      4          1           0       -1.036658   -0.598515    0.000000
 ---------------------------------------------------------------------
 Rotational constants (GHZ):    233.3085716    233.3085716    116.6542858

 **********************************************************************

            Population analysis using the SCF density.

 **********************************************************************

 Orbital symmetries:
       Occupied  (A1') (A1') (E') (E')
       Virtual   (A2") (E') (E') (A1') (E') (E') (A2") (A1') (A1')
                 (E') (E')
 The electronic state is 1-A1'.
 Alpha  occ. eigenvalues --   -7.57772  -0.70469  -0.49803  -0.49803
 Alpha virt. eigenvalues --    0.07654   0.32167   0.32167   0.34380   0.59888
 Alpha virt. eigenvalues --    0.59888   0.68404   0.78164   1.35866   1.42203
 Alpha virt. eigenvalues --    1.42203
          Condensed to atoms (all electrons):
              1          2          3          4
     1  B    3.660460   0.404157   0.404157   0.404157
     2  H    0.404157   0.687146  -0.024473  -0.024473
     3  H    0.404157  -0.024473   0.687146  -0.024473
     4  H    0.404157  -0.024473  -0.024473   0.687146
 Mulliken atomic charges:
              1
     1  B    0.127068
     2  H   -0.042356
     3  H   -0.042356
     4  H   -0.042356
 Sum of Mulliken atomic charges =   0.00000
 Mulliken charges with hydrogens summed into heavy atoms:
              1
     1  B    0.000000
 Sum of Mulliken charges with hydrogens summed into heavy atoms =   0.00000
 Electronic spatial extent (au):  <R**2>=             35.2321
 Charge=              0.0000 electrons
 Dipole moment (field-independent basis, Debye):
    X=             -0.0000    Y=             -0.0000    Z=              0.0000  Tot=              0.0000
 Quadrupole moment (field-independent basis, Debye-Ang):
   XX=             -9.7412   YY=             -9.7412   ZZ=             -7.2587
   XY=             -0.0000   XZ=              0.0000   YZ=             -0.0000
 Traceless Quadrupole moment (field-independent basis, Debye-Ang):
   XX=             -0.8275   YY=             -0.8275   ZZ=              1.6550
   XY=             -0.0000   XZ=              0.0000   YZ=             -0.0000
 Octapole moment (field-independent basis, Debye-Ang**2):
  XXX=              0.0000  YYY=             -0.2257  ZZZ=              0.0000  XYY=              0.0000
  XXY=              0.2257  XXZ=              0.0000  XZZ=              0.0000  YZZ=              0.0000
  YYZ=              0.0000  XYZ=             -0.0000
 Hexadecapole moment (field-independent basis, Debye-Ang**3):
 XXXX=            -25.0701 YYYY=            -25.0701 ZZZZ=             -7.3067 XXXY=              0.0000
 XXXZ=              0.0000 YYYX=              0.0000 YYYZ=             -0.0000 ZZZX=              0.0000
 ZZZY=             -0.0000 XXYY=             -8.3567 XXZZ=             -5.4961 YYZZ=             -5.4961
 XXYZ=             -0.0000 YYXZ=              0.0000 ZZXY=              0.0000
 N-N= 7.396823506182D+00 E-N=-7.482567761134D+01  KE= 2.611462783883D+01
 Symmetry A1   KE= 2.470786435470D+01
 Symmetry A2   KE= 0.000000000000D+00
 Symmetry B1   KE= 1.406763484127D+00
 Symmetry B2   KE= 2.124300343403D-33
 1\1\GINC-SRU01\FOpt\RMP2-FC\3-21G\B1H3\JAMES\17-Sep-2023\0\\# opt freq
 =hpmodes mp2/3-21g geom=connectivity\\Title Card Required\\0,1\B,0.,0.
 ,0.\H,-0.0000000018,1.1970300404,0.\H,-1.0366584232,-0.5985150217,0.\H
 ,1.036658425,-0.5985150186,0.\\Version=AM64L-G09RevC.01\State=1-A1'\HF
 =-26.2371751\MP2=-26.2924191\RMSD=4.582e-09\RMSF=1.547e-04\Dipole=0.,0
 .,0.\PG=D03H [O(B1),3C2(H1)]\\@


 DESK:  A WASTEBASKET WITH DRAWERS.
 Job cpu time:  0 days  0 hours  0 minutes  1.3 seconds.
 File lengths (MBytes):  RWF=      5 Int=      0 D2E=      0 Chk=      2 Scr=      1
 Normal termination of Gaussian 09 at Sun Sep 17 23:50:09 2023.
 Link1:  Proceeding to internal job step number  2.
 -------------------------------------------------------------------
 #N Geom=AllCheck Guess=TCheck SCRF=Check GenChk RMP2(FC)/3-21G Freq
 -------------------------------------------------------------------
 1/10=4,29=7,30=1,38=1,40=1/1,3;
 2/12=2,40=1/2;
 3/5=5,11=1,14=-4,16=1,25=1,30=1,70=2,71=2,116=1/1,2,3;
 4/5=101/1;
 5/5=2,98=1/2;
 8/6=3,8=1,10=1,19=11,30=-1/1;
 9/15=3,16=-3/6;
 11/6=1,8=1,15=11,17=12,24=-1,27=1,28=-2,29=300,32=6,42=3/1,2,10;
 10/6=2,21=1/2;
 8/6=4,8=1,10=1,19=11,30=-1/11,4;
 10/5=1,20=4/2;
 11/12=2,14=11,16=1,17=2,28=-2,42=3/2,10,12;
 6/7=2,8=2,9=2,10=2/1;
 7/8=11,10=1,12=2,25=1,44=2/1,2,3,16;
 1/10=4,30=1/3;
 99//99;
 Structure from the checkpoint file:  BH3.chk
 -------------------
 Title Card Required
 -------------------
 Charge =  0 Multiplicity = 1
 Redundant internal coordinates found in file.
 B,0,0.,0.,0.
 H,0,-0.0000000018,1.1970300404,0.
 H,0,-1.0366584232,-0.5985150217,0.
 H,0,1.036658425,-0.5985150186,0.
 Recover connectivity data from disk.

 GradGradGradGradGradGradGradGradGradGradGradGradGradGradGradGradGradGrad
 Berny optimization.
 Initialization pass.
                           ----------------------------
                           !    Initial Parameters    !
                           ! (Angstroms and Degrees)  !
 --------------------------                            --------------------------
 ! Name  Definition              Value          Derivative Info.                !
 --------------------------------------------------------------------------------
 ! R1    R(1,2)                  1.197          calculate D2E/DX2 analytically  !
 ! R2    R(1,3)                  1.197          calculate D2E/DX2 analytically  !
 ! R3    R(1,4)                  1.197          calculate D2E/DX2 analytically  !
 ! A1    A(2,1,3)              120.0            calculate D2E/DX2 analytically  !
 ! A2    A(2,1,4)              120.0            calculate D2E/DX2 analytically  !
 ! A3    A(3,1,4)              120.0            calculate D2E/DX2 analytically  !
 ! D1    D(2,1,4,3)            180.0            calculate D2E/DX2 analytically  !
 --------------------------------------------------------------------------------
 Trust Radius=3.00D-01 FncErr=1.00D-07 GrdErr=1.00D-07
 Number of steps in this run=      2 maximum allowed number of steps=      2.
 GradGradGradGradGradGradGradGradGradGradGradGradGradGradGradGradGradGrad

                          Input orientation:                          
 ---------------------------------------------------------------------
 Center     Atomic      Atomic             Coordinates (Angstroms)
 Number     Number       Type             X           Y           Z
 ---------------------------------------------------------------------
      1          5           0        0.000000   -0.000000    0.000000
      2          1           0       -0.000000    1.197030    0.000000
      3          1           0       -1.036658   -0.598515   -0.000000
      4          1           0        1.036658   -0.598515    0.000000
 ---------------------------------------------------------------------
                    Distance matrix (angstroms):
                    1          2          3          4
     1  B    0.000000
     2  H    1.197030   0.000000
     3  H    1.197030   2.073317   0.000000
     4  H    1.197030   2.073317   2.073317   0.000000
 Stoichiometry    BH3
 Framework group  D3H[O(B),3C2(H)]
 Deg. of freedom     1
 Full point group                 D3H     NOp  12
 Largest Abelian subgroup         C2V     NOp   4
 Largest concise Abelian subgroup C2      NOp   2
                         Standard orientation:                         
 ---------------------------------------------------------------------
 Center     Atomic      Atomic             Coordinates (Angstroms)
 Number     Number       Type             X           Y           Z
 ---------------------------------------------------------------------
      1          5           0        0.000000    0.000000    0.000000
      2          1           0        0.000000    1.197030    0.000000
      3          1           0        1.036658   -0.598515   -0.000000
      4          1           0       -1.036658   -0.598515   -0.000000
 ---------------------------------------------------------------------
 Rotational constants (GHZ):    233.3085716    233.3085716    116.6542858
 Standard basis: 3-21G (6D, 7F)
 There are     9 symmetry adapted basis functions of A1  symmetry.
 There are     0 symmetry adapted basis functions of A2  symmetry.
 There are     4 symmetry adapted basis functions of B1  symmetry.
 There are     2 symmetry adapted basis functions of B2  symmetry.
 Integral buffers will be    131072 words long.
 Raffenetti 1 integral format.
 Two-electron integral symmetry is turned on.
    15 basis functions,    24 primitive gaussians,    15 cartesian basis functions
     4 alpha electrons        4 beta electrons
       nuclear repulsion energy         7.3968235062 Hartrees.
 NAtoms=    4 NActive=    4 NUniq=    2 SFac= 4.00D+00 NAtFMM=   60 NAOKFM=F Big=F
 One-electron integrals computed using PRISM.
 NBasis=    15 RedAO= T  NBF=     9     0     4     2
 NBsUse=    15 1.00D-06 NBFU=     9     0     4     2
 Initial guess read from the checkpoint file:  BH3.chk
 B after Tr=     0.000000    0.000000    0.000000
         Rot=    1.000000   -0.000000    0.000000    0.000000 Ang=   0.00 deg.
 Initial guess orbital symmetries:
       Occupied  (A1') (A1') (E') (E')
       Virtual   (A2") (E') (E') (A1') (E') (E') (A2") (A1') (A1')
                 (E') (E')
 Requested convergence on RMS density matrix=1.00D-08 within 128 cycles.
 Requested convergence on MAX density matrix=1.00D-06.
 Requested convergence on             energy=1.00D-06.
 No special actions if energy rises.
 Keep R1 ints in memory in canonical form, NReq=827141.
 SCF Done:  E(RHF) =  -26.2371750602     A.U. after    1 cycles
             Convg  =    0.2062D-09             -V/T =  2.0047
 ExpMin= 1.24D-01 ExpMax= 1.16D+02 ExpMxC= 1.16D+02 IAcc=3 IRadAn=         5 AccDes= 0.00D+00
 HarFok:  IExCor=  205 AccDes= 0.00D+00 IRadAn=         5 IDoV=-2
 ScaDFX=  1.000000  1.000000  1.000000  1.000000
 Range of M.O.s used for correlation:     2    15
 NBasis=    15 NAE=     4 NBE=     4 NFC=     1 NFV=     0
 NROrb=     14 NOA=     3 NOB=     3 NVA=    11 NVB=    11
 Disk-based method using ON**2 memory for  3 occupieds at a time.
 Permanent disk used for amplitudes=        2266 words.
 Estimated scratch disk usage=      793870 words.
 Actual    scratch disk usage=      793870 words.
 JobTyp=1 Pass  1:  I=   2 to   4 NPSUse=  1 ParTrn=F ParDer=F DoDerP=T.
 (rs|ai) integrals will be sorted in core.
 Spin components of T(2) and E(2):
     alpha-alpha T2 =       0.1177786863D-02 E2=     -0.2595951493D-02
     alpha-beta  T2 =       0.2072005417D-01 E2=     -0.5005210684D-01
     beta-beta   T2 =       0.1177786863D-02 E2=     -0.2595951493D-02
 ANorm=    0.1011472010D+01
 E2 =    -0.5524400982D-01 EUMP2 =    -0.26292419070068D+02
 G2DrvN: will do     5 centers at a time, making    1 passes doing MaxLOS=1.
 Calling FoFCou, ICntrl=  3107 FMM=F I1Cent=   0 AccDes= 0.00D+00.
 FoFDir/FoFCou used for L=0 through L=1.
 End of G2Drv Frequency-dependent properties file   721 does not exist.
 End of G2Drv Frequency-dependent properties file   722 does not exist.
          IDoAtm=1111
          Differentiating once with respect to electric field.
                with respect to dipole field.
          Differentiating once with respect to nuclear coordinates.
          Keep R1 ints in memory in canonical form, NReq=807910.
          There are    15 degrees of freedom in the 1st order CPHF.  IDoFFX=5.
     12 vectors produced by pass  0 Test12= 2.93D-16 6.67D-09 XBig12= 3.46D+00 1.29D+00.
 AX will form    12 AO Fock derivatives at one time.
     12 vectors produced by pass  1 Test12= 2.93D-16 6.67D-09 XBig12= 4.33D-03 4.05D-02.
      8 vectors produced by pass  2 Test12= 2.93D-16 6.67D-09 XBig12= 8.13D-06 1.48D-03.
      7 vectors produced by pass  3 Test12= 2.93D-16 6.67D-09 XBig12= 2.82D-08 8.66D-05.
      1 vectors produced by pass  4 Test12= 2.93D-16 6.67D-09 XBig12= 6.30D-12 1.59D-06.
      1 vectors produced by pass  5 Test12= 2.93D-16 6.67D-09 XBig12= 2.62D-14 1.08D-07.
 Inverted reduced A of dimension    41 with in-core refinement.
 End of Minotr Frequency-dependent properties file   721 does not exist.
 End of Minotr Frequency-dependent properties file   722 does not exist.
 MDV=    33554432.
 Form MO integral derivatives with frozen-active canonical formalism.
 Discarding MO integrals.
 Reordered first order wavefunction length =         3872
 In DefCFB: NBatch=  1 ICI=  4 ICA= 11 LFMax= 11
            Large arrays: LIAPS=       39600 LIARS=       41580 words.
 Semi-Direct transformation.
 ModeAB=           4 MOrb=             4 LenV=      33444247
 LASXX=         4971 LTotXX=        4971 LenRXX=       11011
 LTotAB=        6040 MaxLAS=        6360 LenRXY=           0
 NonZer=       15982 LenScr=      785920 LnRSAI=        6360
 LnScr1=      785920 LExtra=           0 Total=      1589211
 MaxDsk=          -1 SrtSym=           T ITran=            4
 JobTyp=0 Pass  1:  I=   1 to   4.
 (rs|ai) integrals will be sorted in core.
 Spin components of T(2) and E(2):
     alpha-alpha T2 =       0.1177786863D-02 E2=     -0.2595951493D-02
     alpha-beta  T2 =       0.2072005417D-01 E2=     -0.5005210684D-01
     beta-beta   T2 =       0.1177786863D-02 E2=     -0.2595951493D-02
 ANorm=    0.1430437435D+01
 E2 =    -0.5524400982D-01 EUMP2 =    -0.26292419070068D+02
          IDoAtm=1111
          Differentiating once with respect to electric field.
                with respect to dipole field.
          Differentiating once with respect to nuclear coordinates.
          There are     1 degrees of freedom in the 1st order CPHF.  IDoFFX=0.
 LinEq1:  Iter=  0 NonCon=     1 RMS=3.52D-03 Max=1.40D-02
 LinEq1:  Iter=  1 NonCon=     1 RMS=6.34D-04 Max=2.31D-03
 LinEq1:  Iter=  2 NonCon=     1 RMS=3.59D-05 Max=1.25D-04
 LinEq1:  Iter=  3 NonCon=     1 RMS=3.38D-06 Max=1.50D-05
 LinEq1:  Iter=  4 NonCon=     1 RMS=1.55D-07 Max=5.44D-07
 LinEq1:  Iter=  5 NonCon=     1 RMS=9.24D-09 Max=3.79D-08
 LinEq1:  Iter=  6 NonCon=     1 RMS=1.92D-10 Max=9.03D-10
 LinEq1:  Iter=  7 NonCon=     0 RMS=9.18D-12 Max=4.52D-11
 Linear equations converged to 1.000D-10 1.000D-09 after     7 iterations.
 End of Minotr Frequency-dependent properties file   721 does not exist.
 End of Minotr Frequency-dependent properties file   722 does not exist.
 Symmetrizing basis deriv contribution to polar:
 IMax=3 JMax=2 DiffMx= 0.00D+00
 G2DrvN: will do     5 centers at a time, making    1 passes doing MaxLOS=1.
 Calling FoFCou, ICntrl=  3107 FMM=F I1Cent=   0 AccDes= 0.00D+00.
 FoFDir/FoFCou used for L=0 through L=1.
 End of G2Drv Frequency-dependent properties file   721 does not exist.
 End of G2Drv Frequency-dependent properties file   722 does not exist.
 R2 and R3 integrals will be kept in memory, NReq=      814520.
 DD1Dir will call FoFMem   1 times, MxPair=        20
 NAB=    10 NAA=     0 NBB=     0.
 Discarding MO integrals.

 **********************************************************************

            Population analysis using the SCF density.

 **********************************************************************

 Orbital symmetries:
       Occupied  (A1') (A1') (E') (E')
       Virtual   (A2") (E') (E') (A1') (E') (E') (A2") (A1') (A1')
                 (E') (E')
 The electronic state is 1-A1'.
 Alpha  occ. eigenvalues --   -7.57772  -0.70469  -0.49803  -0.49803
 Alpha virt. eigenvalues --    0.07654   0.32167   0.32167   0.34380   0.59888
 Alpha virt. eigenvalues --    0.59888   0.68404   0.78164   1.35866   1.42203
 Alpha virt. eigenvalues --    1.42203
          Condensed to atoms (all electrons):
              1          2          3          4
     1  B    3.660460   0.404157   0.404157   0.404157
     2  H    0.404157   0.687146  -0.024473  -0.024473
     3  H    0.404157  -0.024473   0.687146  -0.024473
     4  H    0.404157  -0.024473  -0.024473   0.687146
 Mulliken atomic charges:
              1
     1  B    0.127068
     2  H   -0.042356
     3  H   -0.042356
     4  H   -0.042356
 Sum of Mulliken atomic charges =   0.00000
 Mulliken charges with hydrogens summed into heavy atoms:
              1
     1  B    0.000000
 Sum of Mulliken charges with hydrogens summed into heavy atoms =   0.00000
 APT atomic charges:
              1
     1  B    0.523855
     2  H   -0.174618
     3  H   -0.174618
     4  H   -0.174618
 Sum of APT charges=   0.00000
 APT Atomic charges with hydrogens summed into heavy atoms:
              1
     1  B    0.000000
     2  H    0.000000
     3  H    0.000000
     4  H    0.000000
 Sum of APT charges=   0.00000
 Electronic spatial extent (au):  <R**2>=             35.2321
 Charge=             -0.0000 electrons
 Dipole moment (field-independent basis, Debye):
    X=             -0.0000    Y=             -0.0000    Z=              0.0000  Tot=              0.0000
 Quadrupole moment (field-independent basis, Debye-Ang):
   XX=             -9.7412   YY=             -9.7412   ZZ=             -7.2587
   XY=              0.0000   XZ=             -0.0000   YZ=             -0.0000
 Traceless Quadrupole moment (field-independent basis, Debye-Ang):
   XX=             -0.8275   YY=             -0.8275   ZZ=              1.6550
   XY=              0.0000   XZ=             -0.0000   YZ=             -0.0000
 Octapole moment (field-independent basis, Debye-Ang**2):
  XXX=              0.0000  YYY=             -0.2257  ZZZ=              0.0000  XYY=              0.0000
  XXY=              0.2257  XXZ=              0.0000  XZZ=              0.0000  YZZ=              0.0000
  YYZ=              0.0000  XYZ=              0.0000
 Hexadecapole moment (field-independent basis, Debye-Ang**3):
 XXXX=            -25.0701 YYYY=            -25.0701 ZZZZ=             -7.3067 XXXY=              0.0000
 XXXZ=             -0.0000 YYYX=              0.0000 YYYZ=             -0.0000 ZZZX=             -0.0000
 ZZZY=             -0.0000 XXYY=             -8.3567 XXZZ=             -5.4961 YYZZ=             -5.4961
 XXYZ=             -0.0000 YYXZ=             -0.0000 ZZXY=              0.0000
 N-N= 7.396823506182D+00 E-N=-7.482567761157D+01  KE= 2.611462783856D+01
 Symmetry A1   KE= 2.470786435354D+01
 Symmetry A2   KE= 0.000000000000D+00
 Symmetry B1   KE= 1.406763485023D+00
 Symmetry B2   KE= 2.124300346791D-33
  Exact polarizability:  14.951  -0.000  14.951   0.000  -0.000   7.309
 Approx polarizability:  11.858  -0.000  11.858   0.000   0.000   5.232
 Calling FoFJK, ICntrl=    100127 FMM=F ISym2X=1 I1Cent= 0 IOpClX= 0 NMat=1 NMatS=1 NMatT=0.
 Full mass-weighted force constant matrix:
 Low frequencies ---   -0.0010   -0.0008   -0.0007   59.8812   59.8812   59.8812
 Low frequencies --- 1185.7558 1251.9902 1251.9902
 Harmonic frequencies (cm**-1), IR intensities (KM/Mole), Raman scattering
 activities (A**4/AMU), depolarization ratios for plane and unpolarized
 incident light, reduced masses (AMU), force constants (mDyne/A),
 and normal coordinates:
                           1         2         3         4         5
                          A2"       E'        E'        A1'       E'
       Frequencies ---  1185.7558 1251.9902 1251.9902 2615.3897 2753.5320
    Reduced masses ---     1.2531    1.1088    1.1088    1.0078    1.1257
   Force constants ---     1.0381    1.0240    1.0240    4.0617    5.0285
    IR Intensities ---   112.2889   18.7933   18.7933    0.0000  110.1360
 Coord Atom Element:
   1     1     5         -0.00000   0.06631  -0.07547   0.00000   0.10158
   2     1     5         -0.00000   0.07547   0.06631   0.00000   0.03826
   3     1     5          0.15660   0.00000  -0.00000  -0.00000   0.00000
   1     2     1          0.00000  -0.53378   0.60752  -0.00000   0.01955
   2     2     1          0.00000   0.05789   0.05086   0.57735  -0.28601
   3     2     1         -0.57023  -0.00000   0.00000   0.00000  -0.00000
   1     3     1          0.00000  -0.38343  -0.14470   0.50000  -0.43757
   2     3     1          0.00000  -0.69432  -0.09949  -0.28868   0.27128
   3     3     1         -0.57023  -0.00000   0.00000   0.00000  -0.00000
   1     4     1          0.00000   0.19283   0.36162  -0.50000  -0.69164
   2     4     1         -0.00000  -0.18801  -0.67575  -0.28868  -0.40324
   3     4     1         -0.57023  -0.00000   0.00000   0.00000  -0.00000
                           6
                          E'
       Frequencies ---  2753.5320
    Reduced masses ---     1.1257
   Force constants ---     5.0285
    IR Intensities ---   110.1360
 Coord Atom Element:
   1     1     5         -0.03826
   2     1     5          0.10158
   3     1     5          0.00000
   1     2     1         -0.00736
   2     2     1         -0.75932
   3     2     1         -0.00000
   1     3     1          0.54993
   2     3     1         -0.30220
   3     3     1         -0.00000
   1     4     1         -0.12460
   2     4     1         -0.04813
   3     4     1         -0.00000
 Harmonic frequencies (cm**-1), IR intensities (KM/Mole), Raman scattering
 activities (A**4/AMU), depolarization ratios for plane and unpolarized
 incident light, reduced masses (AMU), force constants (mDyne/A),
 and normal coordinates:
                     1                      2                      3
                    A2"                    E'                     E'
 Frequencies --  1185.7558              1251.9902              1251.9902
 Red. masses --     1.2531                 1.1088                 1.1088
 Frc consts  --     1.0381                 1.0240                 1.0240
 IR Inten    --   112.2889                18.7933                18.7933
  Atom  AN      X      Y      Z        X      Y      Z        X      Y      Z
     1   5    -0.00  -0.00   0.16     0.07   0.08   0.00    -0.08   0.07  -0.00
     2   1     0.00   0.00  -0.57    -0.53   0.06  -0.00     0.61   0.05   0.00
     3   1     0.00   0.00  -0.57    -0.38  -0.69  -0.00    -0.14  -0.10   0.00
     4   1     0.00  -0.00  -0.57     0.19  -0.19  -0.00     0.36  -0.68   0.00
                     4                      5                      6
                    A1'                    E'                     E'
 Frequencies --  2615.3897              2753.5320              2753.5320
 Red. masses --     1.0078                 1.1257                 1.1257
 Frc consts  --     4.0617                 5.0285                 5.0285
 IR Inten    --     0.0000               110.1360               110.1360
  Atom  AN      X      Y      Z        X      Y      Z        X      Y      Z
     1   5     0.00   0.00  -0.00     0.10   0.04   0.00    -0.04   0.10   0.00
     2   1    -0.00   0.58   0.00     0.02  -0.29  -0.00    -0.01  -0.76  -0.00
     3   1     0.50  -0.29   0.00    -0.44   0.27  -0.00     0.55  -0.30  -0.00
     4   1    -0.50  -0.29   0.00    -0.69  -0.40  -0.00    -0.12  -0.05  -0.00

 -------------------
 - Thermochemistry -
 -------------------
 Temperature   298.150 Kelvin.  Pressure   1.00000 Atm.
 Atom     1 has atomic number  5 and mass  11.00931
 Atom     2 has atomic number  1 and mass   1.00783
 Atom     3 has atomic number  1 and mass   1.00783
 Atom     4 has atomic number  1 and mass   1.00783
 Molecular mass:    14.03278 amu.
 Principal axes and moments of inertia in atomic units:
                           1         2         3
     Eigenvalues --     7.73543   7.73543  15.47085
           X           -0.43319   0.90130   0.00000
           Y            0.90130   0.43319   0.00000
           Z            0.00000   0.00000   1.00000
 This molecule is an oblate symmetric top.
 Rotational symmetry number  6.
 Rotational temperatures (Kelvin)     11.19703    11.19703     5.59852
 Rotational constants (GHZ):         233.30857   233.30857   116.65429
 Zero-point vibrational energy      70652.6 (Joules/Mol)
                                   16.88637 (Kcal/Mol)
 Vibrational temperatures:   1706.04  1801.33  1801.33  3762.96  3961.71
          (Kelvin)           3961.71
 
 Zero-point correction=                           0.026910 (Hartree/Particle)
 Thermal correction to Energy=                    0.029788
 Thermal correction to Enthalpy=                  0.030732
 Thermal correction to Gibbs Free Energy=         0.009349
 Sum of electronic and zero-point Energies=            -26.265509
 Sum of electronic and thermal Energies=               -26.262631
 Sum of electronic and thermal Enthalpies=             -26.261687
 Sum of electronic and thermal Free Energies=          -26.283070
 
                     E (Thermal)             CV                S
                      KCal/Mol        Cal/Mol-Kelvin    Cal/Mol-Kelvin
 Total                   18.692              6.525             45.004
 Electronic               0.000              0.000              0.000
 Translational            0.889              2.981             33.864
 Rotational               0.889              2.981             11.029
 Vibrational             16.915              0.563              0.111
                       Q            Log10(Q)             Ln(Q)
 Total Bot       0.500978D-04         -4.300181         -9.901533
 Total V=0       0.119564D+09          8.077602         18.599365
 Vib (Bot)       0.422388D-12        -12.374288        -28.492852
 Vib (V=0)       0.100808D+01          0.003494          0.008046
 Electronic      0.100000D+01          0.000000          0.000000
 Translational   0.206619D+07          6.315171         14.541218
 Rotational      0.574033D+02          1.758937          4.050101
 ***** Axes restored to original set *****
 -------------------------------------------------------------------
 Center     Atomic                   Forces (Hartrees/Bohr)
 Number     Number              X              Y              Z
 -------------------------------------------------------------------
      1        5           0.000000000    0.000000000    0.000000000
      2        1           0.000000000   -0.000309358   -0.000000000
      3        1           0.000267912    0.000154679    0.000000000
      4        1          -0.000267912    0.000154679   -0.000000000
 -------------------------------------------------------------------
 Cartesian Forces:  Max     0.000309358 RMS     0.000154679

 GradGradGradGradGradGradGradGradGradGradGradGradGradGradGradGradGradGrad
 Berny optimization.
 Internal  Forces:  Max     0.000309358 RMS     0.000202523
 Search for a local minimum.
 Step number   1 out of a maximum of    2
 All quantities printed in internal units (Hartrees-Bohrs-Radians)
 Second derivative matrix not updated -- analytic derivatives used.
 The second derivative matrix:
                          R1        R2        R3        A1        A2
           R1           0.25774
           R2           0.00157   0.25774
           R3           0.00157   0.00157   0.25774
           A1           0.00508   0.00508  -0.01015   0.06065
           A2           0.00508  -0.01015   0.00508  -0.03033   0.06065
           A3          -0.01015   0.00508   0.00508  -0.03033  -0.03033
           D1           0.00000  -0.00000   0.00000  -0.00000  -0.00000
                          A3        D1
           A3           0.06065
           D1           0.00000   0.05364
 ITU=  0
     Eigenvalues ---    0.05364   0.08959   0.08959   0.25756   0.25756
     Eigenvalues ---    0.26089
 Angle between quadratic step and forces=   0.00 degrees.
 Linear search not attempted -- first point.
 Iteration  1 RMS(Cart)=  0.00077629 RMS(Int)=  0.00000000
 Iteration  2 RMS(Cart)=  0.00000000 RMS(Int)=  0.00000000
 ClnCor:  largest displacement from symmetrization is 8.28D-15 for atom     2.
 Variable       Old X    -DE/DX   Delta X   Delta X   Delta X     New X
                                 (Linear)    (Quad)   (Total)
    R1        2.26206  -0.00031   0.00000  -0.00119  -0.00119   2.26087
    R2        2.26206  -0.00031   0.00000  -0.00119  -0.00119   2.26087
    R3        2.26206  -0.00031   0.00000  -0.00119  -0.00119   2.26087
    A1        2.09440  -0.00000   0.00000  -0.00000   0.00000   2.09440
    A2        2.09440   0.00000   0.00000   0.00000   0.00000   2.09440
    A3        2.09440   0.00000   0.00000   0.00000   0.00000   2.09440
    D1        3.14159  -0.00000   0.00000  -0.00000   0.00000   3.14159
         Item               Value     Threshold  Converged?
 Maximum Force            0.000309     0.000450     YES
 RMS     Force            0.000203     0.000300     YES
 Maximum Displacement     0.001186     0.001800     YES
 RMS     Displacement     0.000776     0.001200     YES
 Predicted change in Energy=-5.502571D-07
 Optimization completed.
    -- Stationary point found.
                           ----------------------------
                           !   Optimized Parameters   !
                           ! (Angstroms and Degrees)  !
 --------------------------                            --------------------------
 ! Name  Definition              Value          Derivative Info.                !
 --------------------------------------------------------------------------------
 ! R1    R(1,2)                  1.197          -DE/DX =   -0.0003              !
 ! R2    R(1,3)                  1.197          -DE/DX =   -0.0003              !
 ! R3    R(1,4)                  1.197          -DE/DX =   -0.0003              !
 ! A1    A(2,1,3)              120.0            -DE/DX =    0.0                 !
 ! A2    A(2,1,4)              120.0            -DE/DX =    0.0                 !
 ! A3    A(3,1,4)              120.0            -DE/DX =    0.0                 !
 ! D1    D(2,1,4,3)            180.0            -DE/DX =    0.0                 !
 --------------------------------------------------------------------------------
 GradGradGradGradGradGradGradGradGradGradGradGradGradGradGradGradGradGrad

 1\1\GINC-SRU01\Freq\RMP2-FC\3-21G\B1H3\JAMES\17-Sep-2023\0\\#N Geom=Al
 lCheck Guess=TCheck SCRF=Check GenChk RMP2(FC)/3-21G Freq\\Title Card 
 Required\\0,1\B,0.,0.,0.\H,-0.0000000018,1.1970300404,0.\H,-1.03665842
 32,-0.5985150217,0.\H,1.036658425,-0.5985150186,0.\\Version=AM64L-G09R
 evC.01\State=1-A1'\HF=-26.2371751\MP2=-26.2924191\RMSD=2.062e-10\RMSF=
 1.547e-04\ZeroPoint=0.0269101\Thermal=0.0297877\Dipole=0.,0.,0.\Dipole
 Deriv=0.5244312,0.,0.,0.,0.5244312,0.,0.,0.,0.522702,-0.1007982,0.,0.,
 0.,-0.2488226,0.,0.,0.,-0.174234,-0.2118165,-0.0640964,0.,-0.0640964,-
 0.1378043,0.,0.,0.,-0.174234,-0.2118165,0.0640964,0.,0.0640964,-0.1378
 043,0.,0.,0.,-0.174234\Polar=14.9511681,0.,14.9511681,0.,0.,7.3089629\
 PG=D03H [O(B1),3C2(H1)]\NImag=0\\0.42947386,0.,0.42947386,0.,0.,0.1262
 1312,-0.04181504,0.,0.,0.03569703,0.,-0.24450087,0.,0.,0.25773706,0.,0
 .,-0.04207104,0.,0.,0.01411485,-0.19382941,-0.08776554,0.,0.00305900,0
 .00200339,0.,0.20222705,-0.08776554,-0.09248650,0.,-0.01876462,-0.0066
 1810,0.,0.09614615,0.09120704,0.,0.,-0.04207104,0.,0.,0.01397809,0.,0.
 ,0.01411485,-0.19382941,0.08776554,0.,0.00305900,-0.00200339,0.,-0.011
 45664,0.01038400,0.,0.20222705,0.08776554,-0.09248650,0.,0.01876462,-0
 .00661810,0.,-0.01038400,0.00789755,0.,-0.09614615,0.09120704,0.,0.,-0
 .04207104,0.,0.,0.01397809,0.,0.,0.01397809,0.,0.,0.01411485\\0.,0.,0.
 ,0.,0.00030936,0.,-0.00026791,-0.00015468,0.,0.00026791,-0.00015468,0.
 \\\@


 IT IS A CAPITAL MISTAKE TO THEORIZE BEFORE ONE HAS
 DATA.  INSENSIBLY ONE BEGINS TO TWIST FACTS TO SUIT
 THEORIES RATHER THAN THEORIES TO SUIT FACTS.

                                         -- SHERLOCK HOLMES
 Job cpu time:  0 days  0 hours  0 minutes  1.0 seconds.
 File lengths (MBytes):  RWF=     19 Int=      0 D2E=      0 Chk=      2 Scr=      1
 Normal termination of Gaussian 09 at Sun Sep 17 23:50:13 2023.
