 Entering Gaussian System, Link 0=g09
 Input=Br2O.com
 Output=Br2O.log
 Initial command:
 /usr/local/g09/l1.exe /scratch/james/Gau-18465.inp -scrdir=/scratch/james/
 Entering Link 1 = /usr/local/g09/l1.exe PID=     18469.
  
 Copyright (c) 1988,1990,1992,1993,1995,1998,2003,2009,2011,
            Gaussian, Inc.  All Rights Reserved.
  
 This is part of the Gaussian(R) 09 program.  It is based on
 the Gaussian(R) 03 system (copyright 2003, Gaussian, Inc.),
 the Gaussian(R) 98 system (copyright 1998, Gaussian, Inc.),
 the Gaussian(R) 94 system (copyright 1995, Gaussian, Inc.),
 the Gaussian 92(TM) system (copyright 1992, Gaussian, Inc.),
 the Gaussian 90(TM) system (copyright 1990, Gaussian, Inc.),
 the Gaussian 88(TM) system (copyright 1988, Gaussian, Inc.),
 the Gaussian 86(TM) system (copyright 1986, Carnegie Mellon
 University), and the Gaussian 82(TM) system (copyright 1983,
 Carnegie Mellon University). Gaussian is a federally registered
 trademark of Gaussian, Inc.
  
 This software contains proprietary and confidential information,
 including trade secrets, belonging to Gaussian, Inc.
  
 This software is provided under written license and may be
 used, copied, transmitted, or stored only in accord with that
 written license.
  
 The following legend is applicable only to US Government
 contracts under FAR:
  
                    RESTRICTED RIGHTS LEGEND
  
 Use, reproduction and disclosure by the US Government is
 subject to restrictions as set forth in subparagraphs (a)
 and (c) of the Commercial Computer Software - Restricted
 Rights clause in FAR 52.227-19.
  
 Gaussian, Inc.
 340 Quinnipiac St., Bldg. 40, Wallingford CT 06492
  
  
 ---------------------------------------------------------------
 Warning -- This program may not be used in any manner that
 competes with the business of Gaussian, Inc. or will provide
 assistance to any competitor of Gaussian, Inc.  The licensee
 of this program is prohibited from giving any competitor of
 Gaussian, Inc. access to this program.  By using this program,
 the user acknowledges that Gaussian, Inc. is engaged in the
 business of creating and licensing software in the field of
 computational chemistry and represents and warrants to the
 licensee that it is not a competitor of Gaussian, Inc. and that
 it will not use this program in any manner prohibited above.
 ---------------------------------------------------------------
  

 Cite this work as:
 Gaussian 09, Revision C.01,
 M. J. Frisch, G. W. Trucks, H. B. Schlegel, G. E. Scuseria, 
 M. A. Robb, J. R. Cheeseman, G. Scalmani, V. Barone, B. Mennucci, 
 G. A. Petersson, H. Nakatsuji, M. Caricato, X. Li, H. P. Hratchian, 
 A. F. Izmaylov, J. Bloino, G. Zheng, J. L. Sonnenberg, M. Hada, 
 M. Ehara, K. Toyota, R. Fukuda, J. Hasegawa, M. Ishida, T. Nakajima, 
 Y. Honda, O. Kitao, H. Nakai, T. Vreven, J. A. Montgomery, Jr., 
 J. E. Peralta, F. Ogliaro, M. Bearpark, J. J. Heyd, E. Brothers, 
 K. N. Kudin, V. N. Staroverov, T. Keith, R. Kobayashi, J. Normand, 
 K. Raghavachari, A. Rendell, J. C. Burant, S. S. Iyengar, J. Tomasi, 
 M. Cossi, N. Rega, J. M. Millam, M. Klene, J. E. Knox, J. B. Cross, 
 V. Bakken, C. Adamo, J. Jaramillo, R. Gomperts, R. E. Stratmann, 
 O. Yazyev, A. J. Austin, R. Cammi, C. Pomelli, J. W. Ochterski, 
 R. L. Martin, K. Morokuma, V. G. Zakrzewski, G. A. Voth, 
 P. Salvador, J. J. Dannenberg, S. Dapprich, A. D. Daniels, 
 O. Farkas, J. B. Foresman, J. V. Ortiz, J. Cioslowski, 
 and D. J. Fox, Gaussian, Inc., Wallingford CT, 2010.
 
 ******************************************
 Gaussian 09:  AM64L-G09RevC.01 23-Sep-2011
                 2-Jul-2026 
 ******************************************
 %chk=Br2O.chk
 ----------------------------------------------
 # opt freq=hpmodes mp2/3-21g geom=connectivity
 ----------------------------------------------
 1/18=20,19=15,38=1,57=2/1,3;
 2/9=110,12=2,17=6,18=5,40=1/2;
 3/5=5,11=9,16=1,25=1,30=1,71=1/1,2,3;
 4//1;
 5/5=2,38=5/2;
 8/6=4,10=1/1;
 9/15=2,16=-3/6;
 10/5=1/2;
 6/7=2,8=2,9=2,10=2/1;
 7/12=2/1,2,3,16;
 1/18=20,19=15/3(2);
 2/9=110/2;
 99//99;
 2/9=110/2;
 3/5=5,11=9,16=1,25=1,30=1,71=1/1,2,3;
 4/5=5,16=3/1;
 5/5=2,38=5/2;
 8/6=4,10=1/1;
 9/15=2,16=-3/6;
 10/5=1/2;
 7/12=2/1,2,3,16;
 1/18=20,19=15/3(-8);
 2/9=110/2;
 6/7=2,8=2,9=2,10=2/1;
 99//99;
 -------------------
 Title Card Required
 -------------------
 Charge =  0 Multiplicity = 1
 Symbolic Z-Matrix:
 O                     0.        0.       -0.93264 
 Br                    0.        1.46969   0.10659 
 Br                    0.       -1.46969   0.10659 
 

 GradGradGradGradGradGradGradGradGradGradGradGradGradGradGradGradGradGrad
 Berny optimization.
 Initialization pass.
                           ----------------------------
                           !    Initial Parameters    !
                           ! (Angstroms and Degrees)  !
 --------------------------                            --------------------------
 ! Name  Definition              Value          Derivative Info.                !
 --------------------------------------------------------------------------------
 ! R1    R(1,2)                  1.8            estimate D2E/DX2                !
 ! R2    R(1,3)                  1.8            estimate D2E/DX2                !
 ! A1    A(2,1,3)              109.4712         estimate D2E/DX2                !
 --------------------------------------------------------------------------------
 Trust Radius=3.00D-01 FncErr=1.00D-07 GrdErr=1.00D-07
 Number of steps in this run=     20 maximum allowed number of steps=    100.
 GradGradGradGradGradGradGradGradGradGradGradGradGradGradGradGradGradGrad

                          Input orientation:                          
 ---------------------------------------------------------------------
 Center     Atomic      Atomic             Coordinates (Angstroms)
 Number     Number       Type             X           Y           Z
 ---------------------------------------------------------------------
      1          8           0        0.000000    0.000000   -0.932643
      2         35           0        0.000000    1.469694    0.106588
      3         35           0        0.000000   -1.469694    0.106588
 ---------------------------------------------------------------------
                    Distance matrix (angstroms):
                    1          2          3
     1  O    0.000000
     2  Br   1.800000   0.000000
     3  Br   1.800000   2.939388   0.000000
 Stoichiometry    Br2O
 Framework group  C2V[C2(O),SGV(Br2)]
 Deg. of freedom     2
 Full point group                 C2V     NOp   4
 Largest Abelian subgroup         C2V     NOp   4
 Largest concise Abelian subgroup C2      NOp   2
                         Standard orientation:                         
 ---------------------------------------------------------------------
 Center     Atomic      Atomic             Coordinates (Angstroms)
 Number     Number       Type             X           Y           Z
 ---------------------------------------------------------------------
      1          8           0       -0.000000    0.000000    0.932643
      2         35           0        0.000000    1.469694   -0.106588
      3         35           0       -0.000000   -1.469694   -0.106588
 ---------------------------------------------------------------------
 Rotational constants (GHZ):     32.2205016      1.4823663      1.4171668
 Standard basis: 3-21G (6D, 7F)
 There are    22 symmetry adapted basis functions of A1  symmetry.
 There are     6 symmetry adapted basis functions of A2  symmetry.
 There are     8 symmetry adapted basis functions of B1  symmetry.
 There are    19 symmetry adapted basis functions of B2  symmetry.
 Integral buffers will be    131072 words long.
 Raffenetti 1 integral format.
 Two-electron integral symmetry is turned on.
    55 basis functions,   129 primitive gaussians,    55 cartesian basis functions
    39 alpha electrons       39 beta electrons
       nuclear repulsion energy       385.1693429226 Hartrees.
 NAtoms=    3 NActive=    3 NUniq=    2 SFac= 2.25D+00 NAtFMM=   60 NAOKFM=F Big=F
 One-electron integrals computed using PRISM.
 NBasis=    55 RedAO= T  NBF=    22     6     8    19
 NBsUse=    55 1.00D-06 NBFU=    22     6     8    19
 Harris functional with IExCor=  205 diagonalized for initial guess.
 ExpMin= 1.65D-01 ExpMax= 6.10D+03 ExpMxC= 6.10D+03 IAcc=1 IRadAn=         1 AccDes= 0.00D+00
 HarFok:  IExCor=  205 AccDes= 0.00D+00 IRadAn=         1 IDoV= 1
 ScaDFX=  1.000000  1.000000  1.000000  1.000000
 FoFCou: FMM=F IPFlag=           0 FMFlag=      100000 FMFlg1=           0
         NFxFlg=           0 DoJE=T BraDBF=F KetDBF=T FulRan=T
         Omega=  0.000000  0.000000  1.000000  0.000000  0.000000 ICntrl=     500 IOpCl=  0
         NMat0=    1 NMatS0=    1 NMatT0=    0 NMatD0=    1 NMtDS0=    0 NMtDT0=    0
         I1Cent=           4 NGrid=           0.
 Petite list used in FoFCou.
 Initial guess orbital symmetries:
       Occupied  (B2) (A1) (B2) (A1) (A1) (B2) (B2) (A2) (A1) (B1)
                 (A1) (B2) (A1) (A1) (B2) (B2) (A1) (A2) (B1) (B2)
                 (A1) (B1) (B2) (A1) (A2) (B2) (A1) (A2) (B1) (A1)
                 (B2) (A1) (B2) (A1) (B1) (A1) (A2) (B2) (B1)
       Virtual   (A1) (B2) (A1) (B2) (B1) (A1) (A1) (B2) (A2) (B2)
                 (B1) (A1) (B2) (A1) (A1) (B2)
 The electronic state of the initial guess is 1-A1.
 Requested convergence on RMS density matrix=1.00D-08 within 128 cycles.
 Requested convergence on MAX density matrix=1.00D-06.
 Requested convergence on             energy=1.00D-06.
 No special actions if energy rises.
 Keep R1 ints in memory in canonical form, NReq=2034641.
 SCF Done:  E(RHF) =  -5194.44284584     A.U. after   12 cycles
             Convg  =    0.1199D-08             -V/T =  1.9967
 ExpMin= 1.65D-01 ExpMax= 6.10D+03 ExpMxC= 6.10D+03 IAcc=3 IRadAn=         5 AccDes= 0.00D+00
 HarFok:  IExCor=  205 AccDes= 0.00D+00 IRadAn=         5 IDoV=-2
 ScaDFX=  1.000000  1.000000  1.000000  1.000000
 Range of M.O.s used for correlation:    20    55
 NBasis=    55 NAE=    39 NBE=    39 NFC=    19 NFV=     0
 NROrb=     36 NOA=    20 NOB=    20 NVA=    16 NVB=    16
 Fully direct method using O(ONN) memory.
 JobTyp=1 Pass  1:  I=  20 to  39 NPSUse=  1 ParTrn=F ParDer=F DoDerP=T.
 Spin components of T(2) and E(2):
     alpha-alpha T2 =       0.8024663649D-02 E2=     -0.2386379936D-01
     alpha-beta  T2 =       0.5935823894D-01 E2=     -0.1514928441D+00
     beta-beta   T2 =       0.8024663649D-02 E2=     -0.2386379936D-01
 ANorm=    0.1037018595D+01
 E2 =    -0.1992204429D+00 EUMP2 =    -0.51946420662858D+04
          IDoAtm=111
          Differentiating once with respect to electric field.
                with respect to dipole field.
          Differentiating once with respect to nuclear coordinates.
          Keep R1 ints in memory in canonical form, NReq=2007386.
          There are     1 degrees of freedom in the 1st order CPHF.  IDoFFX=0.
 LinEq1:  Iter=  0 NonCon=     1 RMS=5.14D-03 Max=5.78D-02
 AX will form     1 AO Fock derivatives at one time.
 LinEq1:  Iter=  1 NonCon=     1 RMS=1.16D-03 Max=1.78D-02
 LinEq1:  Iter=  2 NonCon=     1 RMS=7.18D-04 Max=1.39D-02
 LinEq1:  Iter=  3 NonCon=     1 RMS=1.55D-04 Max=1.77D-03
 LinEq1:  Iter=  4 NonCon=     1 RMS=2.37D-05 Max=3.95D-04
 LinEq1:  Iter=  5 NonCon=     1 RMS=4.79D-06 Max=5.39D-05
 LinEq1:  Iter=  6 NonCon=     1 RMS=8.19D-07 Max=8.67D-06
 LinEq1:  Iter=  7 NonCon=     1 RMS=1.23D-07 Max=1.30D-06
 LinEq1:  Iter=  8 NonCon=     1 RMS=1.06D-08 Max=1.57D-07
 LinEq1:  Iter=  9 NonCon=     1 RMS=7.50D-10 Max=5.95D-09
 LinEq1:  Iter= 10 NonCon=     0 RMS=5.41D-11 Max=5.32D-10
 Linear equations converged to 1.000D-10 1.000D-09 after    10 iterations.
 End of Minotr Frequency-dependent properties file   721 does not exist.
 End of Minotr Frequency-dependent properties file   722 does not exist.

 **********************************************************************

            Population analysis using the SCF density.

 **********************************************************************

 Orbital symmetries:
       Occupied  (B2) (A1) (B2) (A1) (A1) (B2) (B2) (A2) (A1) (B1)
                 (A1) (B2) (A1) (A1) (B2) (B2) (A1) (A2) (B1) (B2)
                 (A1) (B2) (A1) (B1) (A2) (B2) (A2) (B1) (A1) (A1)
                 (B2) (A1) (B1) (B2) (A1) (A2) (A1) (B2) (B1)
       Virtual   (A1) (B2) (A1) (B2) (B1) (A1) (B2) (A1) (A2) (B2)
                 (B1) (A1) (B2) (A1) (A1) (B2)
 The electronic state is 1-A1.
 Alpha  occ. eigenvalues -- -486.82450-486.82449 -64.83804 -64.83801 -58.02491
 Alpha  occ. eigenvalues --  -58.02486 -58.02250 -58.02242 -58.02236 -58.02227
 Alpha  occ. eigenvalues --  -20.55012  -9.82967  -9.82966  -7.41268  -7.41268
 Alpha  occ. eigenvalues --   -7.39860  -7.39860  -7.39814  -7.39813  -3.14406
 Alpha  occ. eigenvalues --   -3.14383  -3.13730  -3.13719  -3.13704  -3.13666
 Alpha  occ. eigenvalues --   -3.12020  -3.12019  -3.12018  -3.12018  -1.40219
 Alpha  occ. eigenvalues --   -1.03280  -0.94622  -0.62430  -0.60156  -0.59217
 Alpha  occ. eigenvalues --   -0.43776  -0.43387  -0.41077  -0.40021
 Alpha virt. eigenvalues --    0.04719   0.15798   0.70783   0.76922   0.78713
 Alpha virt. eigenvalues --    0.80752   0.81835   0.82381   0.85490   0.98384
 Alpha virt. eigenvalues --    1.74473   1.84094   1.98327   2.87910  23.76101
 Alpha virt. eigenvalues --   24.29146
          Condensed to atoms (all electrons):
              1          2          3
     1  O    8.533200   0.076615   0.076615
     2  Br   0.076615  34.652877  -0.072707
     3  Br   0.076615  -0.072707  34.652877
 Mulliken atomic charges:
              1
     1  O   -0.686430
     2  Br   0.343215
     3  Br   0.343215
 Sum of Mulliken atomic charges =  -0.00000
 Mulliken charges with hydrogens summed into heavy atoms:
              1
     1  O   -0.686430
     2  Br   0.343215
     3  Br   0.343215
 Sum of Mulliken charges with hydrogens summed into heavy atoms =  -0.00000
 Electronic spatial extent (au):  <R**2>=            657.5045
 Charge=             -0.0000 electrons
 Dipole moment (field-independent basis, Debye):
    X=             -0.0000    Y=              0.0000    Z=             -1.7776  Tot=              1.7776
 Quadrupole moment (field-independent basis, Debye-Ang):
   XX=            -41.8141   YY=            -36.7487   ZZ=            -42.3154
   XY=              0.0000   XZ=             -0.0000   YZ=              0.0000
 Traceless Quadrupole moment (field-independent basis, Debye-Ang):
   XX=             -1.5214   YY=              3.5441   ZZ=             -2.0227
   XY=              0.0000   XZ=             -0.0000   YZ=              0.0000
 Octapole moment (field-independent basis, Debye-Ang**2):
  XXX=              0.0000  YYY=              0.0000  ZZZ=             -6.0595  XYY=              0.0000
  XXY=             -0.0000  XXZ=             -0.9460  XZZ=              0.0000  YZZ=              0.0000
  YYZ=             -8.2317  XYZ=             -0.0000
 Hexadecapole moment (field-independent basis, Debye-Ang**3):
 XXXX=            -43.0820 YYYY=           -462.7768 ZZZZ=            -72.3977 XXXY=             -0.0000
 XXXZ=             -0.0000 YYYX=             -0.0000 YYYZ=              0.0000 ZZZX=             -0.0000
 ZZZY=              0.0000 XXYY=            -93.1155 XXZZ=            -19.0449 YYZZ=            -89.3422
 XXYZ=              0.0000 YYXZ=              0.0000 ZZXY=             -0.0000
 N-N= 3.851693429226D+02 E-N=-1.322252087885D+04  KE= 5.211879159824D+03
 Symmetry A1   KE= 2.255327648575D+03
 Symmetry A2   KE= 3.798994558367D+02
 Symmetry B1   KE= 3.845823846401D+02
 Symmetry B2   KE= 2.192069670772D+03
 Calling FoFJK, ICntrl=      2127 FMM=F ISym2X=1 I1Cent= 0 IOpClX= 0 NMat=1 NMatS=1 NMatT=0.
 ***** Axes restored to original set *****
 -------------------------------------------------------------------
 Center     Atomic                   Forces (Hartrees/Bohr)
 Number     Number              X              Y              Z
 -------------------------------------------------------------------
      1        8           0.000000000   -0.000000000   -0.053194253
      2       35          -0.000000000    0.063164229    0.026597126
      3       35          -0.000000000   -0.063164229    0.026597126
 -------------------------------------------------------------------
 Cartesian Forces:  Max     0.063164229 RMS     0.036853889

 GradGradGradGradGradGradGradGradGradGradGradGradGradGradGradGradGradGrad
 Berny optimization.
 Internal  Forces:  Max     0.066929235 RMS     0.061851389
 Search for a local minimum.
 Step number   1 out of a maximum of   20
 All quantities printed in internal units (Hartrees-Bohrs-Radians)
 Mixed Optimization -- RFO/linear search
 Second derivative matrix not updated -- first step.
 The second derivative matrix:
                          R1        R2        A1
           R1           0.24157
           R2           0.00000   0.24157
           A1           0.00000   0.00000   0.25000
 ITU=  0
     Eigenvalues ---    0.24157   0.24157   0.25000
 RFO step:  Lambda=-4.04373203D-02 EMin= 2.41572589D-01
 Linear search not attempted -- first point.
 Maximum step size (   0.300) exceeded in Quadratic search.
    -- Step size scaled by   0.795
 Iteration  1 RMS(Cart)=  0.23381751 RMS(Int)=  0.00636305
 Iteration  2 RMS(Cart)=  0.00972413 RMS(Int)=  0.00003733
 Iteration  3 RMS(Cart)=  0.00003866 RMS(Int)=  0.00000000
 Iteration  4 RMS(Cart)=  0.00000000 RMS(Int)=  0.00000000
 ClnCor:  largest displacement from symmetrization is 1.63D-14 for atom     3.
 Variable       Old X    -DE/DX   Delta X   Delta X   Delta X     New X
                                 (Linear)    (Quad)   (Total)
    R1        3.40151   0.06693   0.00000   0.18861   0.18861   3.59012
    R2        3.40151   0.06693   0.00000   0.18861   0.18861   3.59012
    A1        1.91063   0.05018   0.00000   0.13730   0.13730   2.04793
         Item               Value     Threshold  Converged?
 Maximum Force            0.066929     0.000450     NO 
 RMS     Force            0.061851     0.000300     NO 
 Maximum Displacement     0.289279     0.001800     NO 
 RMS     Displacement     0.240586     0.001200     NO 
 Predicted change in Energy=-2.118638D-02
 GradGradGradGradGradGradGradGradGradGradGradGradGradGradGradGradGradGrad

                          Input orientation:                          
 ---------------------------------------------------------------------
 Center     Atomic      Atomic             Coordinates (Angstroms)
 Number     Number       Type             X           Y           Z
 ---------------------------------------------------------------------
      1          8           0       -0.000000   -0.000000   -0.898400
      2         35           0       -0.000000    1.622774    0.089466
      3         35           0        0.000000   -1.622774    0.089466
 ---------------------------------------------------------------------
                    Distance matrix (angstroms):
                    1          2          3
     1  O    0.000000
     2  Br   1.899809   0.000000
     3  Br   1.899809   3.245547   0.000000
 Stoichiometry    Br2O
 Framework group  C2V[C2(O),SGV(Br2)]
 Deg. of freedom     2
 Full point group                 C2V     NOp   4
 Largest Abelian subgroup         C2V     NOp   4
 Largest concise Abelian subgroup C2      NOp   2
                         Standard orientation:                         
 ---------------------------------------------------------------------
 Center     Atomic      Atomic             Coordinates (Angstroms)
 Number     Number       Type             X           Y           Z
 ---------------------------------------------------------------------
      1          8           0        0.000000    0.000000    0.886547
      2         35           0        0.000000    1.622774   -0.101320
      3         35           0       -0.000000   -1.622774   -0.101320
 ---------------------------------------------------------------------
 Rotational constants (GHZ):     35.6582202      1.2158874      1.1757948
 Standard basis: 3-21G (6D, 7F)
 There are    22 symmetry adapted basis functions of A1  symmetry.
 There are     6 symmetry adapted basis functions of A2  symmetry.
 There are     8 symmetry adapted basis functions of B1  symmetry.
 There are    19 symmetry adapted basis functions of B2  symmetry.
 Integral buffers will be    131072 words long.
 Raffenetti 1 integral format.
 Two-electron integral symmetry is turned on.
    55 basis functions,   129 primitive gaussians,    55 cartesian basis functions
    39 alpha electrons       39 beta electrons
       nuclear repulsion energy       355.7164434733 Hartrees.
 NAtoms=    3 NActive=    3 NUniq=    2 SFac= 2.25D+00 NAtFMM=   60 NAOKFM=F Big=F
 One-electron integrals computed using PRISM.
 NBasis=    55 RedAO= T  NBF=    22     6     8    19
 NBsUse=    55 1.00D-06 NBFU=    22     6     8    19
 Initial guess read from the read-write file.
 B after Tr=     0.000000    0.000000    0.000000
         Rot=    1.000000    0.000000    0.000000    0.000000 Ang=   0.00 deg.
 Initial guess orbital symmetries:
       Occupied  (B2) (A1) (B2) (A1) (A1) (B2) (B2) (A2) (A1) (B1)
                 (A1) (B2) (A1) (A1) (B2) (B2) (A1) (A2) (B1) (B2)
                 (A1) (B2) (A1) (B1) (A2) (B2) (A2) (B1) (A1) (A1)
                 (B2) (A1) (B1) (B2) (A1) (A2) (A1) (B2) (B1)
       Virtual   (A1) (B2) (A1) (B2) (B1) (A1) (B2) (A1) (A2) (B2)
                 (B1) (A1) (B2) (A1) (A1) (B2)
 Harris functional with IExCor=  205 diagonalized for initial guess.
 ExpMin= 1.65D-01 ExpMax= 6.10D+03 ExpMxC= 6.10D+03 IAcc=1 IRadAn=         1 AccDes= 0.00D+00
 HarFok:  IExCor=  205 AccDes= 0.00D+00 IRadAn=         1 IDoV= 1
 ScaDFX=  1.000000  1.000000  1.000000  1.000000
 FoFCou: FMM=F IPFlag=           0 FMFlag=      100000 FMFlg1=           0
         NFxFlg=           0 DoJE=T BraDBF=F KetDBF=T FulRan=T
         Omega=  0.000000  0.000000  1.000000  0.000000  0.000000 ICntrl=     500 IOpCl=  0
         NMat0=    1 NMatS0=    1 NMatT0=    0 NMatD0=    1 NMtDS0=    0 NMtDT0=    0
         I1Cent=           4 NGrid=           0.
 Petite list used in FoFCou.
 Requested convergence on RMS density matrix=1.00D-08 within 128 cycles.
 Requested convergence on MAX density matrix=1.00D-06.
 Requested convergence on             energy=1.00D-06.
 No special actions if energy rises.
 Keep R1 ints in memory in canonical form, NReq=2034641.
 SCF Done:  E(RHF) =  -5194.44694627     A.U. after   12 cycles
             Convg  =    0.3705D-08             -V/T =  1.9967
 ExpMin= 1.65D-01 ExpMax= 6.10D+03 ExpMxC= 6.10D+03 IAcc=3 IRadAn=         5 AccDes= 0.00D+00
 HarFok:  IExCor=  205 AccDes= 0.00D+00 IRadAn=         5 IDoV=-2
 ScaDFX=  1.000000  1.000000  1.000000  1.000000
 Range of M.O.s used for correlation:    20    55
 NBasis=    55 NAE=    39 NBE=    39 NFC=    19 NFV=     0
 NROrb=     36 NOA=    20 NOB=    20 NVA=    16 NVB=    16
 Fully direct method using O(ONN) memory.
 JobTyp=1 Pass  1:  I=  20 to  39 NPSUse=  1 ParTrn=F ParDer=F DoDerP=T.
 Spin components of T(2) and E(2):
     alpha-alpha T2 =       0.9104938701D-02 E2=     -0.2497762428D-01
     alpha-beta  T2 =       0.6989372265D-01 E2=     -0.1605199586D+00
     beta-beta   T2 =       0.9104938701D-02 E2=     -0.2497762428D-01
 ANorm=    0.1043122045D+01
 E2 =    -0.2104752072D+00 EUMP2 =    -0.51946574214743D+04
          IDoAtm=111
          Differentiating once with respect to electric field.
                with respect to dipole field.
          Differentiating once with respect to nuclear coordinates.
          Keep R1 ints in memory in canonical form, NReq=2007386.
          There are     1 degrees of freedom in the 1st order CPHF.  IDoFFX=0.
 LinEq1:  Iter=  0 NonCon=     1 RMS=6.41D-03 Max=8.19D-02
 AX will form     1 AO Fock derivatives at one time.
 LinEq1:  Iter=  1 NonCon=     1 RMS=1.52D-03 Max=2.13D-02
 LinEq1:  Iter=  2 NonCon=     1 RMS=9.62D-04 Max=1.91D-02
 LinEq1:  Iter=  3 NonCon=     1 RMS=2.57D-04 Max=2.60D-03
 LinEq1:  Iter=  4 NonCon=     1 RMS=4.26D-05 Max=7.01D-04
 LinEq1:  Iter=  5 NonCon=     1 RMS=8.48D-06 Max=9.94D-05
 LinEq1:  Iter=  6 NonCon=     1 RMS=1.56D-06 Max=1.98D-05
 LinEq1:  Iter=  7 NonCon=     1 RMS=2.37D-07 Max=2.72D-06
 LinEq1:  Iter=  8 NonCon=     1 RMS=1.84D-08 Max=2.87D-07
 LinEq1:  Iter=  9 NonCon=     1 RMS=1.35D-09 Max=9.98D-09
 LinEq1:  Iter= 10 NonCon=     1 RMS=1.20D-10 Max=1.03D-09
 LinEq1:  Iter= 11 NonCon=     0 RMS=1.14D-11 Max=8.60D-11
 Linear equations converged to 1.000D-10 1.000D-09 after    11 iterations.
 End of Minotr Frequency-dependent properties file   721 does not exist.
 End of Minotr Frequency-dependent properties file   722 does not exist.
 Calling FoFJK, ICntrl=      2127 FMM=F ISym2X=1 I1Cent= 0 IOpClX= 0 NMat=1 NMatS=1 NMatT=0.
 ***** Axes restored to original set *****
 -------------------------------------------------------------------
 Center     Atomic                   Forces (Hartrees/Bohr)
 Number     Number              X              Y              Z
 -------------------------------------------------------------------
      1        8           0.000000000    0.000000000   -0.020010546
      2       35          -0.000000000    0.007129060    0.010005273
      3       35          -0.000000000   -0.007129060    0.010005273
 -------------------------------------------------------------------
 Cartesian Forces:  Max     0.020010546 RMS     0.008833521

 GradGradGradGradGradGradGradGradGradGradGradGradGradGradGradGradGradGrad
 Berny optimization.
 Using GEDIIS/GDIIS optimizer.
 Internal  Forces:  Max     0.017373642 RMS     0.013624290
 Search for a local minimum.
 Step number   2 out of a maximum of   20
 All quantities printed in internal units (Hartrees-Bohrs-Radians)
 Mixed Optimization -- RFO/linear search
 Update second derivatives using D2CorX and points    1    2
 DE= -1.54D-02 DEPred=-2.12D-02 R= 7.25D-01
 SS=  1.41D+00  RLast= 3.00D-01 DXNew= 5.0454D-01 9.0000D-01
 Trust test= 7.25D-01 RLast= 3.00D-01 DXMaxT set to 5.05D-01
 The second derivative matrix:
                          R1        R2        A1
           R1           0.24907
           R2           0.00749   0.24907
           A1           0.05278   0.05278   0.34699
 ITU=  1  0
 Use linear search instead of GDIIS.
     Eigenvalues ---    0.21451   0.24157   0.38904
 RFO step:  Lambda=-2.49053777D-03 EMin= 2.14507936D-01
 Quartic linear search produced a step of  0.09303.
 Iteration  1 RMS(Cart)=  0.06216268 RMS(Int)=  0.00139619
 Iteration  2 RMS(Cart)=  0.00258844 RMS(Int)=  0.00000154
 Iteration  3 RMS(Cart)=  0.00000120 RMS(Int)=  0.00000000
 Iteration  4 RMS(Cart)=  0.00000000 RMS(Int)=  0.00000000
 ClnCor:  largest displacement from symmetrization is 4.12D-14 for atom     3.
 Variable       Old X    -DE/DX   Delta X   Delta X   Delta X     New X
                                 (Linear)    (Quad)   (Total)
    R1        3.59012   0.01129   0.01755   0.04707   0.06462   3.65474
    R2        3.59012   0.01129   0.01755   0.04707   0.06462   3.65474
    A1        2.04793  -0.01737   0.01277  -0.07781  -0.06503   1.98290
         Item               Value     Threshold  Converged?
 Maximum Force            0.017374     0.000450     NO 
 RMS     Force            0.013624     0.000300     NO 
 Maximum Displacement     0.089393     0.001800     NO 
 RMS     Displacement     0.063567     0.001200     NO 
 Predicted change in Energy=-1.227748D-03
 GradGradGradGradGradGradGradGradGradGradGradGradGradGradGradGradGradGrad

                          Input orientation:                          
 ---------------------------------------------------------------------
 Center     Atomic      Atomic             Coordinates (Angstroms)
 Number     Number       Type             X           Y           Z
 ---------------------------------------------------------------------
      1          8           0       -0.000000   -0.000000   -0.945705
      2         35           0       -0.000000    1.618416    0.113119
      3         35           0        0.000000   -1.618416    0.113119
 ---------------------------------------------------------------------
                    Distance matrix (angstroms):
                    1          2          3
     1  O    0.000000
     2  Br   1.934005   0.000000
     3  Br   1.934005   3.236832   0.000000
 Stoichiometry    Br2O
 Framework group  C2V[C2(O),SGV(Br2)]
 Deg. of freedom     2
 Full point group                 C2V     NOp   4
 Largest Abelian subgroup         C2V     NOp   4
 Largest concise Abelian subgroup C2      NOp   2
                         Standard orientation:                         
 ---------------------------------------------------------------------
 Center     Atomic      Atomic             Coordinates (Angstroms)
 Number     Number       Type             X           Y           Z
 ---------------------------------------------------------------------
      1          8           0       -0.000000    0.000000    0.950226
      2         35           0       -0.000000    1.618416   -0.108597
      3         35           0       -0.000000   -1.618416   -0.108597
 ---------------------------------------------------------------------
 Rotational constants (GHZ):     31.0390987      1.2224442      1.1761238
 Standard basis: 3-21G (6D, 7F)
 There are    22 symmetry adapted basis functions of A1  symmetry.
 There are     6 symmetry adapted basis functions of A2  symmetry.
 There are     8 symmetry adapted basis functions of B1  symmetry.
 There are    19 symmetry adapted basis functions of B2  symmetry.
 Integral buffers will be    131072 words long.
 Raffenetti 1 integral format.
 Two-electron integral symmetry is turned on.
    55 basis functions,   129 primitive gaussians,    55 cartesian basis functions
    39 alpha electrons       39 beta electrons
       nuclear repulsion energy       353.4962224696 Hartrees.
 NAtoms=    3 NActive=    3 NUniq=    2 SFac= 2.25D+00 NAtFMM=   60 NAOKFM=F Big=F
 One-electron integrals computed using PRISM.
 NBasis=    55 RedAO= T  NBF=    22     6     8    19
 NBsUse=    55 1.00D-06 NBFU=    22     6     8    19
 Initial guess read from the read-write file.
 B after Tr=     0.000000    0.000000    0.000000
         Rot=    1.000000    0.000000    0.000000    0.000000 Ang=   0.00 deg.
 Initial guess orbital symmetries:
       Occupied  (B2) (A1) (B2) (A1) (B2) (A1) (B2) (A2) (A1) (B1)
                 (A1) (B2) (A1) (A1) (B2) (B2) (A1) (A2) (B1) (B2)
                 (A1) (B2) (A1) (B1) (A2) (B2) (A2) (B1) (A1) (A1)
                 (B2) (A1) (B1) (B2) (A1) (A2) (A1) (B2) (B1)
       Virtual   (A1) (B2) (A1) (B2) (A1) (B1) (A1) (B2) (A2) (B2)
                 (B1) (A1) (B2) (A1) (A1) (B2)
 Harris functional with IExCor=  205 diagonalized for initial guess.
 ExpMin= 1.65D-01 ExpMax= 6.10D+03 ExpMxC= 6.10D+03 IAcc=1 IRadAn=         1 AccDes= 0.00D+00
 HarFok:  IExCor=  205 AccDes= 0.00D+00 IRadAn=         1 IDoV= 1
 ScaDFX=  1.000000  1.000000  1.000000  1.000000
 FoFCou: FMM=F IPFlag=           0 FMFlag=      100000 FMFlg1=           0
         NFxFlg=           0 DoJE=T BraDBF=F KetDBF=T FulRan=T
         Omega=  0.000000  0.000000  1.000000  0.000000  0.000000 ICntrl=     500 IOpCl=  0
         NMat0=    1 NMatS0=    1 NMatT0=    0 NMatD0=    1 NMtDS0=    0 NMtDT0=    0
         I1Cent=           4 NGrid=           0.
 Petite list used in FoFCou.
 Requested convergence on RMS density matrix=1.00D-08 within 128 cycles.
 Requested convergence on MAX density matrix=1.00D-06.
 Requested convergence on             energy=1.00D-06.
 No special actions if energy rises.
 Keep R1 ints in memory in canonical form, NReq=2034641.
 SCF Done:  E(RHF) =  -5194.44359738     A.U. after   11 cycles
             Convg  =    0.8448D-08             -V/T =  1.9967
 ExpMin= 1.65D-01 ExpMax= 6.10D+03 ExpMxC= 6.10D+03 IAcc=3 IRadAn=         5 AccDes= 0.00D+00
 HarFok:  IExCor=  205 AccDes= 0.00D+00 IRadAn=         5 IDoV=-2
 ScaDFX=  1.000000  1.000000  1.000000  1.000000
 Range of M.O.s used for correlation:    20    55
 NBasis=    55 NAE=    39 NBE=    39 NFC=    19 NFV=     0
 NROrb=     36 NOA=    20 NOB=    20 NVA=    16 NVB=    16
 Fully direct method using O(ONN) memory.
 JobTyp=1 Pass  1:  I=  20 to  39 NPSUse=  1 ParTrn=F ParDer=F DoDerP=T.
 Spin components of T(2) and E(2):
     alpha-alpha T2 =       0.9587476076D-02 E2=     -0.2545617917D-01
     alpha-beta  T2 =       0.7460703486D-01 E2=     -0.1646136556D+00
     beta-beta   T2 =       0.9587476076D-02 E2=     -0.2545617917D-01
 ANorm=    0.1045840326D+01
 E2 =    -0.2155260140D+00 EUMP2 =    -0.51946591233977D+04
          IDoAtm=111
          Differentiating once with respect to electric field.
                with respect to dipole field.
          Differentiating once with respect to nuclear coordinates.
          Keep R1 ints in memory in canonical form, NReq=2007386.
          There are     1 degrees of freedom in the 1st order CPHF.  IDoFFX=0.
 LinEq1:  Iter=  0 NonCon=     1 RMS=6.57D-03 Max=7.91D-02
 AX will form     1 AO Fock derivatives at one time.
 LinEq1:  Iter=  1 NonCon=     1 RMS=1.61D-03 Max=2.26D-02
 LinEq1:  Iter=  2 NonCon=     1 RMS=1.10D-03 Max=2.27D-02
 LinEq1:  Iter=  3 NonCon=     1 RMS=2.99D-04 Max=2.85D-03
 LinEq1:  Iter=  4 NonCon=     1 RMS=4.96D-05 Max=7.88D-04
 LinEq1:  Iter=  5 NonCon=     1 RMS=9.40D-06 Max=1.29D-04
 LinEq1:  Iter=  6 NonCon=     1 RMS=1.53D-06 Max=1.91D-05
 LinEq1:  Iter=  7 NonCon=     1 RMS=2.73D-07 Max=2.83D-06
 LinEq1:  Iter=  8 NonCon=     1 RMS=2.22D-08 Max=3.56D-07
 LinEq1:  Iter=  9 NonCon=     1 RMS=1.62D-09 Max=1.17D-08
 LinEq1:  Iter= 10 NonCon=     1 RMS=1.44D-10 Max=1.26D-09
 LinEq1:  Iter= 11 NonCon=     0 RMS=1.38D-11 Max=1.11D-10
 Linear equations converged to 1.000D-10 1.000D-09 after    11 iterations.
 End of Minotr Frequency-dependent properties file   721 does not exist.
 End of Minotr Frequency-dependent properties file   722 does not exist.
 Calling FoFJK, ICntrl=      2127 FMM=F ISym2X=1 I1Cent= 0 IOpClX= 0 NMat=1 NMatS=1 NMatT=0.
 ***** Axes restored to original set *****
 -------------------------------------------------------------------
 Center     Atomic                   Forces (Hartrees/Bohr)
 Number     Number              X              Y              Z
 -------------------------------------------------------------------
      1        8           0.000000000    0.000000000   -0.006506153
      2       35          -0.000000000    0.001407850    0.003253077
      3       35          -0.000000000   -0.001407850    0.003253077
 -------------------------------------------------------------------
 Cartesian Forces:  Max     0.006506153 RMS     0.002737783

 GradGradGradGradGradGradGradGradGradGradGradGradGradGradGradGradGradGrad
 Berny optimization.
 Using GEDIIS/GDIIS optimizer.
 Internal  Forces:  Max     0.007132141 RMS     0.004774237
 Search for a local minimum.
 Step number   3 out of a maximum of   20
 All quantities printed in internal units (Hartrees-Bohrs-Radians)
 Mixed Optimization -- RFO/linear search
 Update second derivatives using D2CorX and points    1    2    3
 DE= -1.70D-03 DEPred=-1.23D-03 R= 1.39D+00
 SS=  1.41D+00  RLast= 1.12D-01 DXNew= 8.4853D-01 3.3650D-01
 Trust test= 1.39D+00 RLast= 1.12D-01 DXMaxT set to 5.05D-01
 The second derivative matrix:
                          R1        R2        A1
           R1           0.22755
           R2          -0.01402   0.22755
           A1           0.08405   0.08405   0.32451
 ITU=  1  1  0
 Use linear search instead of GDIIS.
     Eigenvalues ---    0.13785   0.24157   0.40019
 RFO step:  Lambda=-1.67849681D-05 EMin= 1.37846903D-01
 Quartic linear search produced a step of  0.52880.
 Iteration  1 RMS(Cart)=  0.03761927 RMS(Int)=  0.00051665
 Iteration  2 RMS(Cart)=  0.00093413 RMS(Int)=  0.00000018
 Iteration  3 RMS(Cart)=  0.00000014 RMS(Int)=  0.00000000
 ClnCor:  largest displacement from symmetrization is 1.54D-14 for atom     3.
 Variable       Old X    -DE/DX   Delta X   Delta X   Delta X     New X
                                 (Linear)    (Quad)   (Total)
    R1        3.65474   0.00296   0.03417  -0.00303   0.03115   3.68589
    R2        3.65474   0.00296   0.03417  -0.00303   0.03115   3.68589
    A1        1.98290  -0.00713  -0.03439  -0.00492  -0.03931   1.94359
         Item               Value     Threshold  Converged?
 Maximum Force            0.007132     0.000450     NO 
 RMS     Force            0.004774     0.000300     NO 
 Maximum Displacement     0.051524     0.001800     NO 
 RMS     Displacement     0.038232     0.001200     NO 
 Predicted change in Energy=-2.126250D-04
 GradGradGradGradGradGradGradGradGradGradGradGradGradGradGradGradGradGrad

                          Input orientation:                          
 ---------------------------------------------------------------------
 Center     Atomic      Atomic             Coordinates (Angstroms)
 Number     Number       Type             X           Y           Z
 ---------------------------------------------------------------------
      1          8           0       -0.000000   -0.000000   -0.972970
      2         35           0       -0.000000    1.610904    0.126751
      3         35           0        0.000000   -1.610904    0.126751
 ---------------------------------------------------------------------
                    Distance matrix (angstroms):
                    1          2          3
     1  O    0.000000
     2  Br   1.950487   0.000000
     3  Br   1.950487   3.221808   0.000000
 Stoichiometry    Br2O
 Framework group  C2V[C2(O),SGV(Br2)]
 Deg. of freedom     2
 Full point group                 C2V     NOp   4
 Largest Abelian subgroup         C2V     NOp   4
 Largest concise Abelian subgroup C2      NOp   2
                         Standard orientation:                         
 ---------------------------------------------------------------------
 Center     Atomic      Atomic             Coordinates (Angstroms)
 Number     Number       Type             X           Y           Z
 ---------------------------------------------------------------------
      1          8           0       -0.000000    0.000000    0.986930
      2         35           0       -0.000000    1.610904   -0.112792
      3         35           0       -0.000000   -1.610904   -0.112792
 ---------------------------------------------------------------------
 Rotational constants (GHZ):     28.7733630      1.2338712      1.1831355
 Standard basis: 3-21G (6D, 7F)
 There are    22 symmetry adapted basis functions of A1  symmetry.
 There are     6 symmetry adapted basis functions of A2  symmetry.
 There are     8 symmetry adapted basis functions of B1  symmetry.
 There are    19 symmetry adapted basis functions of B2  symmetry.
 Integral buffers will be    131072 words long.
 Raffenetti 1 integral format.
 Two-electron integral symmetry is turned on.
    55 basis functions,   129 primitive gaussians,    55 cartesian basis functions
    39 alpha electrons       39 beta electrons
       nuclear repulsion energy       353.1353022152 Hartrees.
 NAtoms=    3 NActive=    3 NUniq=    2 SFac= 2.25D+00 NAtFMM=   60 NAOKFM=F Big=F
 One-electron integrals computed using PRISM.
 NBasis=    55 RedAO= T  NBF=    22     6     8    19
 NBsUse=    55 1.00D-06 NBFU=    22     6     8    19
 Initial guess read from the read-write file.
 B after Tr=     0.000000   -0.000000   -0.000000
         Rot=    1.000000   -0.000000   -0.000000    0.000000 Ang=   0.00 deg.
 Initial guess orbital symmetries:
       Occupied  (B2) (A1) (B2) (A1) (B2) (A1) (B2) (A2) (A1) (B1)
                 (A1) (B2) (A1) (A1) (B2) (A1) (B2) (A2) (B1) (B2)
                 (A1) (B2) (A1) (B1) (A2) (B2) (A2) (B1) (A1) (A1)
                 (B2) (A1) (B1) (B2) (A1) (A2) (A1) (B2) (B1)
       Virtual   (A1) (B2) (A1) (B2) (B1) (A1) (A1) (B2) (A2) (B2)
                 (B1) (A1) (B2) (A1) (A1) (B2)
 Harris functional with IExCor=  205 diagonalized for initial guess.
 ExpMin= 1.65D-01 ExpMax= 6.10D+03 ExpMxC= 6.10D+03 IAcc=1 IRadAn=         1 AccDes= 0.00D+00
 HarFok:  IExCor=  205 AccDes= 0.00D+00 IRadAn=         1 IDoV= 1
 ScaDFX=  1.000000  1.000000  1.000000  1.000000
 FoFCou: FMM=F IPFlag=           0 FMFlag=      100000 FMFlg1=           0
         NFxFlg=           0 DoJE=T BraDBF=F KetDBF=T FulRan=T
         Omega=  0.000000  0.000000  1.000000  0.000000  0.000000 ICntrl=     500 IOpCl=  0
         NMat0=    1 NMatS0=    1 NMatT0=    0 NMatD0=    1 NMtDS0=    0 NMtDT0=    0
         I1Cent=           4 NGrid=           0.
 Petite list used in FoFCou.
 Requested convergence on RMS density matrix=1.00D-08 within 128 cycles.
 Requested convergence on MAX density matrix=1.00D-06.
 Requested convergence on             energy=1.00D-06.
 No special actions if energy rises.
 Keep R1 ints in memory in canonical form, NReq=2034641.
 SCF Done:  E(RHF) =  -5194.44125939     A.U. after   11 cycles
             Convg  =    0.2646D-08             -V/T =  1.9968
 ExpMin= 1.65D-01 ExpMax= 6.10D+03 ExpMxC= 6.10D+03 IAcc=3 IRadAn=         5 AccDes= 0.00D+00
 HarFok:  IExCor=  205 AccDes= 0.00D+00 IRadAn=         5 IDoV=-2
 ScaDFX=  1.000000  1.000000  1.000000  1.000000
 Range of M.O.s used for correlation:    20    55
 NBasis=    55 NAE=    39 NBE=    39 NFC=    19 NFV=     0
 NROrb=     36 NOA=    20 NOB=    20 NVA=    16 NVB=    16
 Fully direct method using O(ONN) memory.
 JobTyp=1 Pass  1:  I=  20 to  39 NPSUse=  1 ParTrn=F ParDer=F DoDerP=T.
 Spin components of T(2) and E(2):
     alpha-alpha T2 =       0.9840190925D-02 E2=     -0.2570131325D-01
     alpha-beta  T2 =       0.7703479059D-01 E2=     -0.1666893612D+00
     beta-beta   T2 =       0.9840190925D-02 E2=     -0.2570131325D-01
 ANorm=    0.1047241697D+01
 E2 =    -0.2180919877D+00 EUMP2 =    -0.51946593513806D+04
          IDoAtm=111
          Differentiating once with respect to electric field.
                with respect to dipole field.
          Differentiating once with respect to nuclear coordinates.
          Keep R1 ints in memory in canonical form, NReq=2007386.
          There are     1 degrees of freedom in the 1st order CPHF.  IDoFFX=0.
 LinEq1:  Iter=  0 NonCon=     1 RMS=6.62D-03 Max=7.64D-02
 AX will form     1 AO Fock derivatives at one time.
 LinEq1:  Iter=  1 NonCon=     1 RMS=1.65D-03 Max=2.33D-02
 LinEq1:  Iter=  2 NonCon=     1 RMS=1.18D-03 Max=2.46D-02
 LinEq1:  Iter=  3 NonCon=     1 RMS=3.21D-04 Max=3.11D-03
 LinEq1:  Iter=  4 NonCon=     1 RMS=5.30D-05 Max=8.17D-04
 LinEq1:  Iter=  5 NonCon=     1 RMS=9.89D-06 Max=1.43D-04
 LinEq1:  Iter=  6 NonCon=     1 RMS=1.49D-06 Max=1.75D-05
 LinEq1:  Iter=  7 NonCon=     1 RMS=2.85D-07 Max=3.04D-06
 LinEq1:  Iter=  8 NonCon=     1 RMS=2.42D-08 Max=3.91D-07
 LinEq1:  Iter=  9 NonCon=     1 RMS=1.76D-09 Max=1.27D-08
 LinEq1:  Iter= 10 NonCon=     1 RMS=1.57D-10 Max=1.37D-09
 LinEq1:  Iter= 11 NonCon=     0 RMS=1.51D-11 Max=1.24D-10
 Linear equations converged to 1.000D-10 1.000D-09 after    11 iterations.
 End of Minotr Frequency-dependent properties file   721 does not exist.
 End of Minotr Frequency-dependent properties file   722 does not exist.
 Calling FoFJK, ICntrl=      2127 FMM=F ISym2X=1 I1Cent= 0 IOpClX= 0 NMat=1 NMatS=1 NMatT=0.
 ***** Axes restored to original set *****
 -------------------------------------------------------------------
 Center     Atomic                   Forces (Hartrees/Bohr)
 Number     Number              X              Y              Z
 -------------------------------------------------------------------
      1        8           0.000000000    0.000000000    0.000119679
      2       35          -0.000000000   -0.000103442   -0.000059839
      3       35          -0.000000000    0.000103442   -0.000059839
 -------------------------------------------------------------------
 Cartesian Forces:  Max     0.000119679 RMS     0.000069029

 GradGradGradGradGradGradGradGradGradGradGradGradGradGradGradGradGradGrad
 Berny optimization.
 Using GEDIIS/GDIIS optimizer.
 Internal  Forces:  Max     0.000119172 RMS     0.000099130
 Search for a local minimum.
 Step number   4 out of a maximum of   20
 All quantities printed in internal units (Hartrees-Bohrs-Radians)
 Mixed Optimization -- En-DIIS/RFO-DIIS
 Update second derivatives using D2CorX and points    1    2    3    4
 DE= -2.28D-04 DEPred=-2.13D-04 R= 1.07D+00
 SS=  1.41D+00  RLast= 5.90D-02 DXNew= 8.4853D-01 1.7712D-01
 Trust test= 1.07D+00 RLast= 5.90D-02 DXMaxT set to 5.05D-01
 The second derivative matrix:
                          R1        R2        A1
           R1           0.21997
           R2          -0.02160   0.21997
           A1           0.07886   0.07886   0.30555
 ITU=  1  1  1  0
 Use linear search instead of GDIIS.
     Eigenvalues ---    0.12823   0.24157   0.37570
 RFO step:  Lambda=-7.95715174D-08 EMin= 1.28226324D-01
 Quartic linear search produced a step of -0.01324.
 Iteration  1 RMS(Cart)=  0.00045572 RMS(Int)=  0.00000004
 Iteration  2 RMS(Cart)=  0.00000007 RMS(Int)=  0.00000000
 ClnCor:  largest displacement from symmetrization is 7.54D-15 for atom     3.
 Variable       Old X    -DE/DX   Delta X   Delta X   Delta X     New X
                                 (Linear)    (Quad)   (Total)
    R1        3.68589  -0.00012  -0.00041  -0.00030  -0.00071   3.68518
    R2        3.68589  -0.00012  -0.00041  -0.00030  -0.00071   3.68518
    A1        1.94359  -0.00003   0.00052  -0.00026   0.00026   1.94385
         Item               Value     Threshold  Converged?
 Maximum Force            0.000119     0.000450     YES
 RMS     Force            0.000099     0.000300     YES
 Maximum Displacement     0.000533     0.001800     YES
 RMS     Displacement     0.000456     0.001200     YES
 Predicted change in Energy=-7.947967D-08
 Optimization completed.
    -- Stationary point found.
                           ----------------------------
                           !   Optimized Parameters   !
                           ! (Angstroms and Degrees)  !
 --------------------------                            --------------------------
 ! Name  Definition              Value          Derivative Info.                !
 --------------------------------------------------------------------------------
 ! R1    R(1,2)                  1.9505         -DE/DX =   -0.0001              !
 ! R2    R(1,3)                  1.9505         -DE/DX =   -0.0001              !
 ! A1    A(2,1,3)              111.3594         -DE/DX =    0.0                 !
 --------------------------------------------------------------------------------
 GradGradGradGradGradGradGradGradGradGradGradGradGradGradGradGradGradGrad

                          Input orientation:                          
 ---------------------------------------------------------------------
 Center     Atomic      Atomic             Coordinates (Angstroms)
 Number     Number       Type             X           Y           Z
 ---------------------------------------------------------------------
      1          8           0       -0.000000   -0.000000   -0.972970
      2         35           0       -0.000000    1.610904    0.126751
      3         35           0        0.000000   -1.610904    0.126751
 ---------------------------------------------------------------------
                    Distance matrix (angstroms):
                    1          2          3
     1  O    0.000000
     2  Br   1.950487   0.000000
     3  Br   1.950487   3.221808   0.000000
 Stoichiometry    Br2O
 Framework group  C2V[C2(O),SGV(Br2)]
 Deg. of freedom     2
 Full point group                 C2V     NOp   4
 Largest Abelian subgroup         C2V     NOp   4
 Largest concise Abelian subgroup C2      NOp   2
                         Standard orientation:                         
 ---------------------------------------------------------------------
 Center     Atomic      Atomic             Coordinates (Angstroms)
 Number     Number       Type             X           Y           Z
 ---------------------------------------------------------------------
      1          8           0       -0.000000    0.000000    0.986930
      2         35           0        0.000000    1.610904   -0.112792
      3         35           0       -0.000000   -1.610904   -0.112792
 ---------------------------------------------------------------------
 Rotational constants (GHZ):     28.7733630      1.2338712      1.1831355

 **********************************************************************

            Population analysis using the SCF density.

 **********************************************************************

 Orbital symmetries:
       Occupied  (B2) (A1) (B2) (A1) (B2) (A1) (B2) (A2) (A1) (B1)
                 (A1) (B2) (A1) (A1) (B2) (A1) (B2) (A2) (B1) (B2)
                 (A1) (B2) (A1) (B1) (A2) (B2) (A2) (B1) (A1) (A1)
                 (B2) (A1) (B1) (B2) (A1) (A2) (A1) (B2) (B1)
       Virtual   (A1) (B2) (A1) (B2) (B1) (A1) (A1) (B2) (A2) (B2)
                 (B1) (A1) (B2) (A1) (A1) (B2)
 The electronic state is 1-A1.
 Alpha  occ. eigenvalues -- -486.82511-486.82507 -64.83761 -64.83758 -58.02451
 Alpha  occ. eigenvalues --  -58.02435 -58.02221 -58.02211 -58.02202 -58.02199
 Alpha  occ. eigenvalues --  -20.57131  -9.82837  -9.82836  -7.41065  -7.41064
 Alpha  occ. eigenvalues --   -7.39749  -7.39749  -7.39712  -7.39712  -3.14170
 Alpha  occ. eigenvalues --   -3.14135  -3.13575  -3.13569  -3.13543  -3.13528
 Alpha  occ. eigenvalues --   -3.11933  -3.11933  -3.11932  -3.11932  -1.33761
 Alpha  occ. eigenvalues --   -1.01560  -0.96064  -0.59567  -0.56452  -0.55209
 Alpha  occ. eigenvalues --   -0.43929  -0.43164  -0.41979  -0.41421
 Alpha virt. eigenvalues --    0.00674   0.10108   0.71220   0.76680   0.79412
 Alpha virt. eigenvalues --    0.79998   0.82199   0.83408   0.84923   1.00919
 Alpha virt. eigenvalues --    1.74154   1.82011   1.94736   2.81104  23.65768
 Alpha virt. eigenvalues --   24.25307
          Condensed to atoms (all electrons):
              1          2          3
     1  O    8.266470   0.115494   0.115494
     2  Br   0.115494  34.674921  -0.039143
     3  Br   0.115494  -0.039143  34.674921
 Mulliken atomic charges:
              1
     1  O   -0.497457
     2  Br   0.248729
     3  Br   0.248729
 Sum of Mulliken atomic charges =  -0.00000
 Mulliken charges with hydrogens summed into heavy atoms:
              1
     1  O   -0.497457
     2  Br   0.248729
     3  Br   0.248729
 Sum of Mulliken charges with hydrogens summed into heavy atoms =  -0.00000
 Electronic spatial extent (au):  <R**2>=            769.1998
 Charge=             -0.0000 electrons
 Dipole moment (field-independent basis, Debye):
    X=             -0.0000    Y=              0.0000    Z=             -1.6154  Tot=              1.6154
 Quadrupole moment (field-independent basis, Debye-Ang):
   XX=            -42.0544   YY=            -36.0513   ZZ=            -42.2831
   XY=              0.0000   XZ=             -0.0000   YZ=             -0.0000
 Traceless Quadrupole moment (field-independent basis, Debye-Ang):
   XX=             -1.9248   YY=              4.0783   ZZ=             -2.1535
   XY=              0.0000   XZ=             -0.0000   YZ=             -0.0000
 Octapole moment (field-independent basis, Debye-Ang**2):
  XXX=              0.0000  YYY=              0.0000  ZZZ=             -5.7450  XYY=              0.0000
  XXY=             -0.0000  XXZ=             -1.1746  XZZ=              0.0000  YZZ=             -0.0000
  YYZ=             -8.7340  XYZ=             -0.0000
 Hexadecapole moment (field-independent basis, Debye-Ang**3):
 XXXX=            -43.3885 YYYY=           -544.5936 ZZZZ=            -75.7621 XXXY=             -0.0000
 XXXZ=             -0.0000 YYYX=             -0.0000 YYYZ=              0.0000 ZZZX=             -0.0000
 ZZZY=              0.0000 XXYY=           -108.9966 XXZZ=            -19.8434 YYZZ=           -105.9166
 XXYZ=              0.0000 YYXZ=              0.0000 ZZXY=             -0.0000
 N-N= 3.531353022152D+02 E-N=-1.315824157308D+04  KE= 5.211357773185D+03
 Symmetry A1   KE= 2.255294323315D+03
 Symmetry A2   KE= 3.798245691919D+02
 Symmetry B1   KE= 3.846285432727D+02
 Symmetry B2   KE= 2.191610337405D+03
 1\1\GINC-SRU01\FOpt\RMP2-FC\3-21G\Br2O1\JAMES\02-Jul-2026\0\\# opt fre
 q=hpmodes mp2/3-21g geom=connectivity\\Title Card Required\\0,1\O,0.,0
 .,-0.9729700803\Br,0.,1.6109042376,0.1267514101\Br,0.,-1.6109042376,0.
 1267514101\\Version=AM64L-G09RevC.01\State=1-A1\HF=-5194.4412594\MP2=-
 5194.6593514\RMSD=2.646e-09\RMSF=6.903e-05\Dipole=0.,0.,0.4944355\PG=C
 02V [C2(O1),SGV(Br2)]\\@


 TRUST EVERYONE, BUT CUT THE CARDS.
 Job cpu time:  0 days  0 hours  0 minutes 10.0 seconds.
 File lengths (MBytes):  RWF=      5 Int=      0 D2E=      0 Chk=      2 Scr=      1
 Normal termination of Gaussian 09 at Thu Jul  2 00:34:41 2026.
 Link1:  Proceeding to internal job step number  2.
 -------------------------------------------------------------------
 #N Geom=AllCheck Guess=TCheck SCRF=Check GenChk RMP2(FC)/3-21G Freq
 -------------------------------------------------------------------
 1/10=4,29=7,30=1,38=1,40=1/1,3;
 2/12=2,40=1/2;
 3/5=5,11=1,14=-4,16=1,25=1,30=1,70=2,71=2,116=1/1,2,3;
 4/5=101/1;
 5/5=2,98=1/2;
 8/6=3,8=1,10=1,19=11,30=-1/1;
 9/15=3,16=-3/6;
 11/6=1,8=1,15=11,17=12,24=-1,27=1,28=-2,29=300,32=6,42=3/1,2,10;
 10/6=2,21=1/2;
 8/6=4,8=1,10=1,19=11,30=-1/11,4;
 10/5=1,20=4/2;
 11/12=2,14=11,16=1,17=2,28=-2,42=3/2,10,12;
 6/7=2,8=2,9=2,10=2/1;
 7/8=11,10=1,12=2,25=1,44=2/1,2,3,16;
 1/10=4,30=1/3;
 99//99;
 Structure from the checkpoint file:  Br2O.chk
 -------------------
 Title Card Required
 -------------------
 Charge =  0 Multiplicity = 1
 Redundant internal coordinates found in file.
 O,0,0.,0.,-0.9729700803
 Br,0,0.,1.6109042376,0.1267514101
 Br,0,0.,-1.6109042376,0.1267514101
 Recover connectivity data from disk.

 GradGradGradGradGradGradGradGradGradGradGradGradGradGradGradGradGradGrad
 Berny optimization.
 Initialization pass.
                           ----------------------------
                           !    Initial Parameters    !
                           ! (Angstroms and Degrees)  !
 --------------------------                            --------------------------
 ! Name  Definition              Value          Derivative Info.                !
 --------------------------------------------------------------------------------
 ! R1    R(1,2)                  1.9505         calculate D2E/DX2 analytically  !
 ! R2    R(1,3)                  1.9505         calculate D2E/DX2 analytically  !
 ! A1    A(2,1,3)              111.3594         calculate D2E/DX2 analytically  !
 --------------------------------------------------------------------------------
 Trust Radius=3.00D-01 FncErr=1.00D-07 GrdErr=1.00D-07
 Number of steps in this run=      2 maximum allowed number of steps=      2.
 GradGradGradGradGradGradGradGradGradGradGradGradGradGradGradGradGradGrad

                          Input orientation:                          
 ---------------------------------------------------------------------
 Center     Atomic      Atomic             Coordinates (Angstroms)
 Number     Number       Type             X           Y           Z
 ---------------------------------------------------------------------
      1          8           0       -0.000000   -0.000000   -0.972970
      2         35           0       -0.000000    1.610904    0.126751
      3         35           0        0.000000   -1.610904    0.126751
 ---------------------------------------------------------------------
                    Distance matrix (angstroms):
                    1          2          3
     1  O    0.000000
     2  Br   1.950487   0.000000
     3  Br   1.950487   3.221808   0.000000
 Stoichiometry    Br2O
 Framework group  C2V[C2(O),SGV(Br2)]
 Deg. of freedom     2
 Full point group                 C2V     NOp   4
 Largest Abelian subgroup         C2V     NOp   4
 Largest concise Abelian subgroup C2      NOp   2
                         Standard orientation:                         
 ---------------------------------------------------------------------
 Center     Atomic      Atomic             Coordinates (Angstroms)
 Number     Number       Type             X           Y           Z
 ---------------------------------------------------------------------
      1          8           0        0.000000    0.000000    0.986930
      2         35           0       -0.000000    1.610904   -0.112792
      3         35           0       -0.000000   -1.610904   -0.112792
 ---------------------------------------------------------------------
 Rotational constants (GHZ):     28.7733630      1.2338712      1.1831355
 Standard basis: 3-21G (6D, 7F)
 There are    22 symmetry adapted basis functions of A1  symmetry.
 There are     6 symmetry adapted basis functions of A2  symmetry.
 There are     8 symmetry adapted basis functions of B1  symmetry.
 There are    19 symmetry adapted basis functions of B2  symmetry.
 Integral buffers will be    131072 words long.
 Raffenetti 1 integral format.
 Two-electron integral symmetry is turned on.
    55 basis functions,   129 primitive gaussians,    55 cartesian basis functions
    39 alpha electrons       39 beta electrons
       nuclear repulsion energy       353.1353022152 Hartrees.
 NAtoms=    3 NActive=    3 NUniq=    2 SFac= 2.25D+00 NAtFMM=   60 NAOKFM=F Big=F
 One-electron integrals computed using PRISM.
 NBasis=    55 RedAO= T  NBF=    22     6     8    19
 NBsUse=    55 1.00D-06 NBFU=    22     6     8    19
 Initial guess read from the checkpoint file:  Br2O.chk
 B after Tr=    -0.000000   -0.000000   -0.000000
         Rot=    1.000000   -0.000000    0.000000    0.000000 Ang=   0.00 deg.
 Initial guess orbital symmetries:
       Occupied  (B2) (A1) (B2) (A1) (B2) (A1) (B2) (A2) (A1) (B1)
                 (A1) (B2) (A1) (A1) (B2) (A1) (B2) (A2) (B1) (B2)
                 (A1) (B2) (A1) (B1) (A2) (B2) (A2) (B1) (A1) (A1)
                 (B2) (A1) (B1) (B2) (A1) (A2) (A1) (B2) (B1)
       Virtual   (A1) (B2) (A1) (B2) (B1) (A1) (A1) (B2) (A2) (B2)
                 (B1) (A1) (B2) (A1) (A1) (B2)
 Requested convergence on RMS density matrix=1.00D-08 within 128 cycles.
 Requested convergence on MAX density matrix=1.00D-06.
 Requested convergence on             energy=1.00D-06.
 No special actions if energy rises.
 Keep R1 ints in memory in canonical form, NReq=2034641.
 SCF Done:  E(RHF) =  -5194.44125939     A.U. after    1 cycles
             Convg  =    0.2196D-09             -V/T =  1.9968
 ExpMin= 1.65D-01 ExpMax= 6.10D+03 ExpMxC= 6.10D+03 IAcc=3 IRadAn=         5 AccDes= 0.00D+00
 HarFok:  IExCor=  205 AccDes= 0.00D+00 IRadAn=         5 IDoV=-2
 ScaDFX=  1.000000  1.000000  1.000000  1.000000
 Range of M.O.s used for correlation:    20    55
 NBasis=    55 NAE=    39 NBE=    39 NFC=    19 NFV=     0
 NROrb=     36 NOA=    20 NOB=    20 NVA=    16 NVB=    16
 Disk-based method using ON**2 memory for 20 occupieds at a time.
 Permanent disk used for amplitudes=      478296 words.
 Estimated scratch disk usage=     3779058 words.
 Actual    scratch disk usage=     3779058 words.
 JobTyp=1 Pass  1:  I=  20 to  39 NPSUse=  1 ParTrn=F ParDer=F DoDerP=T.
 (rs|ai) integrals will be sorted in core.
 Spin components of T(2) and E(2):
     alpha-alpha T2 =       0.9840190970D-02 E2=     -0.2570131329D-01
     alpha-beta  T2 =       0.7703479091D-01 E2=     -0.1666893614D+00
     beta-beta   T2 =       0.9840190970D-02 E2=     -0.2570131329D-01
 ANorm=    0.1047241697D+01
 E2 =    -0.2180919879D+00 EUMP2 =    -0.51946593513809D+04
 G2DrvN: will do     4 centers at a time, making    1 passes doing MaxLOS=2.
 Calling FoFCou, ICntrl=  3107 FMM=F I1Cent=   0 AccDes= 0.00D+00.
 FoFDir/FoFCou used for L=0 through L=2.
 End of G2Drv Frequency-dependent properties file   721 does not exist.
 End of G2Drv Frequency-dependent properties file   722 does not exist.
          IDoAtm=111
          Differentiating once with respect to electric field.
                with respect to dipole field.
          Differentiating once with respect to nuclear coordinates.
          Keep R1 ints in memory in canonical form, NReq=2007386.
          There are    12 degrees of freedom in the 1st order CPHF.  IDoFFX=5.
      9 vectors produced by pass  0 Test12= 5.20D-15 8.33D-09 XBig12= 1.70D+01 2.87D+00.
 AX will form     9 AO Fock derivatives at one time.
      9 vectors produced by pass  1 Test12= 5.20D-15 8.33D-09 XBig12= 6.46D-01 3.28D-01.
      9 vectors produced by pass  2 Test12= 5.20D-15 8.33D-09 XBig12= 4.82D-02 1.15D-01.
      9 vectors produced by pass  3 Test12= 5.20D-15 8.33D-09 XBig12= 1.38D-03 1.36D-02.
      9 vectors produced by pass  4 Test12= 5.20D-15 8.33D-09 XBig12= 1.18D-05 1.03D-03.
      9 vectors produced by pass  5 Test12= 5.20D-15 8.33D-09 XBig12= 5.43D-08 9.68D-05.
      9 vectors produced by pass  6 Test12= 5.20D-15 8.33D-09 XBig12= 2.46D-10 4.90D-06.
      2 vectors produced by pass  7 Test12= 5.20D-15 8.33D-09 XBig12= 1.62D-12 4.76D-07.
      1 vectors produced by pass  8 Test12= 5.20D-15 8.33D-09 XBig12= 1.03D-14 3.37D-08.
 Inverted reduced A of dimension    66 with in-core refinement.
 End of Minotr Frequency-dependent properties file   721 does not exist.
 End of Minotr Frequency-dependent properties file   722 does not exist.
 MDV=    33554432.
 Form MO integral derivatives with frozen-active canonical formalism.
 Discarding MO integrals.
 Reordered first order wavefunction length =       778752
 In DefCFB: NBatch=  1 ICI= 39 ICA= 16 LFMax= 20
            Large arrays: LIAPS=     7550400 LIARS=     5525520 words.
 Semi-Direct transformation.
 ModeAB=           4 MOrb=            39 LenV=      33356997
 LASXX=      1290471 LTotXX=     1290471 LenRXX=     2965911
 LTotAB=     1675440 MaxLAS=     1591590 LenRXY=           0
 NonZer=     4256382 LenScr=     7091200 LnRSAI=     1591590
 LnScr1=     3143680 LExtra=           0 Total=     14792381
 MaxDsk=          -1 SrtSym=           T ITran=            4
 JobTyp=0 Pass  1:  I=   1 to  39.
 (rs|ai) integrals will be sorted in core.
 Spin components of T(2) and E(2):
     alpha-alpha T2 =       0.9840190970D-02 E2=     -0.2570131329D-01
     alpha-beta  T2 =       0.7703479091D-01 E2=     -0.1666893614D+00
     beta-beta   T2 =       0.9840190970D-02 E2=     -0.2570131329D-01
 ANorm=    0.1481023412D+01
 E2 =    -0.2180919879D+00 EUMP2 =    -0.51946593513809D+04
          IDoAtm=111
          Differentiating once with respect to electric field.
                with respect to dipole field.
          Differentiating once with respect to nuclear coordinates.
          There are     1 degrees of freedom in the 1st order CPHF.  IDoFFX=0.
 LinEq1:  Iter=  0 NonCon=     1 RMS=6.62D-03 Max=7.64D-02
 LinEq1:  Iter=  1 NonCon=     1 RMS=1.65D-03 Max=2.33D-02
 LinEq1:  Iter=  2 NonCon=     1 RMS=1.18D-03 Max=2.46D-02
 LinEq1:  Iter=  3 NonCon=     1 RMS=3.21D-04 Max=3.11D-03
 LinEq1:  Iter=  4 NonCon=     1 RMS=5.30D-05 Max=8.17D-04
 LinEq1:  Iter=  5 NonCon=     1 RMS=9.89D-06 Max=1.43D-04
 LinEq1:  Iter=  6 NonCon=     1 RMS=1.49D-06 Max=1.75D-05
 LinEq1:  Iter=  7 NonCon=     1 RMS=2.85D-07 Max=3.04D-06
 LinEq1:  Iter=  8 NonCon=     1 RMS=2.42D-08 Max=3.91D-07
 LinEq1:  Iter=  9 NonCon=     1 RMS=1.76D-09 Max=1.27D-08
 LinEq1:  Iter= 10 NonCon=     1 RMS=1.57D-10 Max=1.37D-09
 LinEq1:  Iter= 11 NonCon=     0 RMS=1.51D-11 Max=1.24D-10
 Linear equations converged to 1.000D-10 1.000D-09 after    11 iterations.
 End of Minotr Frequency-dependent properties file   721 does not exist.
 End of Minotr Frequency-dependent properties file   722 does not exist.
 Symmetrizing basis deriv contribution to polar:
 IMax=3 JMax=2 DiffMx= 0.00D+00
 G2DrvN: will do     4 centers at a time, making    1 passes doing MaxLOS=2.
 Calling FoFCou, ICntrl=  3107 FMM=F I1Cent=   0 AccDes= 0.00D+00.
 FoFDir/FoFCou used for L=0 through L=2.
 End of G2Drv Frequency-dependent properties file   721 does not exist.
 End of G2Drv Frequency-dependent properties file   722 does not exist.
 R2 and R3 integrals will be kept in memory, NReq=     3193140.
 DD1Dir will call FoFMem   1 times, MxPair=      1560
 NAB=   780 NAA=     0 NBB=     0.
 Discarding MO integrals.

 **********************************************************************

            Population analysis using the SCF density.

 **********************************************************************

 Orbital symmetries:
       Occupied  (B2) (A1) (B2) (A1) (B2) (A1) (B2) (A2) (A1) (B1)
                 (A1) (B2) (A1) (A1) (B2) (A1) (B2) (A2) (B1) (B2)
                 (A1) (B2) (A1) (B1) (A2) (B2) (A2) (B1) (A1) (A1)
                 (B2) (A1) (B1) (B2) (A1) (A2) (A1) (B2) (B1)
       Virtual   (A1) (B2) (A1) (B2) (B1) (A1) (A1) (B2) (A2) (B2)
                 (B1) (A1) (B2) (A1) (A1) (B2)
 The electronic state is 1-A1.
 Alpha  occ. eigenvalues -- -486.82511-486.82507 -64.83761 -64.83758 -58.02451
 Alpha  occ. eigenvalues --  -58.02435 -58.02221 -58.02211 -58.02202 -58.02199
 Alpha  occ. eigenvalues --  -20.57131  -9.82837  -9.82836  -7.41065  -7.41064
 Alpha  occ. eigenvalues --   -7.39749  -7.39749  -7.39712  -7.39712  -3.14170
 Alpha  occ. eigenvalues --   -3.14135  -3.13575  -3.13569  -3.13543  -3.13528
 Alpha  occ. eigenvalues --   -3.11933  -3.11933  -3.11932  -3.11932  -1.33761
 Alpha  occ. eigenvalues --   -1.01560  -0.96064  -0.59567  -0.56452  -0.55209
 Alpha  occ. eigenvalues --   -0.43929  -0.43164  -0.41979  -0.41421
 Alpha virt. eigenvalues --    0.00674   0.10108   0.71220   0.76680   0.79412
 Alpha virt. eigenvalues --    0.79998   0.82199   0.83408   0.84923   1.00919
 Alpha virt. eigenvalues --    1.74154   1.82011   1.94736   2.81104  23.65768
 Alpha virt. eigenvalues --   24.25307
          Condensed to atoms (all electrons):
              1          2          3
     1  O    8.266470   0.115494   0.115494
     2  Br   0.115494  34.674921  -0.039143
     3  Br   0.115494  -0.039143  34.674921
 Mulliken atomic charges:
              1
     1  O   -0.497457
     2  Br   0.248729
     3  Br   0.248729
 Sum of Mulliken atomic charges =  -0.00000
 Mulliken charges with hydrogens summed into heavy atoms:
              1
     1  O   -0.497457
     2  Br   0.248729
     3  Br   0.248729
 Sum of Mulliken charges with hydrogens summed into heavy atoms =  -0.00000
 APT atomic charges:
              1
     1  O    0.059129
     2  Br  -0.029565
     3  Br  -0.029565
 Sum of APT charges=   0.00000
 APT Atomic charges with hydrogens summed into heavy atoms:
              1
     1  O    0.059129
     2  Br  -0.029565
     3  Br  -0.029565
 Sum of APT charges=   0.00000
 Electronic spatial extent (au):  <R**2>=            769.1999
 Charge=              0.0000 electrons
 Dipole moment (field-independent basis, Debye):
    X=             -0.0000    Y=              0.0000    Z=             -1.6154  Tot=              1.6154
 Quadrupole moment (field-independent basis, Debye-Ang):
   XX=            -42.0544   YY=            -36.0513   ZZ=            -42.2831
   XY=              0.0000   XZ=             -0.0000   YZ=             -0.0000
 Traceless Quadrupole moment (field-independent basis, Debye-Ang):
   XX=             -1.9248   YY=              4.0783   ZZ=             -2.1535
   XY=              0.0000   XZ=             -0.0000   YZ=             -0.0000
 Octapole moment (field-independent basis, Debye-Ang**2):
  XXX=              0.0000  YYY=              0.0000  ZZZ=             -5.7450  XYY=              0.0000
  XXY=             -0.0000  XXZ=             -1.1746  XZZ=              0.0000  YZZ=              0.0000
  YYZ=             -8.7340  XYZ=             -0.0000
 Hexadecapole moment (field-independent basis, Debye-Ang**3):
 XXXX=            -43.3885 YYYY=           -544.5936 ZZZZ=            -75.7621 XXXY=             -0.0000
 XXXZ=             -0.0000 YYYX=             -0.0000 YYYZ=              0.0000 ZZZX=             -0.0000
 ZZZY=              0.0000 XXYY=           -108.9966 XXZZ=            -19.8434 YYZZ=           -105.9166
 XXYZ=             -0.0000 YYXZ=              0.0000 ZZXY=             -0.0000
 N-N= 3.531353022152D+02 E-N=-1.315824157309D+04  KE= 5.211357773179D+03
 Symmetry A1   KE= 2.255294323311D+03
 Symmetry A2   KE= 3.798245691965D+02
 Symmetry B1   KE= 3.846285432684D+02
 Symmetry B2   KE= 2.191610337403D+03
  Exact polarizability:   6.263   0.000  43.241   0.000   0.000  16.194
 Approx polarizability:   4.704   0.000  39.185   0.000   0.000  18.328
 Calling FoFJK, ICntrl=    100127 FMM=F ISym2X=1 I1Cent= 0 IOpClX= 0 NMat=1 NMatS=1 NMatT=0.
 Full mass-weighted force constant matrix:
 Low frequencies ---   -0.0141   -0.0025    0.0118    3.3707    3.9008   10.2362
 Low frequencies ---  176.0193  445.0153  604.0942
 Harmonic frequencies (cm**-1), IR intensities (KM/Mole), Raman scattering
 activities (A**4/AMU), depolarization ratios for plane and unpolarized
 incident light, reduced masses (AMU), force constants (mDyne/A),
 and normal coordinates:
                           1         2         3
                          A1        A1        B2
       Frequencies ---   176.0193  445.0153  604.0942
    Reduced masses ---    59.8354   18.5557   17.8342
   Force constants ---     1.0923    2.1651    3.8345
    IR Intensities ---     0.3581    1.4407    6.6023
 Coord Atom Element:
   1     1     8         -0.00000   0.00000   0.00000
   2     1     8          0.00000   0.00000   0.98528
   3     1     8         -0.55070   0.97944  -0.00000
   1     2    35          0.00000  -0.00000  -0.00000
   2     2    35          0.58758   0.10245  -0.09985
   3     2    35          0.05581  -0.09925   0.06816
   1     3    35         -0.00000  -0.00000  -0.00000
   2     3    35         -0.58758  -0.10245  -0.09985
   3     3    35          0.05581  -0.09925  -0.06816
 Harmonic frequencies (cm**-1), IR intensities (KM/Mole), Raman scattering
 activities (A**4/AMU), depolarization ratios for plane and unpolarized
 incident light, reduced masses (AMU), force constants (mDyne/A),
 and normal coordinates:
                     1                      2                      3
                    A1                     A1                     B2
 Frequencies --   176.0193               445.0153               604.0942
 Red. masses --    59.8354                18.5557                17.8342
 Frc consts  --     1.0923                 2.1651                 3.8345
 IR Inten    --     0.3581                 1.4407                 6.6023
  Atom  AN      X      Y      Z        X      Y      Z        X      Y      Z
     1   8    -0.00   0.00  -0.55     0.00   0.00   0.98     0.00   0.99  -0.00
     2  35     0.00   0.59   0.06    -0.00   0.10  -0.10    -0.00  -0.10   0.07
     3  35    -0.00  -0.59   0.06    -0.00  -0.10  -0.10    -0.00  -0.10  -0.07

 -------------------
 - Thermochemistry -
 -------------------
 Temperature   298.150 Kelvin.  Pressure   1.00000 Atm.
 Atom     1 has atomic number  8 and mass  15.99491
 Atom     2 has atomic number 35 and mass  78.91834
 Atom     3 has atomic number 35 and mass  78.91834
 Molecular mass:   173.83159 amu.
 Principal axes and moments of inertia in atomic units:
                           1         2         3
     Eigenvalues --    62.722641462.665781525.38842
           X            0.00000   0.00000   1.00000
           Y            1.00000   0.00000  -0.00000
           Z            0.00000   1.00000   0.00000
 This molecule is an asymmetric top.
 Rotational symmetry number  2.
 Rotational temperatures (Kelvin)      1.38090     0.05922     0.05678
 Rotational constants (GHZ):          28.77336     1.23387     1.18314
 Zero-point vibrational energy       7327.9 (Joules/Mol)
                                    1.75141 (Kcal/Mol)
 Warning -- explicit consideration of   3 degrees of freedom as
           vibrations may cause significant error
 Vibrational temperatures:    253.25   640.28   869.16
          (Kelvin)
 
 Zero-point correction=                           0.002791 (Hartree/Particle)
 Thermal correction to Energy=                    0.006649
 Thermal correction to Enthalpy=                  0.007593
 Thermal correction to Gibbs Free Energy=        -0.025691
 Sum of electronic and zero-point Energies=          -5194.656560
 Sum of electronic and thermal Energies=             -5194.652703
 Sum of electronic and thermal Enthalpies=           -5194.651759
 Sum of electronic and thermal Free Energies=        -5194.685043
 
                     E (Thermal)             CV                S
                      KCal/Mol        Cal/Mol-Kelvin    Cal/Mol-Kelvin
 Total                    4.172             10.229             70.052
 Electronic               0.000              0.000              0.000
 Translational            0.889              2.981             41.366
 Rotational               0.889              2.981             25.062
 Vibrational              2.395              4.267              3.624
 Vibration     1          0.628              1.872              2.370
 Vibration     2          0.804              1.372              0.811
 Vibration     3          0.963              1.023              0.443
                       Q            Log10(Q)             Ln(Q)
 Total Bot       0.656338D+12         11.817127         27.209941
 Total V=0       0.126159D+14         13.100918         30.165978
 Vib (Bot)       0.108815D+00         -0.963312         -2.218108
 Vib (Bot)    1  0.114262D+01          0.057903          0.133327
 Vib (Bot)    2  0.386906D+00         -0.412394         -0.949573
 Vib (Bot)    3  0.246138D+00         -0.608821         -1.401862
 Vib (V=0)       0.209160D+01          0.320478          0.737929
 Vib (V=0)    1  0.174723D+01          0.242351          0.558033
 Vib (V=0)    2  0.113222D+01          0.053929          0.124176
 Vib (V=0)    3  0.105730D+01          0.024198          0.055719
 Electronic      0.100000D+01          0.000000          0.000000
 Translational   0.900841D+08          7.954648         18.316254
 Rotational      0.669563D+05          4.825791         11.111795
 ***** Axes restored to original set *****
 -------------------------------------------------------------------
 Center     Atomic                   Forces (Hartrees/Bohr)
 Number     Number              X              Y              Z
 -------------------------------------------------------------------
      1        8           0.000000000    0.000000000    0.000119678
      2       35           0.000000000   -0.000103442   -0.000059839
      3       35          -0.000000000    0.000103442   -0.000059839
 -------------------------------------------------------------------
 Cartesian Forces:  Max     0.000119678 RMS     0.000069029

 GradGradGradGradGradGradGradGradGradGradGradGradGradGradGradGradGradGrad
 Berny optimization.
 Internal  Forces:  Max     0.000119171 RMS     0.000099129
 Search for a local minimum.
 Step number   1 out of a maximum of    2
 All quantities printed in internal units (Hartrees-Bohrs-Radians)
 Second derivative matrix not updated -- analytic derivatives used.
 The second derivative matrix:
                          R1        R2        A1
           R1           0.14533
           R2           0.00436   0.14533
           A1           0.04549   0.04549   0.25594
 ITU=  0
     Eigenvalues ---    0.11939   0.14097   0.28625
 Angle between quadratic step and forces=  19.24 degrees.
 Linear search not attempted -- first point.
 Iteration  1 RMS(Cart)=  0.00055079 RMS(Int)=  0.00000003
 Iteration  2 RMS(Cart)=  0.00000005 RMS(Int)=  0.00000000
 ClnCor:  largest displacement from symmetrization is 3.17D-13 for atom     3.
 Variable       Old X    -DE/DX   Delta X   Delta X   Delta X     New X
                                 (Linear)    (Quad)   (Total)
    R1        3.68589  -0.00012   0.00000  -0.00085  -0.00085   3.68504
    R2        3.68589  -0.00012   0.00000  -0.00085  -0.00085   3.68504
    A1        1.94359  -0.00003   0.00000   0.00017   0.00017   1.94376
         Item               Value     Threshold  Converged?
 Maximum Force            0.000119     0.000450     YES
 RMS     Force            0.000099     0.000300     YES
 Maximum Displacement     0.000521     0.001800     YES
 RMS     Displacement     0.000551     0.001200     YES
 Predicted change in Energy=-9.831128D-08
 Optimization completed.
    -- Stationary point found.
                           ----------------------------
                           !   Optimized Parameters   !
                           ! (Angstroms and Degrees)  !
 --------------------------                            --------------------------
 ! Name  Definition              Value          Derivative Info.                !
 --------------------------------------------------------------------------------
 ! R1    R(1,2)                  1.9505         -DE/DX =   -0.0001              !
 ! R2    R(1,3)                  1.9505         -DE/DX =   -0.0001              !
 ! A1    A(2,1,3)              111.3594         -DE/DX =    0.0                 !
 --------------------------------------------------------------------------------
 GradGradGradGradGradGradGradGradGradGradGradGradGradGradGradGradGradGrad

 1\1\GINC-SRU01\Freq\RMP2-FC\3-21G\Br2O1\JAMES\02-Jul-2026\0\\#N Geom=A
 llCheck Guess=TCheck SCRF=Check GenChk RMP2(FC)/3-21G Freq\\Title Card
  Required\\0,1\O,0.,0.,-0.9729700803\Br,0.,1.6109042376,0.1267514101\B
 r,0.,-1.6109042376,0.1267514101\\Version=AM64L-G09RevC.01\State=1-A1\H
 F=-5194.4412594\MP2=-5194.6593514\RMSD=2.196e-10\RMSF=6.903e-05\ZeroPo
 int=0.002791\Thermal=0.0066487\Dipole=0.,0.,0.4944355\DipoleDeriv=-0.2
 379184,0.,0.,0.,0.2973213,0.,0.,0.,0.1179844,0.1189592,0.,0.,0.,-0.148
 6607,-0.187042,0.,-0.182697,-0.0589922,0.1189592,0.,0.,0.,-0.1486607,0
 .187042,0.,0.182697,-0.0589922\Polar=6.2626547,0.,43.2407194,0.,0.,16.
 1936905\PG=C02V [C2(O1),SGV(Br2)]\NImag=0\\0.00005759,0.,0.19232536,0.
 ,0.,0.10064581,-0.00002879,0.,0.,0.00003136,0.,-0.09616268,-0.04315558
 ,0.,0.11662002,0.,-0.06562805,-0.05032291,0.,0.05439182,0.04757970,-0.
 00002879,0.,0.,-0.00000257,0.,0.,0.00003136,0.,-0.09616268,0.04315558,
 0.,-0.02045734,0.01123623,0.,0.11662002,0.,0.06562805,-0.05032291,0.,-
 0.01123623,0.00274320,0.,-0.05439182,0.04757970\\0.,0.,-0.00011968,0.,
 0.00010344,0.00005984,0.,-0.00010344,0.00005984\\\@


 "THE TIME HAS COME", THE WALRUS SAID,
 "TO TALK OF MANY THINGS,
 OF SHOES AND SHIPS AND SEALING WAX,
 OF CABBAGES AND KINGS,
 AND WHY THE SEA IS BOILING HOT,
 AND WHETHER PIGS HAVE WINGS."
 Job cpu time:  0 days  0 hours  0 minutes 13.5 seconds.
 File lengths (MBytes):  RWF=    126 Int=      0 D2E=      0 Chk=      2 Scr=      1
 Normal termination of Gaussian 09 at Thu Jul  2 00:34:58 2026.
