 Entering Gaussian System, Link 0=g09
 Input=brf3.com
 Output=brf3.log
 Initial command:
 /usr/local/g09/l1.exe /scratch/pammy/Gau-7015.inp -scrdir=/scratch/pammy/
 Entering Link 1 = /usr/local/g09/l1.exe PID=      7016.
  
 Copyright (c) 1988,1990,1992,1993,1995,1998,2003,2009,2011,
            Gaussian, Inc.  All Rights Reserved.
  
 This is part of the Gaussian(R) 09 program.  It is based on
 the Gaussian(R) 03 system (copyright 2003, Gaussian, Inc.),
 the Gaussian(R) 98 system (copyright 1998, Gaussian, Inc.),
 the Gaussian(R) 94 system (copyright 1995, Gaussian, Inc.),
 the Gaussian 92(TM) system (copyright 1992, Gaussian, Inc.),
 the Gaussian 90(TM) system (copyright 1990, Gaussian, Inc.),
 the Gaussian 88(TM) system (copyright 1988, Gaussian, Inc.),
 the Gaussian 86(TM) system (copyright 1986, Carnegie Mellon
 University), and the Gaussian 82(TM) system (copyright 1983,
 Carnegie Mellon University). Gaussian is a federally registered
 trademark of Gaussian, Inc.
  
 This software contains proprietary and confidential information,
 including trade secrets, belonging to Gaussian, Inc.
  
 This software is provided under written license and may be
 used, copied, transmitted, or stored only in accord with that
 written license.
  
 The following legend is applicable only to US Government
 contracts under FAR:
  
                    RESTRICTED RIGHTS LEGEND
  
 Use, reproduction and disclosure by the US Government is
 subject to restrictions as set forth in subparagraphs (a)
 and (c) of the Commercial Computer Software - Restricted
 Rights clause in FAR 52.227-19.
  
 Gaussian, Inc.
 340 Quinnipiac St., Bldg. 40, Wallingford CT 06492
  
  
 ---------------------------------------------------------------
 Warning -- This program may not be used in any manner that
 competes with the business of Gaussian, Inc. or will provide
 assistance to any competitor of Gaussian, Inc.  The licensee
 of this program is prohibited from giving any competitor of
 Gaussian, Inc. access to this program.  By using this program,
 the user acknowledges that Gaussian, Inc. is engaged in the
 business of creating and licensing software in the field of
 computational chemistry and represents and warrants to the
 licensee that it is not a competitor of Gaussian, Inc. and that
 it will not use this program in any manner prohibited above.
 ---------------------------------------------------------------
  

 Cite this work as:
 Gaussian 09, Revision C.01,
 M. J. Frisch, G. W. Trucks, H. B. Schlegel, G. E. Scuseria, 
 M. A. Robb, J. R. Cheeseman, G. Scalmani, V. Barone, B. Mennucci, 
 G. A. Petersson, H. Nakatsuji, M. Caricato, X. Li, H. P. Hratchian, 
 A. F. Izmaylov, J. Bloino, G. Zheng, J. L. Sonnenberg, M. Hada, 
 M. Ehara, K. Toyota, R. Fukuda, J. Hasegawa, M. Ishida, T. Nakajima, 
 Y. Honda, O. Kitao, H. Nakai, T. Vreven, J. A. Montgomery, Jr., 
 J. E. Peralta, F. Ogliaro, M. Bearpark, J. J. Heyd, E. Brothers, 
 K. N. Kudin, V. N. Staroverov, T. Keith, R. Kobayashi, J. Normand, 
 K. Raghavachari, A. Rendell, J. C. Burant, S. S. Iyengar, J. Tomasi, 
 M. Cossi, N. Rega, J. M. Millam, M. Klene, J. E. Knox, J. B. Cross, 
 V. Bakken, C. Adamo, J. Jaramillo, R. Gomperts, R. E. Stratmann, 
 O. Yazyev, A. J. Austin, R. Cammi, C. Pomelli, J. W. Ochterski, 
 R. L. Martin, K. Morokuma, V. G. Zakrzewski, G. A. Voth, 
 P. Salvador, J. J. Dannenberg, S. Dapprich, A. D. Daniels, 
 O. Farkas, J. B. Foresman, J. V. Ortiz, J. Cioslowski, 
 and D. J. Fox, Gaussian, Inc., Wallingford CT, 2010.
 
 ******************************************
 Gaussian 09:  AM64L-G09RevC.01 23-Sep-2011
                20-Jun-2024 
 ******************************************
 %chk=brf3.chk
 ----------------------------------------------
 # opt freq=hpmodes mp2/3-21g geom=connectivity
 ----------------------------------------------
 1/18=20,19=15,38=1,57=2/1,3;
 2/9=110,12=2,17=6,18=5,40=1/2;
 3/5=5,11=9,16=1,25=1,30=1,71=1/1,2,3;
 4//1;
 5/5=2,38=5/2;
 8/6=4,10=1/1;
 9/15=2,16=-3/6;
 10/5=1/2;
 6/7=2,8=2,9=2,10=2/1;
 7/12=2/1,2,3,16;
 1/18=20,19=15/3(2);
 2/9=110/2;
 99//99;
 2/9=110/2;
 3/5=5,11=9,16=1,25=1,30=1,71=1/1,2,3;
 4/5=5,16=3/1;
 5/5=2,38=5/2;
 8/6=4,10=1/1;
 9/15=2,16=-3/6;
 10/5=1/2;
 7/12=2/1,2,3,16;
 1/18=20,19=15/3(-8);
 2/9=110/2;
 6/7=2,8=2,9=2,10=2/1;
 99//99;
 -------------------
 Title Card Required
 -------------------
 Charge =  0 Multiplicity = 1
 Symbolic Z-Matrix:
 Br                    2.54653   1.17597   0. 
 F                     2.54653   1.17597   1.72 
 F                     1.68653   2.66554   0. 
 F                     2.54653   1.17597  -1.72 
 

 GradGradGradGradGradGradGradGradGradGradGradGradGradGradGradGradGradGrad
 Berny optimization.
 Initialization pass.
                           ----------------------------
                           !    Initial Parameters    !
                           ! (Angstroms and Degrees)  !
 --------------------------                            --------------------------
 ! Name  Definition              Value          Derivative Info.                !
 --------------------------------------------------------------------------------
 ! R1    R(1,2)                  1.72           estimate D2E/DX2                !
 ! R2    R(1,3)                  1.72           estimate D2E/DX2                !
 ! R3    R(1,4)                  1.72           estimate D2E/DX2                !
 ! A1    A(2,1,3)               90.0            estimate D2E/DX2                !
 ! A2    A(3,1,4)               90.0            estimate D2E/DX2                !
 ! A3    L(2,1,4,3,-1)         180.0            estimate D2E/DX2                !
 ! A4    L(2,1,4,3,-2)         180.0            estimate D2E/DX2                !
 ! D1    D(2,1,3,4)            180.0            estimate D2E/DX2                !
 --------------------------------------------------------------------------------
 Trust Radius=3.00D-01 FncErr=1.00D-07 GrdErr=1.00D-07
 Number of steps in this run=     20 maximum allowed number of steps=    100.
 GradGradGradGradGradGradGradGradGradGradGradGradGradGradGradGradGradGrad

                          Input orientation:                          
 ---------------------------------------------------------------------
 Center     Atomic      Atomic             Coordinates (Angstroms)
 Number     Number       Type             X           Y           Z
 ---------------------------------------------------------------------
      1         35           0        2.546531    1.175973    0.000000
      2          9           0        2.546531    1.175973    1.720000
      3          9           0        1.686531    2.665537    0.000000
      4          9           0        2.546531    1.175973   -1.720000
 ---------------------------------------------------------------------
                    Distance matrix (angstroms):
                    1          2          3          4
     1  Br   0.000000
     2  F    1.720000   0.000000
     3  F    1.720000   2.432447   0.000000
     4  F    1.720000   3.440000   2.432447   0.000000
 Stoichiometry    BrF3
 Framework group  C2V[C2(FBr),SGV(F2)]
 Deg. of freedom     3
 Full point group                 C2V     NOp   4
 Largest Abelian subgroup         C2V     NOp   4
 Largest concise Abelian subgroup C2      NOp   2
                         Standard orientation:                         
 ---------------------------------------------------------------------
 Center     Atomic      Atomic             Coordinates (Angstroms)
 Number     Number       Type             X           Y           Z
 ---------------------------------------------------------------------
      1         35           0        0.000000   -0.000000    0.249677
      2          9           0        0.000000    1.720000    0.249677
      3          9           0       -0.000000    0.000000   -1.470323
      4          9           0       -0.000000   -1.720000    0.249677
 ---------------------------------------------------------------------
 Rotational constants (GHZ):     10.4528612      4.4958644      3.1437226
 Standard basis: 3-21G (6D, 7F)
 There are    24 symmetry adapted basis functions of A1  symmetry.
 There are     3 symmetry adapted basis functions of A2  symmetry.
 There are     9 symmetry adapted basis functions of B1  symmetry.
 There are    14 symmetry adapted basis functions of B2  symmetry.
 Integral buffers will be    131072 words long.
 Raffenetti 1 integral format.
 Two-electron integral symmetry is turned on.
    50 basis functions,   102 primitive gaussians,    50 cartesian basis functions
    31 alpha electrons       31 beta electrons
       nuclear repulsion energy       338.4430673959 Hartrees.
 NAtoms=    4 NActive=    4 NUniq=    3 SFac= 1.78D+00 NAtFMM=   60 NAOKFM=F Big=F
 One-electron integrals computed using PRISM.
 NBasis=    50 RedAO= T  NBF=    24     3     9    14
 NBsUse=    50 1.00D-06 NBFU=    24     3     9    14
 Harris functional with IExCor=  205 diagonalized for initial guess.
 ExpMin= 1.65D-01 ExpMax= 6.10D+03 ExpMxC= 6.10D+03 IAcc=1 IRadAn=         1 AccDes= 0.00D+00
 HarFok:  IExCor=  205 AccDes= 0.00D+00 IRadAn=         1 IDoV= 1
 ScaDFX=  1.000000  1.000000  1.000000  1.000000
 FoFCou: FMM=F IPFlag=           0 FMFlag=      100000 FMFlg1=           0
         NFxFlg=           0 DoJE=T BraDBF=F KetDBF=T FulRan=T
         Omega=  0.000000  0.000000  1.000000  0.000000  0.000000 ICntrl=     500 IOpCl=  0
         NMat0=    1 NMatS0=    1 NMatT0=    0 NMatD0=    1 NMtDS0=    0 NMtDT0=    0
         I1Cent=           4 NGrid=           0.
 Petite list used in FoFCou.
 Initial guess orbital symmetries:
       Occupied  (A1) (A1) (B2) (A1) (B1) (B2) (A1) (A1) (A1) (B2)
                 (A1) (B1) (A1) (A1) (B2) (A2) (B1) (A1) (B2) (A1)
                 (A1) (B2) (A1) (B1) (B2) (A1) (A2) (B1) (B2) (A1)
                 (B1)
       Virtual   (A1) (B2) (A1) (A1) (B2) (B1) (B2) (A2) (B1) (A1)
                 (B1) (A1) (B2) (A1) (B2) (A1) (A1) (B2) (A1)
 The electronic state of the initial guess is 1-A1.
 Requested convergence on RMS density matrix=1.00D-08 within 128 cycles.
 Requested convergence on MAX density matrix=1.00D-06.
 Requested convergence on             energy=1.00D-06.
 No special actions if energy rises.
 Keep R1 ints in memory in canonical form, NReq=1659878.
 SCF Done:  E(RHF) =  -2856.47321226     A.U. after   12 cycles
             Convg  =    0.5090D-08             -V/T =  1.9971
 ExpMin= 1.65D-01 ExpMax= 6.10D+03 ExpMxC= 6.10D+03 IAcc=3 IRadAn=         5 AccDes= 0.00D+00
 HarFok:  IExCor=  205 AccDes= 0.00D+00 IRadAn=         5 IDoV=-2
 ScaDFX=  1.000000  1.000000  1.000000  1.000000
 Range of M.O.s used for correlation:    13    50
 NBasis=    50 NAE=    31 NBE=    31 NFC=    12 NFV=     0
 NROrb=     38 NOA=    19 NOB=    19 NVA=    19 NVB=    19

 **** Warning!!: The largest alpha MO coefficient is  0.10800585D+02

 Fully direct method using O(ONN) memory.
 JobTyp=1 Pass  1:  I=  13 to  31 NPSUse=  1 ParTrn=F ParDer=F DoDerP=T.
 Spin components of T(2) and E(2):
     alpha-alpha T2 =       0.1221033047D-01 E2=     -0.5457738260D-01
     alpha-beta  T2 =       0.7931681970D-01 E2=     -0.3104998465D+00
     beta-beta   T2 =       0.1221033047D-01 E2=     -0.5457738260D-01
 ANorm=    0.1050589111D+01
 E2 =    -0.4196546118D+00 EUMP2 =    -0.28568928668722D+04
          IDoAtm=1111
          Differentiating once with respect to electric field.
                with respect to dipole field.
          Differentiating once with respect to nuclear coordinates.
          Keep R1 ints in memory in canonical form, NReq=1634265.
          There are     1 degrees of freedom in the 1st order CPHF.  IDoFFX=0.
 LinEq1:  Iter=  0 NonCon=     1 RMS=9.22D-03 Max=1.36D-01
 AX will form     1 AO Fock derivatives at one time.
 LinEq1:  Iter=  1 NonCon=     1 RMS=1.59D-03 Max=1.64D-02
 LinEq1:  Iter=  2 NonCon=     1 RMS=4.85D-04 Max=6.51D-03
 LinEq1:  Iter=  3 NonCon=     1 RMS=1.71D-04 Max=1.95D-03
 LinEq1:  Iter=  4 NonCon=     1 RMS=3.07D-05 Max=2.58D-04
 LinEq1:  Iter=  5 NonCon=     1 RMS=1.06D-05 Max=1.33D-04
 LinEq1:  Iter=  6 NonCon=     1 RMS=2.50D-06 Max=2.64D-05
 LinEq1:  Iter=  7 NonCon=     1 RMS=3.71D-07 Max=3.33D-06
 LinEq1:  Iter=  8 NonCon=     1 RMS=5.34D-08 Max=7.76D-07
 LinEq1:  Iter=  9 NonCon=     1 RMS=7.84D-09 Max=7.79D-08
 LinEq1:  Iter= 10 NonCon=     1 RMS=7.85D-10 Max=5.98D-09
 LinEq1:  Iter= 11 NonCon=     0 RMS=7.41D-11 Max=6.42D-10
 Linear equations converged to 1.000D-10 1.000D-09 after    11 iterations.
 End of Minotr Frequency-dependent properties file   721 does not exist.
 End of Minotr Frequency-dependent properties file   722 does not exist.

 **********************************************************************

            Population analysis using the SCF density.

 **********************************************************************

 Orbital symmetries:
       Occupied  (A1) (A1) (B2) (A1) (B1) (A1) (B2) (A1) (A1) (B2)
                 (A1) (B1) (A1) (B2) (A2) (B1) (A1) (A1) (A1) (B2)
                 (A1) (B2) (B1) (A1) (B2) (B1) (A2) (B2) (A1) (A1)
                 (B1)
       Virtual   (A1) (B2) (A1) (B1) (A1) (B2) (B2) (B1) (A2) (A1)
                 (B1) (B2) (A1) (A1) (B2) (A1) (A1) (B2) (A1)
 The electronic state is 1-A1.
 Alpha  occ. eigenvalues -- -487.03338 -65.04090 -58.22762 -58.22659 -58.22444
 Alpha  occ. eigenvalues --  -26.24660 -26.11418 -26.11329 -10.02428  -7.60146
 Alpha  occ. eigenvalues --   -7.59880  -7.58569  -3.34062  -3.33650  -3.32013
 Alpha  occ. eigenvalues --   -3.31725  -3.31381  -1.67817  -1.56791  -1.56588
 Alpha  occ. eigenvalues --   -1.08951  -0.76645  -0.75577  -0.74699  -0.69431
 Alpha  occ. eigenvalues --   -0.66349  -0.62031  -0.59861  -0.59478  -0.48166
 Alpha  occ. eigenvalues --   -0.47371
 Alpha virt. eigenvalues --    0.04171   0.20255   0.69955   0.72441   0.73442
 Alpha virt. eigenvalues --    0.76575   2.07866   2.14644   2.20376   2.27943
 Alpha virt. eigenvalues --    2.30343   2.32529   2.33284   2.35037   2.47495
 Alpha virt. eigenvalues --    3.34824   3.67906   3.94041  24.04615
          Condensed to atoms (all electrons):
              1          2          3          4
     1  Br  33.412365  -0.039070   0.087390  -0.039070
     2  F   -0.039070   9.635266  -0.008772   0.000209
     3  F    0.087390  -0.008772   9.333273  -0.008772
     4  F   -0.039070   0.000209  -0.008772   9.635266
 Mulliken atomic charges:
              1
     1  Br   1.578385
     2  F   -0.587633
     3  F   -0.403119
     4  F   -0.587633
 Sum of Mulliken atomic charges =   0.00000
 Mulliken charges with hydrogens summed into heavy atoms:
              1
     1  Br   1.578385
     2  F   -0.587633
     3  F   -0.403119
     4  F   -0.587633
 Sum of Mulliken charges with hydrogens summed into heavy atoms =   0.00000
 Electronic spatial extent (au):  <R**2>=            348.7606
 Charge=              0.0000 electrons
 Dipole moment (field-independent basis, Debye):
    X=              0.0000    Y=              0.0000    Z=              1.2749  Tot=              1.2749
 Quadrupole moment (field-independent basis, Debye-Ang):
   XX=            -29.9566   YY=            -42.5017   ZZ=            -31.5365
   XY=             -0.0000   XZ=             -0.0000   YZ=              0.0000
 Traceless Quadrupole moment (field-independent basis, Debye-Ang):
   XX=              4.7084   YY=             -7.8368   ZZ=              3.1284
   XY=             -0.0000   XZ=             -0.0000   YZ=              0.0000
 Octapole moment (field-independent basis, Debye-Ang**2):
  XXX=              0.0000  YYY=              0.0000  ZZZ=              6.6445  XYY=              0.0000
  XXY=              0.0000  XXZ=             -0.0537  XZZ=              0.0000  YZZ=              0.0000
  YYZ=             -2.5929  XYZ=             -0.0000
 Hexadecapole moment (field-independent basis, Debye-Ang**3):
 XXXX=            -22.5076 YYYY=           -234.7896 ZZZZ=            -93.4183 XXXY=             -0.0000
 XXXZ=             -0.0000 YYYX=             -0.0000 YYYZ=              0.0000 ZZZX=             -0.0000
 ZZZY=              0.0000 XXYY=            -35.1299 XXZZ=            -18.6859 YYZZ=            -46.8752
 XXYZ=              0.0000 YYXZ=             -0.0000 ZZXY=             -0.0000
 N-N= 3.384430673959D+02 E-N=-7.520668849002D+03  KE= 2.864762527585D+03
 Symmetry A1   KE= 2.032901423909D+03
 Symmetry A2   KE= 4.917863903988D+01
 Symmetry B1   KE= 3.506243846586D+02
 Symmetry B2   KE= 4.320580799778D+02
 Calling FoFJK, ICntrl=      2127 FMM=F ISym2X=1 I1Cent= 0 IOpClX= 0 NMat=1 NMatS=1 NMatT=0.
 ***** Axes restored to original set *****
 -------------------------------------------------------------------
 Center     Atomic                   Forces (Hartrees/Bohr)
 Number     Number              X              Y              Z
 -------------------------------------------------------------------
      1       35           0.036286727   -0.062850454   -0.000000000
      2        9          -0.006984463    0.012097445    0.086449192
      3        9          -0.022317801    0.038655565   -0.000000000
      4        9          -0.006984463    0.012097445   -0.086449192
 -------------------------------------------------------------------
 Cartesian Forces:  Max     0.086449192 RMS     0.043393961

 GradGradGradGradGradGradGradGradGradGradGradGradGradGradGradGradGradGrad
 Berny optimization.
 Internal  Forces:  Max     0.086449192 RMS     0.047845568
 Search for a local minimum.
 Step number   1 out of a maximum of   20
 All quantities printed in internal units (Hartrees-Bohrs-Radians)
 Mixed Optimization -- RFO/linear search
 Second derivative matrix not updated -- first step.
 The second derivative matrix:
                          R1        R2        R3        A1        A2
           R1           0.30859
           R2           0.00000   0.30859
           R3           0.00000   0.00000   0.30859
           A1           0.00000   0.00000   0.00000   0.25000
           A2           0.00000   0.00000   0.00000   0.00000   0.25000
           A3           0.00000   0.00000   0.00000   0.00000   0.00000
           A4           0.00000   0.00000   0.00000   0.00000   0.00000
           D1           0.00000   0.00000   0.00000   0.00000   0.00000
                          A3        A4        D1
           A3           0.01561
           A4           0.00000   0.01561
           D1           0.00000   0.00000   0.01561
 ITU=  0
     Eigenvalues ---    0.01561   0.09374   0.25000   0.30859   0.30859
     Eigenvalues ---    0.30859
 RFO step:  Lambda=-5.56967859D-02 EMin= 1.56087319D-02
 Linear search not attempted -- first point.
 Maximum step size (   0.300) exceeded in Quadratic search.
    -- Step size scaled by   0.690
 Iteration  1 RMS(Cart)=  0.10542860 RMS(Int)=  0.00454119
 Iteration  2 RMS(Cart)=  0.00574006 RMS(Int)=  0.00001662
 Iteration  3 RMS(Cart)=  0.00001713 RMS(Int)=  0.00000000
 Iteration  4 RMS(Cart)=  0.00000000 RMS(Int)=  0.00000001
 ClnCor:  largest displacement from symmetrization is 3.25D-13 for atom     1.
 Variable       Old X    -DE/DX   Delta X   Delta X   Delta X     New X
                                 (Linear)    (Quad)   (Total)
    R1        3.25033   0.08645   0.00000   0.16368   0.16368   3.41401
    R2        3.25033   0.04464   0.00000   0.08451   0.08451   3.33484
    R3        3.25033   0.08645   0.00000   0.16368   0.16368   3.41401
    A1        1.57080  -0.01513   0.00000  -0.06985  -0.06985   1.50094
    A2        1.57080  -0.01513   0.00000  -0.06985  -0.06985   1.50094
    A3        3.14159  -0.03027   0.00000  -0.13971  -0.13971   3.00189
    A4        3.14159  -0.00000   0.00000  -0.00000   0.00000   3.14159
    D1        3.14159  -0.00000   0.00000  -0.00000   0.00000  -3.14159
         Item               Value     Threshold  Converged?
 Maximum Force            0.086449     0.000450     NO 
 RMS     Force            0.047846     0.000300     NO 
 Maximum Displacement     0.155353     0.001800     NO 
 RMS     Displacement     0.106224     0.001200     NO 
 Predicted change in Energy=-2.767365D-02
 GradGradGradGradGradGradGradGradGradGradGradGradGradGradGradGradGradGrad

                          Input orientation:                          
 ---------------------------------------------------------------------
 Center     Atomic      Atomic             Coordinates (Angstroms)
 Number     Number       Type             X           Y           Z
 ---------------------------------------------------------------------
      1         35           0        2.583645    1.111690    0.000000
      2          9           0        2.520598    1.220891    1.802209
      3          9           0        1.701285    2.639983   -0.000000
      4          9           0        2.520598    1.220891   -1.802209
 ---------------------------------------------------------------------
                    Distance matrix (angstroms):
                    1          2          3          4
     1  Br   0.000000
     2  F    1.806615   0.000000
     3  F    1.764721   2.435786   0.000000
     4  F    1.806615   3.604418   2.435786   0.000000
 Stoichiometry    BrF3
 Framework group  C2V[C2(FBr),SGV(F2)]
 Deg. of freedom     3
 Full point group                 C2V     NOp   4
 Largest Abelian subgroup         C2V     NOp   4
 Largest concise Abelian subgroup C2      NOp   2
                         Standard orientation:                         
 ---------------------------------------------------------------------
 Center     Atomic      Atomic             Coordinates (Angstroms)
 Number     Number       Type             X           Y           Z
 ---------------------------------------------------------------------
      1         35           0        0.000000   -0.000000    0.292777
      2          9           0        0.000000    1.802209    0.166682
      3          9           0       -0.000000    0.000000   -1.471944
      4          9           0       -0.000000   -1.802209    0.166682
 ---------------------------------------------------------------------
 Rotational constants (GHZ):     10.3208643      4.0950554      2.9317943
 Standard basis: 3-21G (6D, 7F)
 There are    24 symmetry adapted basis functions of A1  symmetry.
 There are     3 symmetry adapted basis functions of A2  symmetry.
 There are     9 symmetry adapted basis functions of B1  symmetry.
 There are    14 symmetry adapted basis functions of B2  symmetry.
 Integral buffers will be    131072 words long.
 Raffenetti 1 integral format.
 Two-electron integral symmetry is turned on.
    50 basis functions,   102 primitive gaussians,    50 cartesian basis functions
    31 alpha electrons       31 beta electrons
       nuclear repulsion energy       326.0777636420 Hartrees.
 NAtoms=    4 NActive=    4 NUniq=    3 SFac= 1.78D+00 NAtFMM=   60 NAOKFM=F Big=F
 One-electron integrals computed using PRISM.
 NBasis=    50 RedAO= T  NBF=    24     3     9    14
 NBsUse=    50 1.00D-06 NBFU=    24     3     9    14
 Initial guess read from the read-write file.
 B after Tr=     0.000000    0.000000    0.000000
         Rot=    1.000000    0.000000    0.000000    0.000000 Ang=   0.00 deg.
 Initial guess orbital symmetries:
       Occupied  (A1) (A1) (B2) (A1) (B1) (A1) (B2) (A1) (A1) (B2)
                 (A1) (B1) (A1) (B2) (A2) (B1) (A1) (A1) (A1) (B2)
                 (A1) (B2) (B1) (A1) (B2) (B1) (A2) (B2) (A1) (A1)
                 (B1)
       Virtual   (A1) (B2) (A1) (B1) (A1) (B2) (B2) (B1) (A2) (A1)
                 (B1) (B2) (A1) (A1) (B2) (A1) (A1) (B2) (A1)
 Harris functional with IExCor=  205 diagonalized for initial guess.
 ExpMin= 1.65D-01 ExpMax= 6.10D+03 ExpMxC= 6.10D+03 IAcc=1 IRadAn=         1 AccDes= 0.00D+00
 HarFok:  IExCor=  205 AccDes= 0.00D+00 IRadAn=         1 IDoV= 1
 ScaDFX=  1.000000  1.000000  1.000000  1.000000
 FoFCou: FMM=F IPFlag=           0 FMFlag=      100000 FMFlg1=           0
         NFxFlg=           0 DoJE=T BraDBF=F KetDBF=T FulRan=T
         Omega=  0.000000  0.000000  1.000000  0.000000  0.000000 ICntrl=     500 IOpCl=  0
         NMat0=    1 NMatS0=    1 NMatT0=    0 NMatD0=    1 NMtDS0=    0 NMtDT0=    0
         I1Cent=           4 NGrid=           0.
 Petite list used in FoFCou.
 Requested convergence on RMS density matrix=1.00D-08 within 128 cycles.
 Requested convergence on MAX density matrix=1.00D-06.
 Requested convergence on             energy=1.00D-06.
 No special actions if energy rises.
 Keep R1 ints in memory in canonical form, NReq=1659878.
 SCF Done:  E(RHF) =  -2856.48888887     A.U. after   13 cycles
             Convg  =    0.1223D-08             -V/T =  1.9973
 ExpMin= 1.65D-01 ExpMax= 6.10D+03 ExpMxC= 6.10D+03 IAcc=3 IRadAn=         5 AccDes= 0.00D+00
 HarFok:  IExCor=  205 AccDes= 0.00D+00 IRadAn=         5 IDoV=-2
 ScaDFX=  1.000000  1.000000  1.000000  1.000000
 Range of M.O.s used for correlation:    13    50
 NBasis=    50 NAE=    31 NBE=    31 NFC=    12 NFV=     0
 NROrb=     38 NOA=    19 NOB=    19 NVA=    19 NVB=    19

 **** Warning!!: The largest alpha MO coefficient is  0.10793012D+02

 Fully direct method using O(ONN) memory.
 JobTyp=1 Pass  1:  I=  13 to  31 NPSUse=  1 ParTrn=F ParDer=F DoDerP=T.
 Spin components of T(2) and E(2):
     alpha-alpha T2 =       0.1254415303D-01 E2=     -0.5506297336D-01
     alpha-beta  T2 =       0.8783505782D-01 E2=     -0.3189328646D+00
     beta-beta   T2 =       0.1254415303D-01 E2=     -0.5506297336D-01
 ANorm=    0.1054951830D+01
 E2 =    -0.4290588113D+00 EUMP2 =    -0.28569179476827D+04
          IDoAtm=1111
          Differentiating once with respect to electric field.
                with respect to dipole field.
          Differentiating once with respect to nuclear coordinates.
          Keep R1 ints in memory in canonical form, NReq=1634265.
          There are     1 degrees of freedom in the 1st order CPHF.  IDoFFX=0.
 LinEq1:  Iter=  0 NonCon=     1 RMS=1.00D-02 Max=1.43D-01
 AX will form     1 AO Fock derivatives at one time.
 LinEq1:  Iter=  1 NonCon=     1 RMS=1.84D-03 Max=1.89D-02
 LinEq1:  Iter=  2 NonCon=     1 RMS=5.66D-04 Max=7.86D-03
 LinEq1:  Iter=  3 NonCon=     1 RMS=1.88D-04 Max=1.75D-03
 LinEq1:  Iter=  4 NonCon=     1 RMS=3.57D-05 Max=4.38D-04
 LinEq1:  Iter=  5 NonCon=     1 RMS=1.28D-05 Max=1.84D-04
 LinEq1:  Iter=  6 NonCon=     1 RMS=3.37D-06 Max=3.54D-05
 LinEq1:  Iter=  7 NonCon=     1 RMS=5.03D-07 Max=4.43D-06
 LinEq1:  Iter=  8 NonCon=     1 RMS=8.14D-08 Max=1.25D-06
 LinEq1:  Iter=  9 NonCon=     1 RMS=1.22D-08 Max=9.13D-08
 LinEq1:  Iter= 10 NonCon=     1 RMS=1.09D-09 Max=8.49D-09
 LinEq1:  Iter= 11 NonCon=     1 RMS=1.13D-10 Max=1.03D-09
 LinEq1:  Iter= 12 NonCon=     0 RMS=1.39D-11 Max=1.09D-10
 Linear equations converged to 1.000D-10 1.000D-09 after    12 iterations.
 End of Minotr Frequency-dependent properties file   721 does not exist.
 End of Minotr Frequency-dependent properties file   722 does not exist.
 Calling FoFJK, ICntrl=      2127 FMM=F ISym2X=1 I1Cent= 0 IOpClX= 0 NMat=1 NMatS=1 NMatT=0.
 ***** Axes restored to original set *****
 -------------------------------------------------------------------
 Center     Atomic                   Forces (Hartrees/Bohr)
 Number     Number              X              Y              Z
 -------------------------------------------------------------------
      1       35           0.016975236   -0.029401972    0.000000000
      2        9          -0.003930012    0.006806981    0.027336274
      3        9          -0.009115211    0.015788009    0.000000000
      4        9          -0.003930012    0.006806981   -0.027336274
 -------------------------------------------------------------------
 Cartesian Forces:  Max     0.029401972 RMS     0.016080751

 GradGradGradGradGradGradGradGradGradGradGradGradGradGradGradGradGradGrad
 Berny optimization.
 Using GEDIIS/GDIIS optimizer.
 Internal  Forces:  Max     0.027818209 RMS     0.016407169
 Search for a local minimum.
 Step number   2 out of a maximum of   20
 All quantities printed in internal units (Hartrees-Bohrs-Radians)
 Mixed Optimization -- RFO/linear search
 Update second derivatives using D2CorX and points    1    2
 DE= -2.51D-02 DEPred=-2.77D-02 R= 9.06D-01
 SS=  1.41D+00  RLast= 3.00D-01 DXNew= 5.0454D-01 9.0000D-01
 Trust test= 9.06D-01 RLast= 3.00D-01 DXMaxT set to 5.05D-01
 The second derivative matrix:
                          R1        R2        R3        A1        A2
           R1           0.32768
           R2           0.00076   0.30489
           R3           0.01909   0.00076   0.32768
           A1           0.02135   0.01232   0.02135   0.23862
           A2           0.02135   0.01232   0.02135  -0.01138   0.23862
           A3          -0.03429  -0.01510  -0.03429   0.00386   0.00386
           A4           0.00000   0.00000   0.00000  -0.00000  -0.00000
           D1           0.00000   0.00000   0.00000  -0.00000  -0.00000
                          A3        A4        D1
           A3           0.02666
           A4          -0.00000   0.01561
           D1          -0.00000   0.00000   0.01561
 ITU=  1  0
 Use linear search instead of GDIIS.
     Eigenvalues ---    0.01561   0.09775   0.25000   0.30488   0.30859
     Eigenvalues ---    0.34770
 RFO step:  Lambda=-2.19245638D-03 EMin= 1.56087319D-02
 Quartic linear search produced a step of  0.82480.
 Iteration  1 RMS(Cart)=  0.12031384 RMS(Int)=  0.01441944
 Iteration  2 RMS(Cart)=  0.02009041 RMS(Int)=  0.00019052
 Iteration  3 RMS(Cart)=  0.00018777 RMS(Int)=  0.00000001
 Iteration  4 RMS(Cart)=  0.00000001 RMS(Int)=  0.00000000
 ClnCor:  largest displacement from symmetrization is 4.42D-09 for atom     1.
 Variable       Old X    -DE/DX   Delta X   Delta X   Delta X     New X
                                 (Linear)    (Quad)   (Total)
    R1        3.41401   0.02782   0.13500  -0.02601   0.10899   3.52300
    R2        3.33484   0.01823   0.06970   0.00926   0.07897   3.41381
    R3        3.41401   0.02782   0.13500  -0.02601   0.10899   3.52300
    A1        1.50094  -0.00675  -0.05761  -0.05510  -0.11272   1.38823
    A2        1.50094  -0.00675  -0.05761  -0.05510  -0.11272   1.38823
    A3        3.00189  -0.01350  -0.11523  -0.11020  -0.22543   2.77645
    A4        3.14159  -0.00000   0.00000  -0.00000   0.00000   3.14159
    D1        3.14159  -0.00000   0.00000  -0.00000   0.00000   3.14159
         Item               Value     Threshold  Converged?
 Maximum Force            0.027818     0.000450     NO 
 RMS     Force            0.016407     0.000300     NO 
 Maximum Displacement     0.190883     0.001800     NO 
 RMS     Displacement     0.132743     0.001200     NO 
 Predicted change in Energy=-2.540181D-03
 GradGradGradGradGradGradGradGradGradGradGradGradGradGradGradGradGradGrad

                          Input orientation:                          
 ---------------------------------------------------------------------
 Center     Atomic      Atomic             Coordinates (Angstroms)
 Number     Number       Type             X           Y           Z
 ---------------------------------------------------------------------
      1         35           0        2.641964    1.010679    0.000000
      2          9           0        2.472726    1.303807    1.833309
      3          9           0        1.738709    2.575161   -0.000000
      4          9           0        2.472726    1.303807   -1.833309
 ---------------------------------------------------------------------
                    Distance matrix (angstroms):
                    1          2          3          4
     1  Br   0.000000
     2  F    1.864292   0.000000
     3  F    1.806509   2.348647   0.000000
     4  F    1.864292   3.666617   2.348647   0.000000
 Stoichiometry    BrF3
 Framework group  C2V[C2(FBr),SGV(F2)]
 Deg. of freedom     3
 Full point group                 C2V     NOp   4
 Largest Abelian subgroup         C2V     NOp   4
 Largest concise Abelian subgroup C2      NOp   2
                         Standard orientation:                         
 ---------------------------------------------------------------------
 Center     Atomic      Atomic             Coordinates (Angstroms)
 Number     Number       Type             X           Y           Z
 ---------------------------------------------------------------------
      1         35           0       -0.000000    0.000000    0.360502
      2          9           0        0.000000    1.833309    0.022027
      3          9           0        0.000000   -0.000000   -1.446006
      4          9           0       -0.000000   -1.833309    0.022027
 ---------------------------------------------------------------------
 Rotational constants (GHZ):     10.1126411      3.9573000      2.8442731
 Standard basis: 3-21G (6D, 7F)
 There are    24 symmetry adapted basis functions of A1  symmetry.
 There are     3 symmetry adapted basis functions of A2  symmetry.
 There are     9 symmetry adapted basis functions of B1  symmetry.
 There are    14 symmetry adapted basis functions of B2  symmetry.
 Integral buffers will be    131072 words long.
 Raffenetti 1 integral format.
 Two-electron integral symmetry is turned on.
    50 basis functions,   102 primitive gaussians,    50 cartesian basis functions
    31 alpha electrons       31 beta electrons
       nuclear repulsion energy       319.2877644403 Hartrees.
 NAtoms=    4 NActive=    4 NUniq=    3 SFac= 1.78D+00 NAtFMM=   60 NAOKFM=F Big=F
 One-electron integrals computed using PRISM.
 NBasis=    50 RedAO= T  NBF=    24     3     9    14
 NBsUse=    50 1.00D-06 NBFU=    24     3     9    14
 Initial guess read from the read-write file.
 B after Tr=     0.000000    0.000000    0.000000
         Rot=    1.000000    0.000000    0.000000    0.000000 Ang=   0.00 deg.
 Initial guess orbital symmetries:
       Occupied  (A1) (A1) (B2) (A1) (B1) (A1) (B2) (A1) (A1) (B2)
                 (A1) (B1) (A1) (B2) (A2) (B1) (A1) (A1) (A1) (B2)
                 (A1) (B2) (B1) (A1) (B2) (B1) (A2) (B2) (A1) (B1)
                 (A1)
       Virtual   (A1) (B2) (A1) (B1) (A1) (B2) (B2) (B1) (A2) (A1)
                 (B1) (A1) (B2) (A1) (B2) (A1) (A1) (B2) (A1)
 Harris functional with IExCor=  205 diagonalized for initial guess.
 ExpMin= 1.65D-01 ExpMax= 6.10D+03 ExpMxC= 6.10D+03 IAcc=1 IRadAn=         1 AccDes= 0.00D+00
 HarFok:  IExCor=  205 AccDes= 0.00D+00 IRadAn=         1 IDoV= 1
 ScaDFX=  1.000000  1.000000  1.000000  1.000000
 FoFCou: FMM=F IPFlag=           0 FMFlag=      100000 FMFlg1=           0
         NFxFlg=           0 DoJE=T BraDBF=F KetDBF=T FulRan=T
         Omega=  0.000000  0.000000  1.000000  0.000000  0.000000 ICntrl=     500 IOpCl=  0
         NMat0=    1 NMatS0=    1 NMatT0=    0 NMatD0=    1 NMtDS0=    0 NMtDT0=    0
         I1Cent=           4 NGrid=           0.
 Petite list used in FoFCou.
 Requested convergence on RMS density matrix=1.00D-08 within 128 cycles.
 Requested convergence on MAX density matrix=1.00D-06.
 Requested convergence on             energy=1.00D-06.
 No special actions if energy rises.
 Keep R1 ints in memory in canonical form, NReq=1659878.
 SCF Done:  E(RHF) =  -2856.48552463     A.U. after   13 cycles
             Convg  =    0.3197D-08             -V/T =  1.9973
 ExpMin= 1.65D-01 ExpMax= 6.10D+03 ExpMxC= 6.10D+03 IAcc=3 IRadAn=         5 AccDes= 0.00D+00
 HarFok:  IExCor=  205 AccDes= 0.00D+00 IRadAn=         5 IDoV=-2
 ScaDFX=  1.000000  1.000000  1.000000  1.000000
 Range of M.O.s used for correlation:    13    50
 NBasis=    50 NAE=    31 NBE=    31 NFC=    12 NFV=     0
 NROrb=     38 NOA=    19 NOB=    19 NVA=    19 NVB=    19

 **** Warning!!: The largest alpha MO coefficient is  0.10801285D+02

 Fully direct method using O(ONN) memory.
 JobTyp=1 Pass  1:  I=  13 to  31 NPSUse=  1 ParTrn=F ParDer=F DoDerP=T.
 Spin components of T(2) and E(2):
     alpha-alpha T2 =       0.1259588571D-01 E2=     -0.5523506782D-01
     alpha-beta  T2 =       0.9568906782D-01 E2=     -0.3259568785D+00
     beta-beta   T2 =       0.1259588571D-01 E2=     -0.5523506782D-01
 ANorm=    0.1058716600D+01
 E2 =    -0.4364270141D+00 EUMP2 =    -0.28569219516407D+04
          IDoAtm=1111
          Differentiating once with respect to electric field.
                with respect to dipole field.
          Differentiating once with respect to nuclear coordinates.
          Keep R1 ints in memory in canonical form, NReq=1634265.
          There are     1 degrees of freedom in the 1st order CPHF.  IDoFFX=0.
 LinEq1:  Iter=  0 NonCon=     1 RMS=1.01D-02 Max=1.28D-01
 AX will form     1 AO Fock derivatives at one time.
 LinEq1:  Iter=  1 NonCon=     1 RMS=1.92D-03 Max=2.02D-02
 LinEq1:  Iter=  2 NonCon=     1 RMS=6.13D-04 Max=7.95D-03
 LinEq1:  Iter=  3 NonCon=     1 RMS=1.86D-04 Max=1.69D-03
 LinEq1:  Iter=  4 NonCon=     1 RMS=4.15D-05 Max=6.17D-04
 LinEq1:  Iter=  5 NonCon=     1 RMS=1.55D-05 Max=2.16D-04
 LinEq1:  Iter=  6 NonCon=     1 RMS=4.77D-06 Max=4.08D-05
 LinEq1:  Iter=  7 NonCon=     1 RMS=6.21D-07 Max=5.78D-06
 LinEq1:  Iter=  8 NonCon=     1 RMS=7.20D-08 Max=9.72D-07
 LinEq1:  Iter=  9 NonCon=     1 RMS=1.14D-08 Max=1.59D-07
 LinEq1:  Iter= 10 NonCon=     1 RMS=1.26D-09 Max=8.73D-09
 LinEq1:  Iter= 11 NonCon=     1 RMS=1.30D-10 Max=1.30D-09
 LinEq1:  Iter= 12 NonCon=     0 RMS=1.75D-11 Max=1.43D-10
 Linear equations converged to 1.000D-10 1.000D-09 after    12 iterations.
 End of Minotr Frequency-dependent properties file   721 does not exist.
 End of Minotr Frequency-dependent properties file   722 does not exist.
 Calling FoFJK, ICntrl=      2127 FMM=F ISym2X=1 I1Cent= 0 IOpClX= 0 NMat=1 NMatS=1 NMatT=0.
 ***** Axes restored to original set *****
 -------------------------------------------------------------------
 Center     Atomic                   Forces (Hartrees/Bohr)
 Number     Number              X              Y              Z
 -------------------------------------------------------------------
      1       35          -0.002404584    0.004164862   -0.000000000
      2        9           0.002815951   -0.004877370    0.003547413
      3        9          -0.003227318    0.005589878    0.000000000
      4        9           0.002815951   -0.004877370   -0.003547413
 -------------------------------------------------------------------
 Cartesian Forces:  Max     0.005589878 RMS     0.003575324

 GradGradGradGradGradGradGradGradGradGradGradGradGradGradGradGradGradGrad
 Berny optimization.
 Using GEDIIS/GDIIS optimizer.
 Internal  Forces:  Max     0.014520311 RMS     0.006801500
 Search for a local minimum.
 Step number   3 out of a maximum of   20
 All quantities printed in internal units (Hartrees-Bohrs-Radians)
 Mixed Optimization -- RFO/linear search
 Update second derivatives using D2CorX and points    2    3
 DE= -4.00D-03 DEPred=-2.54D-03 R= 1.58D+00
 SS=  1.41D+00  RLast= 3.26D-01 DXNew= 8.4853D-01 9.7777D-01
 Trust test= 1.58D+00 RLast= 3.26D-01 DXMaxT set to 8.49D-01
 The second derivative matrix:
                          R1        R2        R3        A1        A2
           R1           0.28079
           R2          -0.03370   0.28114
           R3          -0.02780  -0.03370   0.28079
           A1           0.04368   0.02918   0.04368   0.22812
           A2           0.04368   0.02918   0.04368  -0.02188   0.22812
           A3          -0.04562  -0.01553  -0.04562   0.01149   0.01149
           A4          -0.00000  -0.00000  -0.00000   0.00000   0.00000
           D1          -0.00000  -0.00000  -0.00000   0.00000   0.00000
                          A3        A4        D1
           A3           0.06326
           A4           0.00000   0.01561
           D1           0.00000   0.00000   0.01561
 ITU=  1  1  0
 Use linear search instead of GDIIS.
     Eigenvalues ---    0.01561   0.12544   0.21763   0.25000   0.30859
     Eigenvalues ---    0.31732
 RFO step:  Lambda=-1.74113516D-03 EMin= 1.56087319D-02
 Quartic linear search produced a step of -0.24944.
 Iteration  1 RMS(Cart)=  0.07679583 RMS(Int)=  0.00287177
 Iteration  2 RMS(Cart)=  0.00285555 RMS(Int)=  0.00000089
 Iteration  3 RMS(Cart)=  0.00000127 RMS(Int)=  0.00000001
 Iteration  4 RMS(Cart)=  0.00000001 RMS(Int)=  0.00000000
 ClnCor:  largest displacement from symmetrization is 1.34D-08 for atom     1.
 Variable       Old X    -DE/DX   Delta X   Delta X   Delta X     New X
                                 (Linear)    (Quad)   (Total)
    R1        3.52300   0.00247  -0.02719   0.03974   0.01255   3.53555
    R2        3.41381   0.00645  -0.01970   0.03954   0.01985   3.43365
    R3        3.52300   0.00247  -0.02719   0.03974   0.01255   3.53555
    A1        1.38823   0.00726   0.02812   0.02934   0.05745   1.44568
    A2        1.38823   0.00726   0.02812   0.02934   0.05745   1.44568
    A3        2.77645   0.01452   0.05623   0.05867   0.11491   2.89136
    A4        3.14159   0.00000   0.00000  -0.00000   0.00000   3.14159
    D1        3.14159   0.00000   0.00000  -0.00000   0.00000   3.14159
         Item               Value     Threshold  Converged?
 Maximum Force            0.014520     0.000450     NO 
 RMS     Force            0.006802     0.000300     NO 
 Maximum Displacement     0.098811     0.001800     NO 
 RMS     Displacement     0.076961     0.001200     NO 
 Predicted change in Energy=-1.338587D-03
 GradGradGradGradGradGradGradGradGradGradGradGradGradGradGradGradGradGrad

                          Input orientation:                          
 ---------------------------------------------------------------------
 Center     Atomic      Atomic             Coordinates (Angstroms)
 Number     Number       Type             X           Y           Z
 ---------------------------------------------------------------------
      1         35           0        2.617026    1.053873    0.000000
      2          9           0        2.500289    1.256066    1.856308
      3          9           0        1.708521    2.627450   -0.000000
      4          9           0        2.500289    1.256066   -1.856308
 ---------------------------------------------------------------------
                    Distance matrix (angstroms):
                    1          2          3          4
     1  Br   0.000000
     2  F    1.870932   0.000000
     3  F    1.817011   2.439973   0.000000
     4  F    1.870932   3.712615   2.439973   0.000000
 Stoichiometry    BrF3
 Framework group  C2V[C2(FBr),SGV(F2)]
 Deg. of freedom     3
 Full point group                 C2V     NOp   4
 Largest Abelian subgroup         C2V     NOp   4
 Largest concise Abelian subgroup C2      NOp   2
                         Standard orientation:                         
 ---------------------------------------------------------------------
 Center     Atomic      Atomic             Coordinates (Angstroms)
 Number     Number       Type             X           Y           Z
 ---------------------------------------------------------------------
      1         35           0       -0.000000    0.000000    0.331542
      2          9           0        0.000000    1.856308    0.098069
      3          9           0        0.000000   -0.000000   -1.485469
      4          9           0       -0.000000   -1.856308    0.098069
 ---------------------------------------------------------------------
 Rotational constants (GHZ):      9.9207044      3.8598475      2.7787281
 Standard basis: 3-21G (6D, 7F)
 There are    24 symmetry adapted basis functions of A1  symmetry.
 There are     3 symmetry adapted basis functions of A2  symmetry.
 There are     9 symmetry adapted basis functions of B1  symmetry.
 There are    14 symmetry adapted basis functions of B2  symmetry.
 Integral buffers will be    131072 words long.
 Raffenetti 1 integral format.
 Two-electron integral symmetry is turned on.
    50 basis functions,   102 primitive gaussians,    50 cartesian basis functions
    31 alpha electrons       31 beta electrons
       nuclear repulsion energy       316.6087467819 Hartrees.
 NAtoms=    4 NActive=    4 NUniq=    3 SFac= 1.78D+00 NAtFMM=   60 NAOKFM=F Big=F
 One-electron integrals computed using PRISM.
 NBasis=    50 RedAO= T  NBF=    24     3     9    14
 NBsUse=    50 1.00D-06 NBFU=    24     3     9    14
 Initial guess read from the read-write file.
 B after Tr=     0.000000    0.000000    0.000000
         Rot=    1.000000    0.000000    0.000000    0.000000 Ang=   0.00 deg.
 Initial guess orbital symmetries:
       Occupied  (A1) (A1) (B2) (A1) (B1) (A1) (B2) (A1) (A1) (B2)
                 (A1) (B1) (A1) (B2) (A2) (B1) (A1) (A1) (B2) (A1)
                 (A1) (B2) (B1) (A1) (B2) (B1) (A2) (B2) (A1) (B1)
                 (A1)
       Virtual   (A1) (B2) (A1) (B1) (B2) (A1) (B2) (B1) (A2) (A1)
                 (B1) (A1) (A1) (B2) (B2) (A1) (A1) (B2) (A1)
 Harris functional with IExCor=  205 diagonalized for initial guess.
 ExpMin= 1.65D-01 ExpMax= 6.10D+03 ExpMxC= 6.10D+03 IAcc=1 IRadAn=         1 AccDes= 0.00D+00
 HarFok:  IExCor=  205 AccDes= 0.00D+00 IRadAn=         1 IDoV= 1
 ScaDFX=  1.000000  1.000000  1.000000  1.000000
 FoFCou: FMM=F IPFlag=           0 FMFlag=      100000 FMFlg1=           0
         NFxFlg=           0 DoJE=T BraDBF=F KetDBF=T FulRan=T
         Omega=  0.000000  0.000000  1.000000  0.000000  0.000000 ICntrl=     500 IOpCl=  0
         NMat0=    1 NMatS0=    1 NMatT0=    0 NMatD0=    1 NMtDS0=    0 NMtDT0=    0
         I1Cent=           4 NGrid=           0.
 Petite list used in FoFCou.
 Requested convergence on RMS density matrix=1.00D-08 within 128 cycles.
 Requested convergence on MAX density matrix=1.00D-06.
 Requested convergence on             energy=1.00D-06.
 No special actions if energy rises.
 Keep R1 ints in memory in canonical form, NReq=1659878.
 SCF Done:  E(RHF) =  -2856.48451503     A.U. after   11 cycles
             Convg  =    0.2658D-08             -V/T =  1.9974
 ExpMin= 1.65D-01 ExpMax= 6.10D+03 ExpMxC= 6.10D+03 IAcc=3 IRadAn=         5 AccDes= 0.00D+00
 HarFok:  IExCor=  205 AccDes= 0.00D+00 IRadAn=         5 IDoV=-2
 ScaDFX=  1.000000  1.000000  1.000000  1.000000
 Range of M.O.s used for correlation:    13    50
 NBasis=    50 NAE=    31 NBE=    31 NFC=    12 NFV=     0
 NROrb=     38 NOA=    19 NOB=    19 NVA=    19 NVB=    19

 **** Warning!!: The largest alpha MO coefficient is  0.10797999D+02

 Fully direct method using O(ONN) memory.
 JobTyp=1 Pass  1:  I=  13 to  31 NPSUse=  1 ParTrn=F ParDer=F DoDerP=T.
 Spin components of T(2) and E(2):
     alpha-alpha T2 =       0.1284034717D-01 E2=     -0.5553731801D-01
     alpha-beta  T2 =       0.9719058233D-01 E2=     -0.3274517369D+00
     beta-beta   T2 =       0.1284034717D-01 E2=     -0.5553731801D-01
 ANorm=    0.1059656207D+01
 E2 =    -0.4385263729D+00 EUMP2 =    -0.28569230414063D+04
          IDoAtm=1111
          Differentiating once with respect to electric field.
                with respect to dipole field.
          Differentiating once with respect to nuclear coordinates.
          Keep R1 ints in memory in canonical form, NReq=1634265.
          There are     1 degrees of freedom in the 1st order CPHF.  IDoFFX=0.
 LinEq1:  Iter=  0 NonCon=     1 RMS=1.07D-02 Max=1.41D-01
 AX will form     1 AO Fock derivatives at one time.
 LinEq1:  Iter=  1 NonCon=     1 RMS=2.08D-03 Max=2.11D-02
 LinEq1:  Iter=  2 NonCon=     1 RMS=6.59D-04 Max=8.78D-03
 LinEq1:  Iter=  3 NonCon=     1 RMS=2.08D-04 Max=1.86D-03
 LinEq1:  Iter=  4 NonCon=     1 RMS=4.50D-05 Max=6.68D-04
 LinEq1:  Iter=  5 NonCon=     1 RMS=1.67D-05 Max=2.50D-04
 LinEq1:  Iter=  6 NonCon=     1 RMS=5.08D-06 Max=4.32D-05
 LinEq1:  Iter=  7 NonCon=     1 RMS=7.13D-07 Max=7.26D-06
 LinEq1:  Iter=  8 NonCon=     1 RMS=1.16D-07 Max=1.81D-06
 LinEq1:  Iter=  9 NonCon=     1 RMS=1.71D-08 Max=1.26D-07
 LinEq1:  Iter= 10 NonCon=     1 RMS=1.50D-09 Max=1.17D-08
 LinEq1:  Iter= 11 NonCon=     1 RMS=1.63D-10 Max=1.51D-09
 LinEq1:  Iter= 12 NonCon=     0 RMS=2.14D-11 Max=1.81D-10
 Linear equations converged to 1.000D-10 1.000D-09 after    12 iterations.
 End of Minotr Frequency-dependent properties file   721 does not exist.
 End of Minotr Frequency-dependent properties file   722 does not exist.
 Calling FoFJK, ICntrl=      2127 FMM=F ISym2X=1 I1Cent= 0 IOpClX= 0 NMat=1 NMatS=1 NMatT=0.
 ***** Axes restored to original set *****
 -------------------------------------------------------------------
 Center     Atomic                   Forces (Hartrees/Bohr)
 Number     Number              X              Y              Z
 -------------------------------------------------------------------
      1       35          -0.000671835    0.001163652    0.000000000
      2        9          -0.000353256    0.000611856    0.000033557
      3        9           0.001378346   -0.002387365   -0.000000000
      4        9          -0.000353256    0.000611856   -0.000033557
 -------------------------------------------------------------------
 Cartesian Forces:  Max     0.002387365 RMS     0.000931190

 GradGradGradGradGradGradGradGradGradGradGradGradGradGradGradGradGradGrad
 Berny optimization.
 Using GEDIIS/GDIIS optimizer.
 Internal  Forces:  Max     0.002756692 RMS     0.001208045
 Search for a local minimum.
 Step number   4 out of a maximum of   20
 All quantities printed in internal units (Hartrees-Bohrs-Radians)
 Mixed Optimization -- RFO/linear search
 Update second derivatives using D2CorX and points    1    2    3    4
 DE= -1.09D-03 DEPred=-1.34D-03 R= 8.14D-01
 SS=  1.41D+00  RLast= 1.43D-01 DXNew= 1.4270D+00 4.2968D-01
 Trust test= 8.14D-01 RLast= 1.43D-01 DXMaxT set to 8.49D-01
 The second derivative matrix:
                          R1        R2        R3        A1        A2
           R1           0.27900
           R2          -0.02678   0.30163
           R3          -0.02959  -0.02678   0.27900
           A1           0.01247   0.00682   0.01247   0.16174
           A2           0.01247   0.00682   0.01247  -0.08826   0.16174
           A3          -0.01468   0.02709  -0.01468   0.02969   0.02969
           A4          -0.00000  -0.00000  -0.00000  -0.00000  -0.00000
           D1           0.00000   0.00000   0.00000   0.00000   0.00000
                          A3        A4        D1
           A3           0.10950
           A4          -0.00000   0.01561
           D1           0.00000  -0.00000   0.01561
 ITU=  1  1  1  0
 Use linear search instead of GDIIS.
     Eigenvalues ---    0.01561   0.13242   0.23064   0.25000   0.30859
     Eigenvalues ---    0.32506
 RFO step:  Lambda=-9.83947236D-06 EMin= 1.56087319D-02
 Quartic linear search produced a step of -0.13015.
 Iteration  1 RMS(Cart)=  0.00987066 RMS(Int)=  0.00003796
 Iteration  2 RMS(Cart)=  0.00003768 RMS(Int)=  0.00000000
 Iteration  3 RMS(Cart)=  0.00000000 RMS(Int)=  0.00000000
 ClnCor:  largest displacement from symmetrization is 4.23D-09 for atom     1.
 Variable       Old X    -DE/DX   Delta X   Delta X   Delta X     New X
                                 (Linear)    (Quad)   (Total)
    R1        3.53555   0.00012  -0.00163   0.00100  -0.00063   3.53492
    R2        3.43365  -0.00276  -0.00258  -0.00538  -0.00797   3.42569
    R3        3.53555   0.00012  -0.00163   0.00100  -0.00063   3.53492
    A1        1.44568  -0.00082  -0.00748   0.00093  -0.00655   1.43913
    A2        1.44568  -0.00082  -0.00748   0.00093  -0.00655   1.43913
    A3        2.89136  -0.00164  -0.01496   0.00185  -0.01310   2.87826
    A4        3.14159  -0.00000  -0.00000  -0.00000  -0.00000   3.14159
    D1        3.14159  -0.00000   0.00000  -0.00000   0.00000   3.14159
         Item               Value     Threshold  Converged?
 Maximum Force            0.002757     0.000450     NO 
 RMS     Force            0.001208     0.000300     NO 
 Maximum Displacement     0.015087     0.001800     NO 
 RMS     Displacement     0.009873     0.001200     NO 
 Predicted change in Energy=-2.353183D-05
 GradGradGradGradGradGradGradGradGradGradGradGradGradGradGradGradGradGrad

                          Input orientation:                          
 ---------------------------------------------------------------------
 Center     Atomic      Atomic             Coordinates (Angstroms)
 Number     Number       Type             X           Y           Z
 ---------------------------------------------------------------------
      1         35           0        2.619527    1.049540    0.000000
      2          9           0        2.496734    1.262224    1.854408
      3          9           0        1.713130    2.619466   -0.000000
      4          9           0        2.496734    1.262224   -1.854408
 ---------------------------------------------------------------------
                    Distance matrix (angstroms):
                    1          2          3          4
     1  Br   0.000000
     2  F    1.870599   0.000000
     3  F    1.812794   2.427956   0.000000
     4  F    1.870599   3.708816   2.427956   0.000000
 Stoichiometry    BrF3
 Framework group  C2V[C2(FBr),SGV(F2)]
 Deg. of freedom     3
 Full point group                 C2V     NOp   4
 Largest Abelian subgroup         C2V     NOp   4
 Largest concise Abelian subgroup C2      NOp   2
                         Standard orientation:                         
 ---------------------------------------------------------------------
 Center     Atomic      Atomic             Coordinates (Angstroms)
 Number     Number       Type             X           Y           Z
 ---------------------------------------------------------------------
      1         35           0       -0.000000    0.000000    0.334447
      2          9           0       -0.000000    1.854408    0.088860
      3          9           0        0.000000   -0.000000   -1.478348
      4          9           0       -0.000000   -1.854408    0.088860
 ---------------------------------------------------------------------
 Rotational constants (GHZ):      9.9822471      3.8677608      2.7876478
 Standard basis: 3-21G (6D, 7F)
 There are    24 symmetry adapted basis functions of A1  symmetry.
 There are     3 symmetry adapted basis functions of A2  symmetry.
 There are     9 symmetry adapted basis functions of B1  symmetry.
 There are    14 symmetry adapted basis functions of B2  symmetry.
 Integral buffers will be    131072 words long.
 Raffenetti 1 integral format.
 Two-electron integral symmetry is turned on.
    50 basis functions,   102 primitive gaussians,    50 cartesian basis functions
    31 alpha electrons       31 beta electrons
       nuclear repulsion energy       317.0396030473 Hartrees.
 NAtoms=    4 NActive=    4 NUniq=    3 SFac= 1.78D+00 NAtFMM=   60 NAOKFM=F Big=F
 One-electron integrals computed using PRISM.
 NBasis=    50 RedAO= T  NBF=    24     3     9    14
 NBsUse=    50 1.00D-06 NBFU=    24     3     9    14
 Initial guess read from the read-write file.
 B after Tr=     0.000000    0.000000    0.000000
         Rot=    1.000000   -0.000000    0.000000    0.000000 Ang=   0.00 deg.
 Initial guess orbital symmetries:
       Occupied  (A1) (A1) (B2) (A1) (B1) (A1) (B2) (A1) (A1) (B2)
                 (A1) (B1) (A1) (B2) (A2) (B1) (A1) (A1) (A1) (B2)
                 (A1) (B2) (B1) (A1) (B2) (B1) (A2) (B2) (A1) (B1)
                 (A1)
       Virtual   (A1) (B2) (A1) (B1) (A1) (B2) (B2) (B1) (A2) (A1)
                 (B1) (A1) (A1) (B2) (B2) (A1) (A1) (B2) (A1)
 Requested convergence on RMS density matrix=1.00D-08 within 128 cycles.
 Requested convergence on MAX density matrix=1.00D-06.
 Requested convergence on             energy=1.00D-06.
 No special actions if energy rises.
 Keep R1 ints in memory in canonical form, NReq=1659878.
 SCF Done:  E(RHF) =  -2856.48498919     A.U. after   10 cycles
             Convg  =    0.3562D-08             -V/T =  1.9974
 ExpMin= 1.65D-01 ExpMax= 6.10D+03 ExpMxC= 6.10D+03 IAcc=3 IRadAn=         5 AccDes= 0.00D+00
 HarFok:  IExCor=  205 AccDes= 0.00D+00 IRadAn=         5 IDoV=-2
 ScaDFX=  1.000000  1.000000  1.000000  1.000000
 Range of M.O.s used for correlation:    13    50
 NBasis=    50 NAE=    31 NBE=    31 NFC=    12 NFV=     0
 NROrb=     38 NOA=    19 NOB=    19 NVA=    19 NVB=    19

 **** Warning!!: The largest alpha MO coefficient is  0.10798267D+02

 Fully direct method using O(ONN) memory.
 JobTyp=1 Pass  1:  I=  13 to  31 NPSUse=  1 ParTrn=F ParDer=F DoDerP=T.
 Spin components of T(2) and E(2):
     alpha-alpha T2 =       0.1280032635D-01 E2=     -0.5548463422D-01
     alpha-beta  T2 =       0.9684092119D-01 E2=     -0.3271120960D+00
     beta-beta   T2 =       0.1280032635D-01 E2=     -0.5548463422D-01
 ANorm=    0.1059453432D+01
 E2 =    -0.4380813645D+00 EUMP2 =    -0.28569230705536D+04
          IDoAtm=1111
          Differentiating once with respect to electric field.
                with respect to dipole field.
          Differentiating once with respect to nuclear coordinates.
          Keep R1 ints in memory in canonical form, NReq=1634265.
          There are     1 degrees of freedom in the 1st order CPHF.  IDoFFX=0.
 LinEq1:  Iter=  0 NonCon=     1 RMS=1.06D-02 Max=1.38D-01
 AX will form     1 AO Fock derivatives at one time.
 LinEq1:  Iter=  1 NonCon=     1 RMS=2.05D-03 Max=2.10D-02
 LinEq1:  Iter=  2 NonCon=     1 RMS=6.50D-04 Max=8.61D-03
 LinEq1:  Iter=  3 NonCon=     1 RMS=2.04D-04 Max=1.82D-03
 LinEq1:  Iter=  4 NonCon=     1 RMS=4.41D-05 Max=6.56D-04
 LinEq1:  Iter=  5 NonCon=     1 RMS=1.63D-05 Max=2.42D-04
 LinEq1:  Iter=  6 NonCon=     1 RMS=5.01D-06 Max=4.26D-05
 LinEq1:  Iter=  7 NonCon=     1 RMS=6.94D-07 Max=6.65D-06
 LinEq1:  Iter=  8 NonCon=     1 RMS=1.09D-07 Max=1.71D-06
 LinEq1:  Iter=  9 NonCon=     1 RMS=1.65D-08 Max=1.27D-07
 LinEq1:  Iter= 10 NonCon=     1 RMS=1.46D-09 Max=1.13D-08
 LinEq1:  Iter= 11 NonCon=     1 RMS=1.57D-10 Max=1.46D-09
 LinEq1:  Iter= 12 NonCon=     0 RMS=2.06D-11 Max=1.76D-10
 Linear equations converged to 1.000D-10 1.000D-09 after    12 iterations.
 End of Minotr Frequency-dependent properties file   721 does not exist.
 End of Minotr Frequency-dependent properties file   722 does not exist.
 Calling FoFJK, ICntrl=      2127 FMM=F ISym2X=1 I1Cent= 0 IOpClX= 0 NMat=1 NMatS=1 NMatT=0.
 ***** Axes restored to original set *****
 -------------------------------------------------------------------
 Center     Atomic                   Forces (Hartrees/Bohr)
 Number     Number              X              Y              Z
 -------------------------------------------------------------------
      1       35          -0.000351011    0.000607968    0.000000000
      2        9           0.000001962   -0.000003398    0.000202391
      3        9           0.000347087   -0.000601172    0.000000000
      4        9           0.000001962   -0.000003398   -0.000202391
 -------------------------------------------------------------------
 Cartesian Forces:  Max     0.000607968 RMS     0.000296742

 GradGradGradGradGradGradGradGradGradGradGradGradGradGradGradGradGradGrad
 Berny optimization.
 Using GEDIIS/GDIIS optimizer.
 Internal  Forces:  Max     0.000694174 RMS     0.000266858
 Search for a local minimum.
 Step number   5 out of a maximum of   20
 All quantities printed in internal units (Hartrees-Bohrs-Radians)
 Mixed Optimization -- En-DIIS/RFO-DIIS
 Update second derivatives using D2CorX and points    1    2    3    4    5
 DE= -2.91D-05 DEPred=-2.35D-05 R= 1.24D+00
 SS=  1.41D+00  RLast= 1.79D-02 DXNew= 1.4270D+00 5.3819D-02
 Trust test= 1.24D+00 RLast= 1.79D-02 DXMaxT set to 8.49D-01
 The second derivative matrix:
                          R1        R2        R3        A1        A2
           R1           0.27652
           R2          -0.01632   0.25722
           R3          -0.03206  -0.01632   0.27652
           A1           0.00570  -0.00515   0.00570   0.16294
           A2           0.00570  -0.00515   0.00570  -0.08706   0.16294
           A3          -0.00153   0.00771  -0.00153   0.03005   0.03005
           A4          -0.00000  -0.00000  -0.00000  -0.00000  -0.00000
           D1           0.00000   0.00000   0.00000   0.00000   0.00000
                          A3        A4        D1
           A3           0.09622
           A4          -0.00000   0.01561
           D1           0.00000  -0.00000   0.01561
 ITU=  1  1  1  1  0
 Use linear search instead of GDIIS.
     Eigenvalues ---    0.01561   0.12923   0.22717   0.25000   0.27479
     Eigenvalues ---    0.30859
 RFO step:  Lambda=-1.84579534D-06 EMin= 1.56087319D-02
 Quartic linear search produced a step of  0.07539.
 Iteration  1 RMS(Cart)=  0.00076856 RMS(Int)=  0.00000009
 Iteration  2 RMS(Cart)=  0.00000009 RMS(Int)=  0.00000001
 ClnCor:  largest displacement from symmetrization is 7.14D-10 for atom     1.
 Variable       Old X    -DE/DX   Delta X   Delta X   Delta X     New X
                                 (Linear)    (Quad)   (Total)
    R1        3.53492   0.00020  -0.00005   0.00068   0.00063   3.53555
    R2        3.42569  -0.00069  -0.00060  -0.00202  -0.00262   3.42307
    R3        3.53492   0.00020  -0.00005   0.00068   0.00063   3.53555
    A1        1.43913   0.00004  -0.00049   0.00079   0.00029   1.43942
    A2        1.43913   0.00004  -0.00049   0.00079   0.00029   1.43942
    A3        2.87826   0.00007  -0.00099   0.00158   0.00059   2.87884
    A4        3.14159  -0.00000  -0.00000  -0.00000   0.00000   3.14159
    D1        3.14159  -0.00000   0.00000  -0.00000   0.00000   3.14159
         Item               Value     Threshold  Converged?
 Maximum Force            0.000694     0.000450     NO 
 RMS     Force            0.000267     0.000300     YES
 Maximum Displacement     0.001290     0.001800     YES
 RMS     Displacement     0.000769     0.001200     YES
 Predicted change in Energy=-1.067777D-06
 GradGradGradGradGradGradGradGradGradGradGradGradGradGradGradGradGradGrad

                          Input orientation:                          
 ---------------------------------------------------------------------
 Center     Atomic      Atomic             Coordinates (Angstroms)
 Number     Number       Type             X           Y           Z
 ---------------------------------------------------------------------
      1         35           0        2.619229    1.050057    0.000000
      2          9           0        2.496686    1.262307    1.854813
      3          9           0        1.713524    2.618784   -0.000000
      4          9           0        2.496686    1.262307   -1.854813
 ---------------------------------------------------------------------
                    Distance matrix (angstroms):
                    1          2          3          4
     1  Br   0.000000
     2  F    1.870935   0.000000
     3  F    1.811410   2.427695   0.000000
     4  F    1.870935   3.709626   2.427695   0.000000
 Stoichiometry    BrF3
 Framework group  C2V[C2(FBr),SGV(F2)]
 Deg. of freedom     3
 Full point group                 C2V     NOp   4
 Largest Abelian subgroup         C2V     NOp   4
 Largest concise Abelian subgroup C2      NOp   2
                         Standard orientation:                         
 ---------------------------------------------------------------------
 Center     Atomic      Atomic             Coordinates (Angstroms)
 Number     Number       Type             X           Y           Z
 ---------------------------------------------------------------------
      1         35           0       -0.000000    0.000000    0.334101
      2          9           0       -0.000000    1.854813    0.089015
      3          9           0        0.000000   -0.000000   -1.477309
      4          9           0       -0.000000   -1.854813    0.089015
 ---------------------------------------------------------------------
 Rotational constants (GHZ):      9.9971520      3.8660721      2.7879309
 Standard basis: 3-21G (6D, 7F)
 There are    24 symmetry adapted basis functions of A1  symmetry.
 There are     3 symmetry adapted basis functions of A2  symmetry.
 There are     9 symmetry adapted basis functions of B1  symmetry.
 There are    14 symmetry adapted basis functions of B2  symmetry.
 Integral buffers will be    131072 words long.
 Raffenetti 1 integral format.
 Two-electron integral symmetry is turned on.
    50 basis functions,   102 primitive gaussians,    50 cartesian basis functions
    31 alpha electrons       31 beta electrons
       nuclear repulsion energy       317.0791651970 Hartrees.
 NAtoms=    4 NActive=    4 NUniq=    3 SFac= 1.78D+00 NAtFMM=   60 NAOKFM=F Big=F
 One-electron integrals computed using PRISM.
 NBasis=    50 RedAO= T  NBF=    24     3     9    14
 NBsUse=    50 1.00D-06 NBFU=    24     3     9    14
 Initial guess read from the read-write file.
 B after Tr=     0.000000    0.000000    0.000000
         Rot=    1.000000    0.000000    0.000000    0.000000 Ang=   0.00 deg.
 Initial guess orbital symmetries:
       Occupied  (A1) (A1) (B2) (A1) (B1) (A1) (B2) (A1) (A1) (B2)
                 (A1) (B1) (A1) (B2) (A2) (B1) (A1) (A1) (A1) (B2)
                 (A1) (B2) (B1) (A1) (B2) (B1) (A2) (B2) (A1) (B1)
                 (A1)
       Virtual   (A1) (B2) (A1) (B1) (A1) (B2) (B2) (B1) (A2) (A1)
                 (B1) (A1) (A1) (B2) (B2) (A1) (A1) (B2) (A1)
 Requested convergence on RMS density matrix=1.00D-08 within 128 cycles.
 Requested convergence on MAX density matrix=1.00D-06.
 Requested convergence on             energy=1.00D-06.
 No special actions if energy rises.
 Keep R1 ints in memory in canonical form, NReq=1659878.
 SCF Done:  E(RHF) =  -2856.48505504     A.U. after    9 cycles
             Convg  =    0.1538D-08             -V/T =  1.9974
 ExpMin= 1.65D-01 ExpMax= 6.10D+03 ExpMxC= 6.10D+03 IAcc=3 IRadAn=         5 AccDes= 0.00D+00
 HarFok:  IExCor=  205 AccDes= 0.00D+00 IRadAn=         5 IDoV=-2
 ScaDFX=  1.000000  1.000000  1.000000  1.000000
 Range of M.O.s used for correlation:    13    50
 NBasis=    50 NAE=    31 NBE=    31 NFC=    12 NFV=     0
 NROrb=     38 NOA=    19 NOB=    19 NVA=    19 NVB=    19

 **** Warning!!: The largest alpha MO coefficient is  0.10798208D+02

 Fully direct method using O(ONN) memory.
 JobTyp=1 Pass  1:  I=  13 to  31 NPSUse=  1 ParTrn=F ParDer=F DoDerP=T.
 Spin components of T(2) and E(2):
     alpha-alpha T2 =       0.1279751751D-01 E2=     -0.5547989297D-01
     alpha-beta  T2 =       0.9678418993D-01 E2=     -0.3270571491D+00
     beta-beta   T2 =       0.1279751751D-01 E2=     -0.5547989297D-01
 ANorm=    0.1059424006D+01
 E2 =    -0.4380169350D+00 EUMP2 =    -0.28569230719800D+04
          IDoAtm=1111
          Differentiating once with respect to electric field.
                with respect to dipole field.
          Differentiating once with respect to nuclear coordinates.
          Keep R1 ints in memory in canonical form, NReq=1634265.
          There are     1 degrees of freedom in the 1st order CPHF.  IDoFFX=0.
 LinEq1:  Iter=  0 NonCon=     1 RMS=1.06D-02 Max=1.38D-01
 AX will form     1 AO Fock derivatives at one time.
 LinEq1:  Iter=  1 NonCon=     1 RMS=2.05D-03 Max=2.10D-02
 LinEq1:  Iter=  2 NonCon=     1 RMS=6.49D-04 Max=8.57D-03
 LinEq1:  Iter=  3 NonCon=     1 RMS=2.04D-04 Max=1.82D-03
 LinEq1:  Iter=  4 NonCon=     1 RMS=4.39D-05 Max=6.52D-04
 LinEq1:  Iter=  5 NonCon=     1 RMS=1.61D-05 Max=2.40D-04
 LinEq1:  Iter=  6 NonCon=     1 RMS=4.99D-06 Max=4.26D-05
 LinEq1:  Iter=  7 NonCon=     1 RMS=6.93D-07 Max=6.61D-06
 LinEq1:  Iter=  8 NonCon=     1 RMS=1.09D-07 Max=1.70D-06
 LinEq1:  Iter=  9 NonCon=     1 RMS=1.64D-08 Max=1.27D-07
 LinEq1:  Iter= 10 NonCon=     1 RMS=1.46D-09 Max=1.12D-08
 LinEq1:  Iter= 11 NonCon=     1 RMS=1.56D-10 Max=1.44D-09
 LinEq1:  Iter= 12 NonCon=     0 RMS=2.05D-11 Max=1.76D-10
 Linear equations converged to 1.000D-10 1.000D-09 after    12 iterations.
 End of Minotr Frequency-dependent properties file   721 does not exist.
 End of Minotr Frequency-dependent properties file   722 does not exist.
 Calling FoFJK, ICntrl=      2127 FMM=F ISym2X=1 I1Cent= 0 IOpClX= 0 NMat=1 NMatS=1 NMatT=0.
 ***** Axes restored to original set *****
 -------------------------------------------------------------------
 Center     Atomic                   Forces (Hartrees/Bohr)
 Number     Number              X              Y              Z
 -------------------------------------------------------------------
      1       35          -0.000113376    0.000196372    0.000000000
      2        9           0.000007747   -0.000013418    0.000113038
      3        9           0.000097882   -0.000169536   -0.000000000
      4        9           0.000007747   -0.000013418   -0.000113038
 -------------------------------------------------------------------
 Cartesian Forces:  Max     0.000196372 RMS     0.000098224

 GradGradGradGradGradGradGradGradGradGradGradGradGradGradGradGradGradGrad
 Berny optimization.
 Using GEDIIS/GDIIS optimizer.
 Internal  Forces:  Max     0.000195763 RMS     0.000093624
 Search for a local minimum.
 Step number   6 out of a maximum of   20
 All quantities printed in internal units (Hartrees-Bohrs-Radians)
 Mixed Optimization -- En-DIIS/RFO-DIIS
 Swaping is turned off.
 Update second derivatives using D2CorX and points    1    2    3    4    5
                                                      6
 DE= -1.43D-06 DEPred=-1.07D-06 R= 1.34D+00
 SS=  1.41D+00  RLast= 2.86D-03 DXNew= 1.4270D+00 8.5737D-03
 Trust test= 1.34D+00 RLast= 2.86D-03 DXMaxT set to 8.49D-01
 The second derivative matrix:
                          R1        R2        R3        A1        A2
           R1           0.26392
           R2           0.01772   0.20810
           R3          -0.04467   0.01772   0.26392
           A1           0.00024   0.01470   0.00024   0.16149
           A2           0.00024   0.01470   0.00024  -0.08851   0.16149
           A3          -0.00482   0.02541  -0.00482   0.02907   0.02907
           A4          -0.00000  -0.00000  -0.00000  -0.00000  -0.00000
           D1           0.00000  -0.00000   0.00000   0.00000   0.00000
                          A3        A4        D1
           A3           0.09570
           A4          -0.00000   0.01561
           D1           0.00000   0.00000   0.01561
 ITU=  1  1  1  1  1  0
     Eigenvalues ---    0.01561   0.11357   0.19863   0.24203   0.25000
     Eigenvalues ---    0.30859
 En-DIIS/RFO-DIIS IScMMF=        0 using points:     6    5
 RFO step:  Lambda=-1.78351733D-07.
 DidBck=F Rises=F RFO-DIIS coefs:    1.50353   -0.50353
 Iteration  1 RMS(Cart)=  0.00057737 RMS(Int)=  0.00000017
 Iteration  2 RMS(Cart)=  0.00000017 RMS(Int)=  0.00000000
 ClnCor:  largest displacement from symmetrization is 2.03D-10 for atom     1.
 Variable       Old X    -DE/DX   Delta X   Delta X   Delta X     New X
                                  (DIIS)     (GDIIS)  (Total)
    R1        3.53555   0.00011   0.00032   0.00030   0.00062   3.53617
    R2        3.42307  -0.00020  -0.00132   0.00011  -0.00121   3.42186
    R3        3.53555   0.00011   0.00032   0.00030   0.00062   3.53617
    A1        1.43942   0.00004   0.00015   0.00027   0.00042   1.43984
    A2        1.43942   0.00004   0.00015   0.00027   0.00042   1.43984
    A3        2.87884   0.00007   0.00030   0.00055   0.00084   2.87969
    A4        3.14159  -0.00000   0.00000   0.00000   0.00000   3.14159
    D1        3.14159  -0.00000   0.00000   0.00000   0.00000   3.14159
         Item               Value     Threshold  Converged?
 Maximum Force            0.000196     0.000450     YES
 RMS     Force            0.000094     0.000300     YES
 Maximum Displacement     0.000868     0.001800     YES
 RMS     Displacement     0.000577     0.001200     YES
 Predicted change in Energy=-2.312717D-07
 Optimization completed.
    -- Stationary point found.
                           ----------------------------
                           !   Optimized Parameters   !
                           ! (Angstroms and Degrees)  !
 --------------------------                            --------------------------
 ! Name  Definition              Value          Derivative Info.                !
 --------------------------------------------------------------------------------
 ! R1    R(1,2)                  1.8709         -DE/DX =    0.0001              !
 ! R2    R(1,3)                  1.8114         -DE/DX =   -0.0002              !
 ! R3    R(1,4)                  1.8709         -DE/DX =    0.0001              !
 ! A1    A(2,1,3)               82.4728         -DE/DX =    0.0                 !
 ! A2    A(3,1,4)               82.4728         -DE/DX =    0.0                 !
 ! A3    L(2,1,4,3,-1)         164.9456         -DE/DX =    0.0001              !
 ! A4    L(2,1,4,3,-2)         180.0            -DE/DX =    0.0                 !
 ! D1    D(2,1,3,4)            180.0            -DE/DX =    0.0                 !
 --------------------------------------------------------------------------------
 GradGradGradGradGradGradGradGradGradGradGradGradGradGradGradGradGradGrad

                          Input orientation:                          
 ---------------------------------------------------------------------
 Center     Atomic      Atomic             Coordinates (Angstroms)
 Number     Number       Type             X           Y           Z
 ---------------------------------------------------------------------
      1         35           0        2.619229    1.050057    0.000000
      2          9           0        2.496686    1.262307    1.854813
      3          9           0        1.713524    2.618784   -0.000000
      4          9           0        2.496686    1.262307   -1.854813
 ---------------------------------------------------------------------
                    Distance matrix (angstroms):
                    1          2          3          4
     1  Br   0.000000
     2  F    1.870935   0.000000
     3  F    1.811410   2.427695   0.000000
     4  F    1.870935   3.709626   2.427695   0.000000
 Stoichiometry    BrF3
 Framework group  C2V[C2(FBr),SGV(F2)]
 Deg. of freedom     3
 Full point group                 C2V     NOp   4
 Largest Abelian subgroup         C2V     NOp   4
 Largest concise Abelian subgroup C2      NOp   2
                         Standard orientation:                         
 ---------------------------------------------------------------------
 Center     Atomic      Atomic             Coordinates (Angstroms)
 Number     Number       Type             X           Y           Z
 ---------------------------------------------------------------------
      1         35           0       -0.000000   -0.000000    0.334101
      2          9           0        0.000000    1.854813    0.089015
      3          9           0        0.000000    0.000000   -1.477309
      4          9           0       -0.000000   -1.854813    0.089015
 ---------------------------------------------------------------------
 Rotational constants (GHZ):      9.9971520      3.8660721      2.7879309

 **********************************************************************

            Population analysis using the SCF density.

 **********************************************************************

 Orbital symmetries:
       Occupied  (A1) (A1) (B2) (A1) (B1) (A1) (B2) (A1) (A1) (B2)
                 (A1) (B1) (A1) (B2) (A2) (B1) (A1) (A1) (A1) (B2)
                 (A1) (B2) (B1) (A1) (B2) (B1) (A2) (B2) (A1) (B1)
                 (A1)
       Virtual   (A1) (B2) (A1) (B1) (A1) (B2) (B2) (B1) (A2) (A1)
                 (B1) (A1) (A1) (B2) (B2) (A1) (A1) (B2) (A1)
 The electronic state is 1-A1.
 Alpha  occ. eigenvalues -- -487.03774 -65.04417 -58.23080 -58.23018 -58.22818
 Alpha  occ. eigenvalues --  -26.23512 -26.11003 -26.10945 -10.02578  -7.60179
 Alpha  occ. eigenvalues --   -7.60080  -7.58892  -3.33903  -3.33729  -3.32215
 Alpha  occ. eigenvalues --   -3.32028  -3.31637  -1.62931  -1.51920  -1.51695
 Alpha  occ. eigenvalues --   -1.10451  -0.72906  -0.72427  -0.70705  -0.66321
 Alpha  occ. eigenvalues --   -0.63478  -0.59769  -0.58052  -0.57546  -0.49949
 Alpha  occ. eigenvalues --   -0.47818
 Alpha virt. eigenvalues --    0.00203   0.09106   0.69443   0.72265   0.78352
 Alpha virt. eigenvalues --    0.79134   2.07086   2.16560   2.22585   2.25372
 Alpha virt. eigenvalues --    2.29315   2.33289   2.34583   2.36137   2.44548
 Alpha virt. eigenvalues --    3.34015   3.65531   3.75932  23.96368
          Condensed to atoms (all electrons):
              1          2          3          4
     1  Br  33.442273   0.045355   0.093840   0.045355
     2  F    0.045355   9.480113  -0.008597   0.000037
     3  F    0.093840  -0.008597   9.262713  -0.008597
     4  F    0.045355   0.000037  -0.008597   9.480113
 Mulliken atomic charges:
              1
     1  Br   1.373176
     2  F   -0.516908
     3  F   -0.339360
     4  F   -0.516908
 Sum of Mulliken atomic charges =   0.00000
 Mulliken charges with hydrogens summed into heavy atoms:
              1
     1  Br   1.373176
     2  F   -0.516908
     3  F   -0.339360
     4  F   -0.516908
 Sum of Mulliken charges with hydrogens summed into heavy atoms =   0.00000
 Electronic spatial extent (au):  <R**2>=            383.3344
 Charge=              0.0000 electrons
 Dipole moment (field-independent basis, Debye):
    X=              0.0000    Y=              0.0000    Z=              2.4467  Tot=              2.4467
 Quadrupole moment (field-independent basis, Debye-Ang):
   XX=            -30.1100   YY=            -43.4790   ZZ=            -30.7711
   XY=              0.0000   XZ=              0.0000   YZ=             -0.0000
 Traceless Quadrupole moment (field-independent basis, Debye-Ang):
   XX=              4.6767   YY=             -8.6923   ZZ=              4.0156
   XY=              0.0000   XZ=              0.0000   YZ=             -0.0000
 Octapole moment (field-independent basis, Debye-Ang**2):
  XXX=              0.0000  YYY=              0.0000  ZZZ=              7.0723  XYY=             -0.0000
  XXY=             -0.0000  XXZ=              0.2940  XZZ=              0.0000  YZZ=              0.0000
  YYZ=              0.1202  XYZ=              0.0000
 Hexadecapole moment (field-independent basis, Debye-Ang**3):
 XXXX=            -22.6456 YYYY=           -267.7861 ZZZZ=            -92.8440 XXXY=             -0.0000
 XXXZ=             -0.0000 YYYX=              0.0000 YYYZ=             -0.0000 ZZZX=             -0.0000
 ZZZY=             -0.0000 XXYY=            -39.9428 XXZZ=            -19.0990 YYZZ=            -51.1740
 XXYZ=             -0.0000 YYXZ=             -0.0000 ZZXY=             -0.0000
 N-N= 3.170791651970D+02 E-N=-7.477910784816D+03  KE= 2.864057835387D+03
 Symmetry A1   KE= 2.032509441681D+03
 Symmetry A2   KE= 4.922534426759D+01
 Symmetry B1   KE= 3.504829406747D+02
 Symmetry B2   KE= 4.318401087640D+02
 1\1\GINC-SRU02\FOpt\RMP2-FC\3-21G\Br1F3\PAMMY\20-Jun-2024\0\\# opt fre
 q=hpmodes mp2/3-21g geom=connectivity\\Title Card Required\\0,1\Br,2.6
 192290088,1.0500566758,0.\F,2.4966860154,1.2623073658,1.8548127637\F,1
 .7135240003,2.6187837625,0.\F,2.4966860154,1.2623073658,-1.8548127637\
 \Version=AM64L-G09RevC.01\State=1-A1\HF=-2856.485055\MP2=-2856.923072\
 RMSD=1.538e-09\RMSF=9.822e-05\Dipole=0.4475278,-0.7751409,0.\PG=C02V [
 C2(F1Br1),SGV(F2)]\\@


 THERE ARE PEOPLE SO ADDICTED TO EXAGERATING THEY
 CAN'T TELL THE TRUTH WITHOUT LYING. -- FORTUNE COOKIE
 Job cpu time:  0 days  0 hours  0 minutes 12.2 seconds.
 File lengths (MBytes):  RWF=      5 Int=      0 D2E=      0 Chk=      2 Scr=      1
 Normal termination of Gaussian 09 at Thu Jun 20 23:15:38 2024.
 Link1:  Proceeding to internal job step number  2.
 -------------------------------------------------------------------
 #N Geom=AllCheck Guess=TCheck SCRF=Check GenChk RMP2(FC)/3-21G Freq
 -------------------------------------------------------------------
 1/10=4,29=7,30=1,38=1,40=1/1,3;
 2/12=2,40=1/2;
 3/5=5,11=1,14=-4,16=1,25=1,30=1,70=2,71=2,116=1/1,2,3;
 4/5=101/1;
 5/5=2,98=1/2;
 8/6=3,8=1,10=1,19=11,30=-1/1;
 9/15=3,16=-3/6;
 11/6=1,8=1,15=11,17=12,24=-1,27=1,28=-2,29=300,32=6,42=3/1,2,10;
 10/6=2,21=1/2;
 8/6=4,8=1,10=1,19=11,30=-1/11,4;
 10/5=1,20=4/2;
 11/12=2,14=11,16=1,17=2,28=-2,42=3/2,10,12;
 6/7=2,8=2,9=2,10=2/1;
 7/8=11,10=1,12=2,25=1,44=2/1,2,3,16;
 1/10=4,30=1/3;
 99//99;
 Structure from the checkpoint file:  brf3.chk
 -------------------
 Title Card Required
 -------------------
 Charge =  0 Multiplicity = 1
 Redundant internal coordinates found in file.
 Br,0,2.6192290088,1.0500566758,0.
 F,0,2.4966860154,1.2623073658,1.8548127637
 F,0,1.7135240003,2.6187837625,0.
 F,0,2.4966860154,1.2623073658,-1.8548127637
 Recover connectivity data from disk.

 GradGradGradGradGradGradGradGradGradGradGradGradGradGradGradGradGradGrad
 Berny optimization.
 Initialization pass.
                           ----------------------------
                           !    Initial Parameters    !
                           ! (Angstroms and Degrees)  !
 --------------------------                            --------------------------
 ! Name  Definition              Value          Derivative Info.                !
 --------------------------------------------------------------------------------
 ! R1    R(1,2)                  1.8709         calculate D2E/DX2 analytically  !
 ! R2    R(1,3)                  1.8114         calculate D2E/DX2 analytically  !
 ! R3    R(1,4)                  1.8709         calculate D2E/DX2 analytically  !
 ! A1    A(2,1,3)               82.4728         calculate D2E/DX2 analytically  !
 ! A2    A(3,1,4)               82.4728         calculate D2E/DX2 analytically  !
 ! A3    L(2,1,4,3,-1)         164.9456         calculate D2E/DX2 analytically  !
 ! A4    L(2,1,4,3,-2)         180.0            calculate D2E/DX2 analytically  !
 ! D1    D(2,1,3,4)            180.0            calculate D2E/DX2 analytically  !
 --------------------------------------------------------------------------------
 Trust Radius=3.00D-01 FncErr=1.00D-07 GrdErr=1.00D-07
 Number of steps in this run=      2 maximum allowed number of steps=      2.
 GradGradGradGradGradGradGradGradGradGradGradGradGradGradGradGradGradGrad

                          Input orientation:                          
 ---------------------------------------------------------------------
 Center     Atomic      Atomic             Coordinates (Angstroms)
 Number     Number       Type             X           Y           Z
 ---------------------------------------------------------------------
      1         35           0        2.619229    1.050057    0.000000
      2          9           0        2.496686    1.262307    1.854813
      3          9           0        1.713524    2.618784   -0.000000
      4          9           0        2.496686    1.262307   -1.854813
 ---------------------------------------------------------------------
                    Distance matrix (angstroms):
                    1          2          3          4
     1  Br   0.000000
     2  F    1.870935   0.000000
     3  F    1.811410   2.427695   0.000000
     4  F    1.870935   3.709626   2.427695   0.000000
 Stoichiometry    BrF3
 Framework group  C2V[C2(FBr),SGV(F2)]
 Deg. of freedom     3
 Full point group                 C2V     NOp   4
 Largest Abelian subgroup         C2V     NOp   4
 Largest concise Abelian subgroup C2      NOp   2
                         Standard orientation:                         
 ---------------------------------------------------------------------
 Center     Atomic      Atomic             Coordinates (Angstroms)
 Number     Number       Type             X           Y           Z
 ---------------------------------------------------------------------
      1         35           0        0.000000   -0.000000    0.334101
      2          9           0        0.000000    1.854813    0.089015
      3          9           0       -0.000000    0.000000   -1.477309
      4          9           0       -0.000000   -1.854813    0.089015
 ---------------------------------------------------------------------
 Rotational constants (GHZ):      9.9971520      3.8660721      2.7879309
 Standard basis: 3-21G (6D, 7F)
 There are    24 symmetry adapted basis functions of A1  symmetry.
 There are     3 symmetry adapted basis functions of A2  symmetry.
 There are     9 symmetry adapted basis functions of B1  symmetry.
 There are    14 symmetry adapted basis functions of B2  symmetry.
 Integral buffers will be    131072 words long.
 Raffenetti 1 integral format.
 Two-electron integral symmetry is turned on.
    50 basis functions,   102 primitive gaussians,    50 cartesian basis functions
    31 alpha electrons       31 beta electrons
       nuclear repulsion energy       317.0791651970 Hartrees.
 NAtoms=    4 NActive=    4 NUniq=    3 SFac= 1.78D+00 NAtFMM=   60 NAOKFM=F Big=F
 One-electron integrals computed using PRISM.
 NBasis=    50 RedAO= T  NBF=    24     3     9    14
 NBsUse=    50 1.00D-06 NBFU=    24     3     9    14
 Initial guess read from the checkpoint file:  brf3.chk
 B after Tr=    -0.000000    0.000000    0.000000
         Rot=    1.000000    0.000000   -0.000000   -0.000000 Ang=   0.00 deg.
 Initial guess orbital symmetries:
       Occupied  (A1) (A1) (B2) (A1) (B1) (A1) (B2) (A1) (A1) (B2)
                 (A1) (B1) (A1) (B2) (A2) (B1) (A1) (A1) (A1) (B2)
                 (A1) (B2) (B1) (A1) (B2) (B1) (A2) (B2) (A1) (B1)
                 (A1)
       Virtual   (A1) (B2) (A1) (B1) (A1) (B2) (B2) (B1) (A2) (A1)
                 (B1) (A1) (A1) (B2) (B2) (A1) (A1) (B2) (A1)
 Requested convergence on RMS density matrix=1.00D-08 within 128 cycles.
 Requested convergence on MAX density matrix=1.00D-06.
 Requested convergence on             energy=1.00D-06.
 No special actions if energy rises.
 Keep R1 ints in memory in canonical form, NReq=1659878.
 SCF Done:  E(RHF) =  -2856.48505504     A.U. after    1 cycles
             Convg  =    0.3467D-09             -V/T =  1.9974
 ExpMin= 1.65D-01 ExpMax= 6.10D+03 ExpMxC= 6.10D+03 IAcc=3 IRadAn=         5 AccDes= 0.00D+00
 HarFok:  IExCor=  205 AccDes= 0.00D+00 IRadAn=         5 IDoV=-2
 ScaDFX=  1.000000  1.000000  1.000000  1.000000
 Range of M.O.s used for correlation:    13    50
 NBasis=    50 NAE=    31 NBE=    31 NFC=    12 NFV=     0
 NROrb=     38 NOA=    19 NOB=    19 NVA=    19 NVB=    19

 **** Warning!!: The largest alpha MO coefficient is  0.10798208D+02

 Disk-based method using ON**2 memory for 19 occupieds at a time.
 Permanent disk used for amplitudes=      426436 words.
 Estimated scratch disk usage=     3846562 words.
 Actual    scratch disk usage=     3846562 words.
 JobTyp=1 Pass  1:  I=  13 to  31 NPSUse=  1 ParTrn=F ParDer=F DoDerP=T.
 (rs|ai) integrals will be sorted in core.
 Spin components of T(2) and E(2):
     alpha-alpha T2 =       0.1279751744D-01 E2=     -0.5547989290D-01
     alpha-beta  T2 =       0.9678418992D-01 E2=     -0.3270571490D+00
     beta-beta   T2 =       0.1279751744D-01 E2=     -0.5547989290D-01
 ANorm=    0.1059424006D+01
 E2 =    -0.4380169349D+00 EUMP2 =    -0.28569230719798D+04
 G2DrvN: will do     5 centers at a time, making    1 passes doing MaxLOS=2.
 Calling FoFCou, ICntrl=  3107 FMM=F I1Cent=   0 AccDes= 0.00D+00.
 FoFDir/FoFCou used for L=0 through L=2.
 End of G2Drv Frequency-dependent properties file   721 does not exist.
 End of G2Drv Frequency-dependent properties file   722 does not exist.
          IDoAtm=1111
          Differentiating once with respect to electric field.
                with respect to dipole field.
          Differentiating once with respect to nuclear coordinates.
          Keep R1 ints in memory in canonical form, NReq=1634265.
          There are    15 degrees of freedom in the 1st order CPHF.  IDoFFX=5.
     12 vectors produced by pass  0 Test12= 3.93D-15 6.67D-09 XBig12= 1.51D+01 3.62D+00.
 AX will form    12 AO Fock derivatives at one time.
     12 vectors produced by pass  1 Test12= 3.93D-15 6.67D-09 XBig12= 7.93D-01 3.34D-01.
     12 vectors produced by pass  2 Test12= 3.93D-15 6.67D-09 XBig12= 5.83D-02 1.06D-01.
     12 vectors produced by pass  3 Test12= 3.93D-15 6.67D-09 XBig12= 7.99D-04 1.02D-02.
     12 vectors produced by pass  4 Test12= 3.93D-15 6.67D-09 XBig12= 3.69D-06 5.05D-04.
     12 vectors produced by pass  5 Test12= 3.93D-15 6.67D-09 XBig12= 1.68D-08 3.67D-05.
      9 vectors produced by pass  6 Test12= 3.93D-15 6.67D-09 XBig12= 9.60D-11 2.63D-06.
      3 vectors produced by pass  7 Test12= 3.93D-15 6.67D-09 XBig12= 5.16D-13 2.01D-07.
      2 vectors produced by pass  8 Test12= 3.93D-15 6.67D-09 XBig12= 2.20D-15 1.20D-08.
 Inverted reduced A of dimension    86 with in-core refinement.
 End of Minotr Frequency-dependent properties file   721 does not exist.
 End of Minotr Frequency-dependent properties file   722 does not exist.
 MDV=    33554432.
 Form MO integral derivatives with frozen-active canonical formalism.
 Discarding MO integrals.
 Reordered first order wavefunction length =       693842
 In DefCFB: NBatch=  1 ICI= 31 ICA= 19 LFMax= 19
            Large arrays: LIAPS=     5890000 LIARS=     4741450 words.
 Semi-Direct transformation.
 ModeAB=           4 MOrb=            31 LenV=      33363349
 LASXX=       909385 LTotXX=      909385 LenRXX=     2000616
 LTotAB=     1091231 MaxLAS=     1458550 LenRXY=           0
 NonZer=     2910001 LenScr=     5089280 LnRSAI=     1458550
 LnScr1=     2916352 LExtra=           0 Total=     11464798
 MaxDsk=          -1 SrtSym=           T ITran=            4
 JobTyp=0 Pass  1:  I=   1 to  31.
 (rs|ai) integrals will be sorted in core.
 Spin components of T(2) and E(2):
     alpha-alpha T2 =       0.1279751744D-01 E2=     -0.5547989290D-01
     alpha-beta  T2 =       0.9678418992D-01 E2=     -0.3270571490D+00
     beta-beta   T2 =       0.1279751744D-01 E2=     -0.5547989290D-01
 ANorm=    0.1498251798D+01
 E2 =    -0.4380169349D+00 EUMP2 =    -0.28569230719798D+04
          IDoAtm=1111
          Differentiating once with respect to electric field.
                with respect to dipole field.
          Differentiating once with respect to nuclear coordinates.
          There are     1 degrees of freedom in the 1st order CPHF.  IDoFFX=0.
 LinEq1:  Iter=  0 NonCon=     1 RMS=1.06D-02 Max=1.38D-01
 LinEq1:  Iter=  1 NonCon=     1 RMS=2.05D-03 Max=2.10D-02
 LinEq1:  Iter=  2 NonCon=     1 RMS=6.49D-04 Max=8.57D-03
 LinEq1:  Iter=  3 NonCon=     1 RMS=2.04D-04 Max=1.82D-03
 LinEq1:  Iter=  4 NonCon=     1 RMS=4.39D-05 Max=6.52D-04
 LinEq1:  Iter=  5 NonCon=     1 RMS=1.61D-05 Max=2.40D-04
 LinEq1:  Iter=  6 NonCon=     1 RMS=4.99D-06 Max=4.26D-05
 LinEq1:  Iter=  7 NonCon=     1 RMS=6.93D-07 Max=6.61D-06
 LinEq1:  Iter=  8 NonCon=     1 RMS=1.09D-07 Max=1.70D-06
 LinEq1:  Iter=  9 NonCon=     1 RMS=1.64D-08 Max=1.27D-07
 LinEq1:  Iter= 10 NonCon=     1 RMS=1.46D-09 Max=1.12D-08
 LinEq1:  Iter= 11 NonCon=     1 RMS=1.56D-10 Max=1.44D-09
 LinEq1:  Iter= 12 NonCon=     0 RMS=2.05D-11 Max=1.76D-10
 Linear equations converged to 1.000D-10 1.000D-09 after    12 iterations.
 End of Minotr Frequency-dependent properties file   721 does not exist.
 End of Minotr Frequency-dependent properties file   722 does not exist.
 Symmetrizing basis deriv contribution to polar:
 IMax=3 JMax=2 DiffMx= 0.00D+00
 G2DrvN: will do     5 centers at a time, making    1 passes doing MaxLOS=2.
 Calling FoFCou, ICntrl=  3107 FMM=F I1Cent=   0 AccDes= 0.00D+00.
 FoFDir/FoFCou used for L=0 through L=2.
 End of G2Drv Frequency-dependent properties file   721 does not exist.
 End of G2Drv Frequency-dependent properties file   722 does not exist.
 R2 and R3 integrals will be kept in memory, NReq=     2446900.
 DD1Dir will call FoFMem   1 times, MxPair=       992
 NAB=   496 NAA=     0 NBB=     0.
 Discarding MO integrals.

 **********************************************************************

            Population analysis using the SCF density.

 **********************************************************************

 Orbital symmetries:
       Occupied  (A1) (A1) (B2) (A1) (B1) (A1) (B2) (A1) (A1) (B2)
                 (A1) (B1) (A1) (B2) (A2) (B1) (A1) (A1) (A1) (B2)
                 (A1) (B2) (B1) (A1) (B2) (B1) (A2) (B2) (A1) (B1)
                 (A1)
       Virtual   (A1) (B2) (A1) (B1) (A1) (B2) (B2) (B1) (A2) (A1)
                 (B1) (A1) (A1) (B2) (B2) (A1) (A1) (B2) (A1)
 The electronic state is 1-A1.
 Alpha  occ. eigenvalues -- -487.03774 -65.04417 -58.23080 -58.23018 -58.22818
 Alpha  occ. eigenvalues --  -26.23512 -26.11003 -26.10945 -10.02578  -7.60179
 Alpha  occ. eigenvalues --   -7.60080  -7.58892  -3.33903  -3.33729  -3.32215
 Alpha  occ. eigenvalues --   -3.32028  -3.31637  -1.62931  -1.51920  -1.51695
 Alpha  occ. eigenvalues --   -1.10451  -0.72906  -0.72427  -0.70705  -0.66321
 Alpha  occ. eigenvalues --   -0.63478  -0.59769  -0.58052  -0.57546  -0.49949
 Alpha  occ. eigenvalues --   -0.47818
 Alpha virt. eigenvalues --    0.00203   0.09106   0.69443   0.72265   0.78352
 Alpha virt. eigenvalues --    0.79134   2.07086   2.16560   2.22585   2.25372
 Alpha virt. eigenvalues --    2.29315   2.33289   2.34583   2.36137   2.44548
 Alpha virt. eigenvalues --    3.34015   3.65531   3.75932  23.96368
          Condensed to atoms (all electrons):
              1          2          3          4
     1  Br  33.442273   0.045355   0.093840   0.045355
     2  F    0.045355   9.480113  -0.008597   0.000037
     3  F    0.093840  -0.008597   9.262713  -0.008597
     4  F    0.045355   0.000037  -0.008597   9.480113
 Mulliken atomic charges:
              1
     1  Br   1.373176
     2  F   -0.516908
     3  F   -0.339360
     4  F   -0.516908
 Sum of Mulliken atomic charges =  -0.00000
 Mulliken charges with hydrogens summed into heavy atoms:
              1
     1  Br   1.373176
     2  F   -0.516908
     3  F   -0.339360
     4  F   -0.516908
 Sum of Mulliken charges with hydrogens summed into heavy atoms =  -0.00000
 APT atomic charges:
              1
     1  Br   1.238785
     2  F   -0.500232
     3  F   -0.238320
     4  F   -0.500232
 Sum of APT charges=  -0.00000
 APT Atomic charges with hydrogens summed into heavy atoms:
              1
     1  Br   1.238785
     2  F   -0.500232
     3  F   -0.238320
     4  F   -0.500232
 Sum of APT charges=  -0.00000
 Electronic spatial extent (au):  <R**2>=            383.3344
 Charge=              0.0000 electrons
 Dipole moment (field-independent basis, Debye):
    X=              0.0000    Y=              0.0000    Z=              2.4467  Tot=              2.4467
 Quadrupole moment (field-independent basis, Debye-Ang):
   XX=            -30.1100   YY=            -43.4790   ZZ=            -30.7711
   XY=             -0.0000   XZ=             -0.0000   YZ=              0.0000
 Traceless Quadrupole moment (field-independent basis, Debye-Ang):
   XX=              4.6767   YY=             -8.6923   ZZ=              4.0156
   XY=             -0.0000   XZ=             -0.0000   YZ=              0.0000
 Octapole moment (field-independent basis, Debye-Ang**2):
  XXX=              0.0000  YYY=              0.0000  ZZZ=              7.0723  XYY=              0.0000
  XXY=              0.0000  XXZ=              0.2940  XZZ=              0.0000  YZZ=             -0.0000
  YYZ=              0.1202  XYZ=             -0.0000
 Hexadecapole moment (field-independent basis, Debye-Ang**3):
 XXXX=            -22.6456 YYYY=           -267.7861 ZZZZ=            -92.8440 XXXY=             -0.0000
 XXXZ=             -0.0000 YYYX=             -0.0000 YYYZ=              0.0000 ZZZX=             -0.0000
 ZZZY=              0.0000 XXYY=            -39.9428 XXZZ=            -19.0990 YYZZ=            -51.1740
 XXYZ=              0.0000 YYXZ=             -0.0000 ZZXY=             -0.0000
 N-N= 3.170791651970D+02 E-N=-7.477910784856D+03  KE= 2.864057835405D+03
 Symmetry A1   KE= 2.032509441678D+03
 Symmetry A2   KE= 4.922534427539D+01
 Symmetry B1   KE= 3.504829406691D+02
 Symmetry B2   KE= 4.318401087820D+02
  Exact polarizability:   4.578   0.000  36.473   0.000   0.000  17.732
 Approx polarizability:   3.486   0.000  35.554   0.000  -0.000  16.628
 Calling FoFJK, ICntrl=    100127 FMM=F ISym2X=1 I1Cent= 0 IOpClX= 0 NMat=1 NMatS=1 NMatT=0.
 Full mass-weighted force constant matrix:
 Low frequencies ---   -6.6974   -2.1080   -0.0089   -0.0060   -0.0054   10.0091
 Low frequencies ---  220.5983  231.7987  314.2941
 Harmonic frequencies (cm**-1), IR intensities (KM/Mole), Raman scattering
 activities (A**4/AMU), depolarization ratios for plane and unpolarized
 incident light, reduced masses (AMU), force constants (mDyne/A),
 and normal coordinates:
                           1         2         3         4         5
                          B1        A1        B2        A1        A1
       Frequencies ---   220.5982  231.7987  314.2940  485.7629  588.8139
    Reduced masses ---    23.6214   23.1481   19.6165   18.9985   22.0687
   Force constants ---     0.6773    0.7328    1.1417    2.6413    4.5080
    IR Intensities ---    21.5329   22.9045    6.7121    0.2126    4.1722
 Coord Atom Element:
   1     1    35          0.27776   0.00000  -0.00000  -0.00000  -0.00000
   2     1    35          0.00000   0.00000  -0.10157  -0.00000   0.00000
   3     1    35         -0.00000   0.26316   0.00000   0.00107   0.22636
   1     2     9         -0.66718  -0.00000   0.00000   0.00000   0.00000
   2     2     9          0.00000  -0.15355  -0.19112   0.67586   0.16649
   3     2     9          0.00000  -0.64877  -0.36741  -0.12149   0.00242
   1     3     9          0.18054   0.00000  -0.00000  -0.00000  -0.00000
   2     3     9          0.00000  -0.00000   0.80415   0.00000  -0.00000
   3     3     9         -0.00000   0.20439  -0.00000   0.23854  -0.94515
   1     4     9         -0.66718  -0.00000   0.00000   0.00000   0.00000
   2     4     9         -0.00000   0.15355  -0.19112  -0.67586  -0.16649
   3     4     9          0.00000  -0.64877   0.36741  -0.12149   0.00242
                           6
                          B2
       Frequencies ---   594.1106
    Reduced masses ---    25.4218
   Force constants ---     5.2868
    IR Intensities ---   104.9563
 Coord Atom Element:
   1     1    35         -0.00000
   2     1    35          0.32741
   3     1    35         -0.00000
   1     2     9          0.00000
   2     2     9         -0.65867
   3     2     9          0.10789
   1     3     9         -0.00000
   2     3     9         -0.04271
   3     3     9          0.00000
   1     4     9          0.00000
   2     4     9         -0.65867
   3     4     9         -0.10789
 Harmonic frequencies (cm**-1), IR intensities (KM/Mole), Raman scattering
 activities (A**4/AMU), depolarization ratios for plane and unpolarized
 incident light, reduced masses (AMU), force constants (mDyne/A),
 and normal coordinates:
                     1                      2                      3
                    B1                     A1                     B2
 Frequencies --   220.5982               231.7987               314.2940
 Red. masses --    23.6214                23.1481                19.6165
 Frc consts  --     0.6773                 0.7328                 1.1417
 IR Inten    --    21.5329                22.9045                 6.7121
  Atom  AN      X      Y      Z        X      Y      Z        X      Y      Z
     1  35     0.28   0.00  -0.00     0.00   0.00   0.26    -0.00  -0.10   0.00
     2   9    -0.67   0.00   0.00    -0.00  -0.15  -0.65     0.00  -0.19  -0.37
     3   9     0.18   0.00  -0.00     0.00  -0.00   0.20    -0.00   0.80  -0.00
     4   9    -0.67  -0.00   0.00    -0.00   0.15  -0.65     0.00  -0.19   0.37
                     4                      5                      6
                    A1                     A1                     B2
 Frequencies --   485.7629               588.8139               594.1106
 Red. masses --    18.9985                22.0687                25.4218
 Frc consts  --     2.6413                 4.5080                 5.2868
 IR Inten    --     0.2126                 4.1722               104.9563
  Atom  AN      X      Y      Z        X      Y      Z        X      Y      Z
     1  35    -0.00  -0.00   0.00    -0.00   0.00   0.23    -0.00   0.33  -0.00
     2   9     0.00   0.68  -0.12     0.00   0.17   0.00     0.00  -0.66   0.11
     3   9    -0.00   0.00   0.24    -0.00  -0.00  -0.95    -0.00  -0.04   0.00
     4   9     0.00  -0.68  -0.12     0.00  -0.17   0.00     0.00  -0.66  -0.11

 -------------------
 - Thermochemistry -
 -------------------
 Temperature   298.150 Kelvin.  Pressure   1.00000 Atm.
 Atom     1 has atomic number 35 and mass  78.91834
 Atom     2 has atomic number  9 and mass  18.99840
 Atom     3 has atomic number  9 and mass  18.99840
 Atom     4 has atomic number  9 and mass  18.99840
 Molecular mass:   135.91355 amu.
 Principal axes and moments of inertia in atomic units:
                           1         2         3
     Eigenvalues --   180.52553 466.81520 647.34073
           X            0.00000   0.00000   1.00000
           Y            1.00000   0.00000   0.00000
           Z           -0.00000   1.00000  -0.00000
 This molecule is an asymmetric top.
 Rotational symmetry number  2.
 Rotational temperatures (Kelvin)      0.47979     0.18554     0.13380
 Rotational constants (GHZ):           9.99715     3.86607     2.78793
 Zero-point vibrational energy      14566.8 (Joules/Mol)
                                    3.48155 (Kcal/Mol)
 Warning -- explicit consideration of   6 degrees of freedom as
           vibrations may cause significant error
 Vibrational temperatures:    317.39   333.51   452.20   698.90   847.17
          (Kelvin)            854.79
 
 Zero-point correction=                           0.005548 (Hartree/Particle)
 Thermal correction to Energy=                    0.010389
 Thermal correction to Enthalpy=                  0.011334
 Thermal correction to Gibbs Free Energy=        -0.022658
 Sum of electronic and zero-point Energies=          -2856.917524
 Sum of electronic and thermal Energies=             -2856.912683
 Sum of electronic and thermal Enthalpies=           -2856.911738
 Sum of electronic and thermal Free Energies=        -2856.945730
 
                     E (Thermal)             CV                S
                      KCal/Mol        Cal/Mol-Kelvin    Cal/Mol-Kelvin
 Total                    6.519             14.592             71.542
 Electronic               0.000              0.000              0.000
 Translational            0.889              2.981             40.633
 Rotational               0.889              2.981             24.126
 Vibrational              4.742              8.630              6.783
 Vibration     1          0.647              1.810              1.954
 Vibration     2          0.653              1.792              1.865
 Vibration     3          0.702              1.646              1.340
 Vibration     4          0.842              1.282              0.695
 Vibration     5          0.946              1.056              0.469
 Vibration     6          0.952              1.044              0.460
                       Q            Log10(Q)             Ln(Q)
 Total Bot       0.264249D+11         10.422014         23.997574
 Total V=0       0.941897D+13         12.974003         29.873747
 Vib (Bot)       0.101494D-01         -1.993560         -4.590342
 Vib (Bot)    1  0.896445D+00         -0.047477         -0.109319
 Vib (Bot)    2  0.849025D+00         -0.071079         -0.163666
 Vib (Bot)    3  0.600137D+00         -0.221750         -0.510598
 Vib (Bot)    4  0.342591D+00         -0.465224         -1.071218
 Vib (Bot)    5  0.256507D+00         -0.590901         -1.360599
 Vib (Bot)    6  0.252854D+00         -0.597129         -1.374941
 Vib (V=0)       0.361767D+01          0.558429          1.285831
 Vib (V=0)    1  0.152646D+01          0.183684          0.422949
 Vib (V=0)    2  0.148531D+01          0.171818          0.395626
 Vib (V=0)    3  0.128113D+01          0.107593          0.247742
 Vib (V=0)    4  0.110611D+01          0.043798          0.100849
 Vib (V=0)    5  0.106196D+01          0.026107          0.060114
 Vib (V=0)    6  0.106030D+01          0.025429          0.058551
 Electronic      0.100000D+01          0.000000          0.000000
 Translational   0.622801D+08          7.794349         17.947153
 Rotational      0.418047D+05          4.621225         10.640763
 ***** Axes restored to original set *****
 -------------------------------------------------------------------
 Center     Atomic                   Forces (Hartrees/Bohr)
 Number     Number              X              Y              Z
 -------------------------------------------------------------------
      1       35          -0.000113375    0.000196372   -0.000000000
      2        9           0.000007747   -0.000013418    0.000113038
      3        9           0.000097881   -0.000169535    0.000000000
      4        9           0.000007747   -0.000013418   -0.000113038
 -------------------------------------------------------------------
 Cartesian Forces:  Max     0.000196372 RMS     0.000098223

 GradGradGradGradGradGradGradGradGradGradGradGradGradGradGradGradGradGrad
 Berny optimization.
 Internal  Forces:  Max     0.000195762 RMS     0.000093623
 Search for a local minimum.
 Step number   1 out of a maximum of    2
 All quantities printed in internal units (Hartrees-Bohrs-Radians)
 Second derivative matrix not updated -- analytic derivatives used.
 The second derivative matrix:
                          R1        R2        R3        A1        A2
           R1           0.17157
           R2           0.00609   0.20267
           R3           0.00001   0.00609   0.17157
           A1           0.00243   0.01237  -0.00584   0.15104
           A2          -0.00584   0.01237   0.00243  -0.11142   0.15104
           A3          -0.00341   0.02475  -0.00341   0.03962   0.03962
           A4           0.00000  -0.00000  -0.00000  -0.00000  -0.00000
           D1           0.00000  -0.00000  -0.00000  -0.00000  -0.00000
                          A3        A4        D1
           A3           0.07924
           A4          -0.00000   0.03852
           D1          -0.00000   0.03852   0.03852
 ITU=  0
     Eigenvalues ---    0.07704   0.10797   0.17081   0.17168   0.21347
     Eigenvalues ---    0.26321
 Angle between quadratic step and forces=  15.96 degrees.
 Linear search not attempted -- first point.
 Iteration  1 RMS(Cart)=  0.00062106 RMS(Int)=  0.00000018
 Iteration  2 RMS(Cart)=  0.00000019 RMS(Int)=  0.00000000
 ClnCor:  largest displacement from symmetrization is 4.46D-09 for atom     1.
 Variable       Old X    -DE/DX   Delta X   Delta X   Delta X     New X
                                 (Linear)    (Quad)   (Total)
    R1        3.53555   0.00011   0.00000   0.00071   0.00071   3.53626
    R2        3.42307  -0.00020   0.00000  -0.00117  -0.00117   3.42190
    R3        3.53555   0.00011   0.00000   0.00071   0.00071   3.53626
    A1        1.43942   0.00004   0.00000   0.00044   0.00044   1.43986
    A2        1.43942   0.00004   0.00000   0.00044   0.00044   1.43986
    A3        2.87884   0.00007   0.00000   0.00088   0.00088   2.87973
    A4        3.14159  -0.00000   0.00000  -0.00000   0.00000   3.14159
    D1       -3.14159  -0.00000   0.00000  -0.00000   0.00000  -3.14159
         Item               Value     Threshold  Converged?
 Maximum Force            0.000196     0.000450     YES
 RMS     Force            0.000094     0.000300     YES
 Maximum Displacement     0.000907     0.001800     YES
 RMS     Displacement     0.000621     0.001200     YES
 Predicted change in Energy=-2.396342D-07
 Optimization completed.
    -- Stationary point found.
                           ----------------------------
                           !   Optimized Parameters   !
                           ! (Angstroms and Degrees)  !
 --------------------------                            --------------------------
 ! Name  Definition              Value          Derivative Info.                !
 --------------------------------------------------------------------------------
 ! R1    R(1,2)                  1.8709         -DE/DX =    0.0001              !
 ! R2    R(1,3)                  1.8114         -DE/DX =   -0.0002              !
 ! R3    R(1,4)                  1.8709         -DE/DX =    0.0001              !
 ! A1    A(2,1,3)               82.4728         -DE/DX =    0.0                 !
 ! A2    A(3,1,4)               82.4728         -DE/DX =    0.0                 !
 ! A3    L(2,1,4,3,-1)         164.9456         -DE/DX =    0.0001              !
 ! A4    L(2,1,4,3,-2)         180.0            -DE/DX =    0.0                 !
 ! D1    D(2,1,3,4)           -180.0            -DE/DX =    0.0                 !
 --------------------------------------------------------------------------------
 GradGradGradGradGradGradGradGradGradGradGradGradGradGradGradGradGradGrad

 1\1\GINC-SRU02\Freq\RMP2-FC\3-21G\Br1F3\PAMMY\20-Jun-2024\0\\#N Geom=A
 llCheck Guess=TCheck SCRF=Check GenChk RMP2(FC)/3-21G Freq\\Title Card
  Required\\0,1\Br,2.6192290088,1.0500566758,0.\F,2.4966860154,1.262307
 3658,1.8548127637\F,1.7135240003,2.6187837625,0.\F,2.4966860154,1.2623
 073658,-1.8548127637\\Version=AM64L-G09RevC.01\State=1-A1\HF=-2856.485
 055\MP2=-2856.923072\RMSD=3.467e-10\RMSF=9.822e-05\ZeroPoint=0.0055482
 \Thermal=0.0103894\Dipole=0.4475278,-0.7751409,0.\DipoleDeriv=0.908682
 8,-0.0008401,0.,-0.0008401,0.9096529,0.,0.,0.,1.898019,-0.3765222,0.00
 44431,0.0860447,0.0044431,-0.3816526,-0.1490337,-0.0461977,0.0800168,-
 0.7425222,-0.1556385,-0.0080461,0.,-0.0080461,-0.1463477,0.,0.,0.,-0.4
 129746,-0.3765222,0.0044431,-0.0860446,0.0044431,-0.3816526,0.1490337,
 0.0461977,-0.0800168,-0.7425222\Polar=7.866667,-5.6958849,14.4437084,0
 .,0.,36.4725935\PG=C02V [C2(F1Br1),SGV(F2)]\NImag=0\\0.08505684,-0.082
 31073,0.18010109,0.,0.,0.36308484,-0.02177125,0.00018295,0.01923769,0.
 01621199,0.00018295,-0.02198251,-0.03332065,-0.00641359,0.02361777,0.0
 1438987,-0.02492399,-0.16434859,-0.00966521,0.01674063,0.16898170,-0.0
 4151434,0.08194482,0.,-0.00494169,0.00269656,-0.00370511,0.05139772,0.
 08194482,-0.13613607,0.,0.00269656,-0.00805541,0.00641743,-0.08733794,
 0.15224688,0.,0.,-0.03438765,-0.01059204,0.01834596,-0.00523470,0.,0.,
 0.04485705,-0.02177125,0.00018295,-0.01923769,0.01050095,0.00353408,-0
 .00101956,-0.00494169,0.00269656,0.01059204,0.01621199,0.00018295,-0.0
 2198251,0.03332066,0.00353408,0.00642015,0.00176593,0.00269656,-0.0080
 5541,-0.01834595,-0.00641359,0.02361777,-0.01438987,0.02492398,-0.1643
 4859,0.00101956,-0.00176593,0.00060160,0.00370510,-0.00641742,-0.00523
 470,0.00966521,-0.01674063,0.16898170\\0.00011338,-0.00019637,0.,-0.00
 000775,0.00001342,-0.00011304,-0.00009788,0.00016954,0.,-0.00000775,0.
 00001342,0.00011304\\\@


 CLIMB THE MOUNTAINS AND GET THEIR GOOD TIDINGS.
 NATURE'S PEACE WILL FLOW INTO YOU AS SUNSHINE FLOWS INTO TREES.
 THE WINDS WILL BLOW THEIR OWN FRESHNESS INTO YOU, 
 AND CARES WILL DROP OFF LIKE AUTUMN LEAVES.

                                         -- JOHN MUIR
 Job cpu time:  0 days  0 hours  0 minutes 11.4 seconds.
 File lengths (MBytes):  RWF=     99 Int=      0 D2E=      0 Chk=      2 Scr=      1
 Normal termination of Gaussian 09 at Thu Jun 20 23:15:50 2024.
