 Entering Gaussian System, Link 0=g16
 Input=oDifluorobenzene.com
 Output=oDifluorobenzene.log
 Initial command:
 /opt/g16/g16/l1.exe "/home/pnatt/scratch/Gau-2531135.inp" -scrdir="/home/pnatt/scratch/"
 Entering Link 1 = /opt/g16/g16/l1.exe PID=   2531158.
  
 Copyright (c) 1988-2019, Gaussian, Inc.  All Rights Reserved.
  
 This is part of the Gaussian(R) 16 program.  It is based on
 the Gaussian(R) 09 system (copyright 2009, Gaussian, Inc.),
 the Gaussian(R) 03 system (copyright 2003, Gaussian, Inc.),
 the Gaussian(R) 98 system (copyright 1998, Gaussian, Inc.),
 the Gaussian(R) 94 system (copyright 1995, Gaussian, Inc.),
 the Gaussian 92(TM) system (copyright 1992, Gaussian, Inc.),
 the Gaussian 90(TM) system (copyright 1990, Gaussian, Inc.),
 the Gaussian 88(TM) system (copyright 1988, Gaussian, Inc.),
 the Gaussian 86(TM) system (copyright 1986, Carnegie Mellon
 University), and the Gaussian 82(TM) system (copyright 1983,
 Carnegie Mellon University). Gaussian is a federally registered
 trademark of Gaussian, Inc.
  
 This software contains proprietary and confidential information,
 including trade secrets, belonging to Gaussian, Inc.
  
 This software is provided under written license and may be
 used, copied, transmitted, or stored only in accord with that
 written license.
  
 The following legend is applicable only to US Government
 contracts under FAR:
  
                    RESTRICTED RIGHTS LEGEND
  
 Use, reproduction and disclosure by the US Government is
 subject to restrictions as set forth in subparagraphs (a)
 and (c) of the Commercial Computer Software - Restricted
 Rights clause in FAR 52.227-19.
  
 Gaussian, Inc.
 340 Quinnipiac St., Bldg. 40, Wallingford CT 06492
  
  
 ---------------------------------------------------------------
 Warning -- This program may not be used in any manner that
 competes with the business of Gaussian, Inc. or will provide
 assistance to any competitor of Gaussian, Inc.  The licensee
 of this program is prohibited from giving any competitor of
 Gaussian, Inc. access to this program.  By using this program,
 the user acknowledges that Gaussian, Inc. is engaged in the
 business of creating and licensing software in the field of
 computational chemistry and represents and warrants to the
 licensee that it is not a competitor of Gaussian, Inc. and that
 it will not use this program in any manner prohibited above.
 ---------------------------------------------------------------
  

 Cite this work as:
 Gaussian 16, Revision C.01,
 M. J. Frisch, G. W. Trucks, H. B. Schlegel, G. E. Scuseria, 
 M. A. Robb, J. R. Cheeseman, G. Scalmani, V. Barone, 
 G. A. Petersson, H. Nakatsuji, X. Li, M. Caricato, A. V. Marenich, 
 J. Bloino, B. G. Janesko, R. Gomperts, B. Mennucci, H. P. Hratchian, 
 J. V. Ortiz, A. F. Izmaylov, J. L. Sonnenberg, D. Williams-Young, 
 F. Ding, F. Lipparini, F. Egidi, J. Goings, B. Peng, A. Petrone, 
 T. Henderson, D. Ranasinghe, V. G. Zakrzewski, J. Gao, N. Rega, 
 G. Zheng, W. Liang, M. Hada, M. Ehara, K. Toyota, R. Fukuda, 
 J. Hasegawa, M. Ishida, T. Nakajima, Y. Honda, O. Kitao, H. Nakai, 
 T. Vreven, K. Throssell, J. A. Montgomery, Jr., J. E. Peralta, 
 F. Ogliaro, M. J. Bearpark, J. J. Heyd, E. N. Brothers, K. N. Kudin, 
 V. N. Staroverov, T. A. Keith, R. Kobayashi, J. Normand, 
 K. Raghavachari, A. P. Rendell, J. C. Burant, S. S. Iyengar, 
 J. Tomasi, M. Cossi, J. M. Millam, M. Klene, C. Adamo, R. Cammi, 
 J. W. Ochterski, R. L. Martin, K. Morokuma, O. Farkas, 
 J. B. Foresman, and D. J. Fox, Gaussian, Inc., Wallingford CT, 2019.
 
 ******************************************
 Gaussian 16:  ES64L-G16RevC.01  3-Jul-2019
                14-Aug-2026 
 ******************************************
 %mem=8GB
 %nprocshared=8
 Will use up to    8 processors via shared memory.
 %chk=oDifluorobenzene.chk
 ----------------------------------------------
 # opt freq=hpmodes mp2/3-21g geom=connectivity
 ----------------------------------------------
 1/18=20,19=15,38=1,57=2/1,3;
 2/9=110,12=2,17=6,18=5,40=1/2;
 3/5=5,11=9,25=1,30=1,71=1/1,2,3;
 4//1;
 5/5=2,38=5/2;
 8/6=4,10=1/1;
 9/15=2,16=-3/6;
 10/5=1/2;
 6/7=2,8=2,9=2,10=2/1;
 7/12=2/1,2,3,16;
 1/18=20,19=15/3(2);
 2/9=110/2;
 99//99;
 2/9=110/2;
 3/5=5,11=9,25=1,30=1,71=1/1,2,3;
 4/5=5,16=3,69=1/1;
 5/5=2,38=5/2;
 8/6=4,10=1/1;
 9/15=2,16=-3/6;
 10/5=1/2;
 7/12=2/1,2,3,16;
 1/18=20,19=15/3(-8);
 2/9=110/2;
 6/7=2,8=2,9=2,10=2/1;
 99/9=10/99;
 -----------------------------------
 1,2-Difluorobenzene - size6to10_C2v
 -----------------------------------
 Symbolic Z-matrix:
 Charge =  0 Multiplicity = 1
 F                    -2.41209  -1.29651   1.05488 
 C                    -1.35357  -0.52222   0.77888 
 C                    -0.48736  -0.89098  -0.24595 
 C                     0.61691  -0.08722  -0.53708 
 C                     0.84751   1.07939   0.19819 
 C                    -0.02595   1.44328   1.22525 
 C                    -1.12432   0.63756   1.50984 
 F                    -1.96001   0.99056   2.49635 
 H                    -0.67766  -1.79912  -0.80922 
 H                     1.29819  -0.36927  -1.33674 
 H                     1.70808   1.70436  -0.02981 
 H                     0.14177   2.3464    1.80356 
 

 GradGradGradGradGradGradGradGradGradGradGradGradGradGradGradGradGradGrad
 Berny optimization.
 Initialization pass.
                           ----------------------------
                           !    Initial Parameters    !
                           ! (Angstroms and Degrees)  !
 --------------------------                            --------------------------
 ! Name  Definition              Value          Derivative Info.                !
 --------------------------------------------------------------------------------
 ! R1    R(1,2)                  1.3402         estimate D2E/DX2                !
 ! R2    R(2,3)                  1.3916         estimate D2E/DX2                !
 ! R3    R(2,7)                  1.3899         estimate D2E/DX2                !
 ! R4    R(3,4)                  1.3965         estimate D2E/DX2                !
 ! R5    R(3,9)                  1.0855         estimate D2E/DX2                !
 ! R6    R(4,5)                  1.3981         estimate D2E/DX2                !
 ! R7    R(4,10)                 1.0877         estimate D2E/DX2                !
 ! R8    R(5,6)                  1.3965         estimate D2E/DX2                !
 ! R9    R(5,11)                 1.0877         estimate D2E/DX2                !
 ! R10   R(6,7)                  1.3916         estimate D2E/DX2                !
 ! R11   R(6,12)                 1.0855         estimate D2E/DX2                !
 ! R12   R(7,8)                  1.3402         estimate D2E/DX2                !
 ! A1    A(1,2,3)              119.353          estimate D2E/DX2                !
 ! A2    A(1,2,7)              120.2671         estimate D2E/DX2                !
 ! A3    A(3,2,7)              120.38           estimate D2E/DX2                !
 ! A4    A(2,3,4)              119.5517         estimate D2E/DX2                !
 ! A5    A(2,3,9)              119.6517         estimate D2E/DX2                !
 ! A6    A(4,3,9)              120.7967         estimate D2E/DX2                !
 ! A7    A(3,4,5)              120.0684         estimate D2E/DX2                !
 ! A8    A(3,4,10)             119.953          estimate D2E/DX2                !
 ! A9    A(5,4,10)             119.9786         estimate D2E/DX2                !
 ! A10   A(4,5,6)              120.0684         estimate D2E/DX2                !
 ! A11   A(4,5,11)             119.9787         estimate D2E/DX2                !
 ! A12   A(6,5,11)             119.953          estimate D2E/DX2                !
 ! A13   A(5,6,7)              119.5516         estimate D2E/DX2                !
 ! A14   A(5,6,12)             120.7967         estimate D2E/DX2                !
 ! A15   A(7,6,12)             119.6517         estimate D2E/DX2                !
 ! A16   A(2,7,6)              120.38           estimate D2E/DX2                !
 ! A17   A(2,7,8)              120.2671         estimate D2E/DX2                !
 ! A18   A(6,7,8)              119.3529         estimate D2E/DX2                !
 ! D1    D(1,2,3,4)           -180.0            estimate D2E/DX2                !
 ! D2    D(1,2,3,9)              0.0001         estimate D2E/DX2                !
 ! D3    D(7,2,3,4)              0.0001         estimate D2E/DX2                !
 ! D4    D(7,2,3,9)           -179.9999         estimate D2E/DX2                !
 ! D5    D(1,2,7,6)            180.0            estimate D2E/DX2                !
 ! D6    D(1,2,7,8)              0.0001         estimate D2E/DX2                !
 ! D7    D(3,2,7,6)              0.0            estimate D2E/DX2                !
 ! D8    D(3,2,7,8)           -180.0            estimate D2E/DX2                !
 ! D9    D(2,3,4,5)              0.0            estimate D2E/DX2                !
 ! D10   D(2,3,4,10)           180.0            estimate D2E/DX2                !
 ! D11   D(9,3,4,5)            180.0            estimate D2E/DX2                !
 ! D12   D(9,3,4,10)             0.0            estimate D2E/DX2                !
 ! D13   D(3,4,5,6)              0.0            estimate D2E/DX2                !
 ! D14   D(3,4,5,11)           180.0            estimate D2E/DX2                !
 ! D15   D(10,4,5,6)           179.9999         estimate D2E/DX2                !
 ! D16   D(10,4,5,11)            0.0            estimate D2E/DX2                !
 ! D17   D(4,5,6,7)              0.0001         estimate D2E/DX2                !
 ! D18   D(4,5,6,12)           180.0            estimate D2E/DX2                !
 ! D19   D(11,5,6,7)          -180.0            estimate D2E/DX2                !
 ! D20   D(11,5,6,12)           -0.0001         estimate D2E/DX2                !
 ! D21   D(5,6,7,2)              0.0            estimate D2E/DX2                !
 ! D22   D(5,6,7,8)            179.9999         estimate D2E/DX2                !
 ! D23   D(12,6,7,2)          -179.9999         estimate D2E/DX2                !
 ! D24   D(12,6,7,8)             0.0            estimate D2E/DX2                !
 --------------------------------------------------------------------------------
 Trust Radius=3.00D-01 FncErr=1.00D-07 GrdErr=1.00D-07 EigMax=2.50D+02 EigMin=1.00D-04
 Number of steps in this run=     64 maximum allowed number of steps=    100.
 GradGradGradGradGradGradGradGradGradGradGradGradGradGradGradGradGradGrad

                          Input orientation:                          
 ---------------------------------------------------------------------
 Center     Atomic      Atomic             Coordinates (Angstroms)
 Number     Number       Type             X           Y           Z
 ---------------------------------------------------------------------
      1          9           0       -2.412088   -1.296510    1.054884
      2          6           0       -1.353573   -0.522216    0.778876
      3          6           0       -0.487359   -0.890982   -0.245951
      4          6           0        0.616911   -0.087222   -0.537079
      5          6           0        0.847512    1.079388    0.198194
      6          6           0       -0.025952    1.443278    1.225250
      7          6           0       -1.124323    0.637564    1.509844
      8          9           0       -1.960008    0.990564    2.496346
      9          1           0       -0.677662   -1.799124   -0.809215
     10          1           0        1.298193   -0.369268   -1.336742
     11          1           0        1.708082    1.704361   -0.029806
     12          1           0        0.141773    2.346398    1.803562
 ---------------------------------------------------------------------
                    Distance matrix (angstroms):
                    1          2          3          4          5
     1  F    0.000000
     2  C    1.340211   0.000000
     3  C    2.358221   1.391613   0.000000
     4  C    3.629264   2.409100   1.396495   0.000000
     5  C    4.123567   2.783362   2.421054   1.398135   0.000000
     6  C    3.637184   2.413502   2.797516   2.421055   1.396495
     7  C    2.367693   1.389949   2.413502   2.783362   2.409101
     8  F    2.740966   2.367693   3.637183   4.123567   3.629265
     9  H    2.595326   2.146947   1.085451   2.163466   3.409818
    10  H    4.510636   3.395747   2.156434   1.087730   2.158181
    11  H    5.211294   3.871091   3.406242   2.158182   1.087730
    12  H    4.511486   3.393374   3.882904   3.409819   2.163467
                    6          7          8          9         10
     6  C    0.000000
     7  C    1.391613   0.000000
     8  F    2.358221   1.340211   0.000000
     9  H    3.882904   3.393374   4.511486   0.000000
    10  H    3.406242   3.871091   5.211294   2.495351   0.000000
    11  H    2.156433   3.395747   4.510636   4.309717   2.485162
    12  H    1.085450   2.146947   2.595326   4.968242   4.309717
                   11         12
    11  H    0.000000
    12  H    2.495350   0.000000
 Stoichiometry    C6H4F2
 Framework group  CS[X(C6H4F2)]
 Deg. of freedom    15
 Full point group                 CS      NOp   2
 Largest Abelian subgroup         CS      NOp   2
 Largest concise Abelian subgroup CS      NOp   2
                         Standard orientation:                         
 ---------------------------------------------------------------------
 Center     Atomic      Atomic             Coordinates (Angstroms)
 Number     Number       Type             X           Y           Z
 ---------------------------------------------------------------------
      1          9           0       -0.000000    1.701594   -1.370483
      2          6           0        0.000000    0.544073   -0.694975
      3          6           0        0.000000   -0.656458   -1.398758
      4          6           0       -0.000000   -1.865024   -0.699068
      5          6           0       -0.000000   -1.865024    0.699068
      6          6           0        0.000000   -0.656458    1.398758
      7          6           0        0.000000    0.544073    0.694975
      8          9           0       -0.000000    1.701594    1.370483
      9          1           0        0.000001   -0.642661   -2.484121
     10          1           0       -0.000000   -2.807229   -1.242580
     11          1           0       -0.000000   -2.807229    1.242580
     12          1           0        0.000001   -0.642661    2.484121
 ---------------------------------------------------------------------
 Rotational constants (GHZ):           3.2150015           2.2288940           1.3163180
 Standard basis: 3-21G (6D, 7F)
 There are    40 symmetry adapted cartesian basis functions of A'  symmetry.
 There are    40 symmetry adapted cartesian basis functions of A"  symmetry.
 There are    40 symmetry adapted basis functions of A'  symmetry.
 There are    40 symmetry adapted basis functions of A"  symmetry.
    80 basis functions,   132 primitive gaussians,    80 cartesian basis functions
    29 alpha electrons       29 beta electrons
       nuclear repulsion energy       346.7271478266 Hartrees.
 NAtoms=   12 NActive=   12 NUniq=    6 SFac= 4.00D+00 NAtFMM=   60 NAOKFM=F Big=F
 Integral buffers will be    131072 words long.
 Raffenetti 1 integral format.
 Two-electron integral symmetry is turned on.
 One-electron integrals computed using PRISM.
 NBasis=    80 RedAO= T EigKep=  1.90D-03  NBF=    40    40
 NBsUse=    80 1.00D-06 EigRej= -1.00D+00 NBFU=    40    40
 ExpMin= 1.83D-01 ExpMax= 4.14D+02 ExpMxC= 4.14D+02 IAcc=3 IRadAn=         5 AccDes= 0.00D+00
 Harris functional with IExCor=  205 and IRadAn=       5 diagonalized for initial guess.
 HarFok:  IExCor=  205 AccDes= 0.00D+00 IRadAn=         5 IDoV= 1 UseB2=F ITyADJ=14
 ICtDFT=  3500011 ScaDFX=  1.000000  1.000000  1.000000  1.000000
 FoFCou: FMM=F IPFlag=           0 FMFlag=      100000 FMFlg1=           0
         NFxFlg=           0 DoJE=T BraDBF=F KetDBF=T FulRan=T
         wScrn=  0.000000 ICntrl=       500 IOpCl=  0 I1Cent=   200000004 NGrid=           0
         NMat0=    1 NMatS0=      1 NMatT0=    0 NMatD0=    1 NMtDS0=    0 NMtDT0=    0
 Petite list used in FoFCou.
 Initial guess orbital symmetries:
       Occupied  (A") (A') (A") (A') (A") (A') (A") (A') (A') (A")
                 (A') (A") (A') (A') (A") (A') (A') (A") (A') (A")
                 (A') (A") (A') (A") (A') (A") (A') (A") (A')
       Virtual   (A') (A") (A') (A") (A') (A") (A') (A") (A") (A")
                 (A') (A') (A") (A") (A") (A') (A') (A') (A") (A')
                 (A") (A") (A') (A') (A') (A") (A') (A") (A") (A')
                 (A") (A") (A") (A') (A') (A") (A') (A") (A') (A")
                 (A") (A') (A') (A") (A') (A") (A') (A") (A") (A')
                 (A")
 The electronic state of the initial guess is 1-A'.
 Keep R1 ints in memory in symmetry-blocked form, NReq=7885123.
 Requested convergence on RMS density matrix=1.00D-08 within 128 cycles.
 Requested convergence on MAX density matrix=1.00D-06.
 Requested convergence on             energy=1.00D-06.
 No special actions if energy rises.
 SCF Done:  E(RHF) =  -426.055760089     A.U. after   13 cycles
            NFock= 13  Conv=0.28D-08     -V/T= 2.0032
 ExpMin= 1.83D-01 ExpMax= 4.14D+02 ExpMxC= 4.14D+02 IAcc=3 IRadAn=         5 AccDes= 0.00D+00
 HarFok:  IExCor=  205 AccDes= 0.00D+00 IRadAn=         5 IDoV=-2 UseB2=F ITyADJ=14
 ICtDFT= 12500011 ScaDFX=  1.000000  1.000000  1.000000  1.000000
 Range of M.O.s used for correlation:     9    80
 NBasis=    80 NAE=    29 NBE=    29 NFC=     8 NFV=     0
 NROrb=     72 NOA=    21 NOB=    21 NVA=    51 NVB=    51
 Fully direct method using O(ONN) memory.
 JobTyp=1 Pass  1:  I=   9 to  29 NPSUse=  8 ParTrn=T ParDer=T DoDerP=T.
 Spin components of T(2) and E(2):
     alpha-alpha T2 =       0.3447933324D-01 E2=     -0.9770076032D-01
     alpha-beta  T2 =       0.1896515381D+00 E2=     -0.5531202141D+00
     beta-beta   T2 =       0.3447933324D-01 E2=     -0.9770076032D-01
 ANorm=    0.1121877981D+01
 E2 =    -0.7485217347D+00 EUMP2 =    -0.42680428182413D+03
          IDoAtm=111111111111
          Differentiating once with respect to electric field.
                with respect to dipole field.
          Differentiating once with respect to nuclear coordinates.
 Keep R1 ints in memory in symmetry-blocked form, NReq=7886579.
          There are     1 degrees of freedom in the 1st order CPHF.  IDoFFX=0 NUNeed=     1.
 LinEq1:  Iter=  0 NonCon=     1 RMS=6.16D-03 Max=9.20D-02 NDo=     1
 AX will form     1 AO Fock derivatives at one time.
 LinEq1:  Iter=  1 NonCon=     1 RMS=1.83D-03 Max=2.13D-02 NDo=     1
 LinEq1:  Iter=  2 NonCon=     1 RMS=4.01D-04 Max=4.35D-03 NDo=     1
 LinEq1:  Iter=  3 NonCon=     1 RMS=1.68D-04 Max=2.12D-03 NDo=     1
 LinEq1:  Iter=  4 NonCon=     1 RMS=3.73D-05 Max=5.81D-04 NDo=     1
 LinEq1:  Iter=  5 NonCon=     1 RMS=1.96D-05 Max=5.25D-04 NDo=     1
 LinEq1:  Iter=  6 NonCon=     1 RMS=4.46D-06 Max=1.11D-04 NDo=     1
 LinEq1:  Iter=  7 NonCon=     1 RMS=8.94D-07 Max=1.22D-05 NDo=     1
 LinEq1:  Iter=  8 NonCon=     1 RMS=1.82D-07 Max=2.68D-06 NDo=     1
 LinEq1:  Iter=  9 NonCon=     1 RMS=5.98D-08 Max=6.80D-07 NDo=     1
 LinEq1:  Iter= 10 NonCon=     1 RMS=7.42D-09 Max=7.18D-08 NDo=     1
 LinEq1:  Iter= 11 NonCon=     1 RMS=9.85D-10 Max=7.98D-09 NDo=     1
 LinEq1:  Iter= 12 NonCon=     1 RMS=1.12D-10 Max=9.86D-10 NDo=     1
 LinEq1:  Iter= 13 NonCon=     0 RMS=1.15D-11 Max=1.31D-10 NDo=     1
 Linear equations converged to 1.000D-10 1.000D-09 after    13 iterations.
 End of Minotr F.D. properties file   721 does not exist.
 End of Minotr F.D. properties file   722 does not exist.
 End of Minotr F.D. properties file   788 does not exist.

 **********************************************************************

            Population analysis using the SCF Density.

 **********************************************************************

 Orbital symmetries:
       Occupied  (A") (A') (A") (A') (A") (A') (A") (A') (A') (A")
                 (A') (A") (A') (A') (A") (A') (A') (A") (A') (A")
                 (A') (A") (A") (A') (A") (A') (A') (A") (A')
       Virtual   (A') (A") (A') (A") (A') (A") (A") (A') (A") (A")
                 (A') (A') (A") (A") (A") (A') (A') (A') (A') (A")
                 (A') (A") (A") (A') (A') (A") (A') (A") (A") (A')
                 (A") (A") (A") (A') (A') (A") (A') (A") (A') (A")
                 (A") (A') (A') (A") (A') (A") (A') (A") (A") (A')
                 (A")
 The electronic state is 1-A'.
 Alpha  occ. eigenvalues --  -26.18706 -26.18615 -11.29441 -11.29385 -11.21121
 Alpha  occ. eigenvalues --  -11.21105 -11.20909 -11.20860  -1.63298  -1.61962
 Alpha  occ. eigenvalues --   -1.18577  -1.04687  -1.03810  -0.88179  -0.85587
 Alpha  occ. eigenvalues --   -0.76104  -0.73126  -0.72169  -0.70418  -0.67341
 Alpha  occ. eigenvalues --   -0.66181  -0.64997  -0.63238  -0.58976  -0.54678
 Alpha  occ. eigenvalues --   -0.52576  -0.51799  -0.36574  -0.35184
 Alpha virt. eigenvalues --    0.12022   0.13368   0.23193   0.30567   0.31510
 Alpha virt. eigenvalues --    0.34734   0.35662   0.35854   0.42562   0.50063
 Alpha virt. eigenvalues --    0.50796   0.55261   0.56521   0.80725   0.83102
 Alpha virt. eigenvalues --    0.89985   0.91046   0.91237   1.00211   1.00320
 Alpha virt. eigenvalues --    1.01550   1.02041   1.03746   1.04851   1.07582
 Alpha virt. eigenvalues --    1.07889   1.10370   1.17011   1.23722   1.30915
 Alpha virt. eigenvalues --    1.31058   1.37067   1.43221   1.44370   1.52169
 Alpha virt. eigenvalues --    1.64448   1.67062   1.70593   1.74962   1.76644
 Alpha virt. eigenvalues --    2.08679   2.10604   2.26252   2.34682   2.44578
 Alpha virt. eigenvalues --    2.45373   2.54687   2.60375   2.65223   4.12581
 Alpha virt. eigenvalues --    4.59233
          Condensed to atoms (all electrons):
               1          2          3          4          5          6
     1  F    9.226934   0.277574  -0.055861   0.002229  -0.000199   0.002082
     2  C    0.277574   5.129938   0.289681  -0.065640  -0.002007  -0.108369
     3  C   -0.055861   0.289681   5.504146   0.374183  -0.103137   0.007358
     4  C    0.002229  -0.065640   0.374183   5.242668   0.450601  -0.103137
     5  C   -0.000199  -0.002007  -0.103137   0.450601   5.242668   0.374183
     6  C    0.002082  -0.108369   0.007358  -0.103137   0.374183   5.504146
     7  C   -0.055901   0.197226  -0.108369  -0.002007  -0.065640   0.289681
     8  F   -0.000168  -0.055901   0.002082  -0.000199   0.002229  -0.055861
     9  H   -0.002141  -0.037201   0.391748  -0.027929   0.002205  -0.000228
    10  H   -0.000000   0.001913  -0.029244   0.395779  -0.029518   0.002312
    11  H   -0.000000  -0.000124   0.002312  -0.029518   0.395779  -0.029244
    12  H   -0.000000   0.002590  -0.000228   0.002205  -0.027929   0.391748
               7          8          9         10         11         12
     1  F   -0.055901  -0.000168  -0.002141  -0.000000  -0.000000  -0.000000
     2  C    0.197226  -0.055901  -0.037201   0.001913  -0.000124   0.002590
     3  C   -0.108369   0.002082   0.391748  -0.029244   0.002312  -0.000228
     4  C   -0.002007  -0.000199  -0.027929   0.395779  -0.029518   0.002205
     5  C   -0.065640   0.002229   0.002205  -0.029518   0.395779  -0.027929
     6  C    0.289681  -0.055861  -0.000228   0.002312  -0.029244   0.391748
     7  C    5.129938   0.277574   0.002590  -0.000124   0.001913  -0.037201
     8  F    0.277574   9.226934  -0.000000  -0.000000  -0.000000  -0.002141
     9  H    0.002590  -0.000000   0.391429  -0.001362  -0.000025   0.000000
    10  H   -0.000124  -0.000000  -0.001362   0.404166  -0.001113  -0.000025
    11  H    0.001913  -0.000000  -0.000025  -0.001113   0.404166  -0.001362
    12  H   -0.037201  -0.002141   0.000000  -0.000025  -0.001362   0.391429
 Mulliken charges:
               1
     1  F   -0.394548
     2  C    0.370321
     3  C   -0.274670
     4  C   -0.239235
     5  C   -0.239235
     6  C   -0.274670
     7  C    0.370321
     8  F   -0.394548
     9  H    0.280915
    10  H    0.257217
    11  H    0.257217
    12  H    0.280915
 Sum of Mulliken charges =  -0.00000
 Mulliken charges with hydrogens summed into heavy atoms:
               1
     1  F   -0.394548
     2  C    0.370321
     3  C    0.006245
     4  C    0.017982
     5  C    0.017982
     6  C    0.006245
     7  C    0.370321
     8  F   -0.394548
 Electronic spatial extent (au):  <R**2>=            826.2568
 Charge=             -0.0000 electrons
 Dipole moment (field-independent basis, Debye):
    X=              0.0000    Y=             -3.3623    Z=             -0.0000  Tot=              3.3623
 Quadrupole moment (field-independent basis, Debye-Ang):
   XX=            -47.7040   YY=            -45.1245   ZZ=            -40.8512
   XY=              0.0000   XZ=             -0.0000   YZ=             -0.0000
 Traceless Quadrupole moment (field-independent basis, Debye-Ang):
   XX=             -3.1441   YY=             -0.5646   ZZ=              3.7087
   XY=              0.0000   XZ=             -0.0000   YZ=             -0.0000
 Octapole moment (field-independent basis, Debye-Ang**2):
  XXX=              0.0000  YYY=              3.5432  ZZZ=              0.0000  XYY=              0.0000
  XXY=             14.8846  XXZ=              0.0000  XZZ=              0.0000  YZZ=             -3.3520
  YYZ=             -0.0000  XYZ=             -0.0000
 Hexadecapole moment (field-independent basis, Debye-Ang**3):
 XXXX=            -45.5820 YYYY=           -499.1540 ZZZZ=           -346.5138 XXXY=             -0.0000
 XXXZ=              0.0000 YYYX=              0.0000 YYYZ=              0.0000 ZZZX=              0.0000
 ZZZY=              0.0000 XXYY=           -103.2001 XXZZ=            -77.4341 YYZZ=           -153.8816
 XXYZ=              0.0000 YYXZ=             -0.0000 ZZXY=             -0.0000
 N-N= 3.467271478266D+02 E-N=-1.697259951323D+03  KE= 4.246861916610D+02
 Symmetry A'   KE= 2.159946661181D+02
 Symmetry A"   KE= 2.086915255429D+02
 Calling FoFJK, ICntrl=  10002127 FMM=F ISym2X=1 I1Cent= 0 IOpClX= 0 NMat=1 NMatS=1 NMatT=0.
 ***** Axes restored to original set *****
 -------------------------------------------------------------------
 Center     Atomic                   Forces (Hartrees/Bohr)
 Number     Number              X              Y              Z
 -------------------------------------------------------------------
      1        9          -0.031254888   -0.020052564    0.010389481
      2        6           0.023079855    0.008869832   -0.012404741
      3        6           0.001512850   -0.001075069   -0.002133400
      4        6           0.006611927   -0.001920725   -0.007110043
      5        6           0.008014288    0.005173824   -0.002638599
      6        6           0.002096543    0.001877832   -0.000272291
      7        6           0.021534718    0.001052977   -0.017331428
      8        9          -0.025837392    0.007354569    0.027663228
      9        1          -0.001578027    0.000453433    0.001692977
     10        1          -0.001083859    0.000004353    0.000918029
     11        1          -0.001185345   -0.000509062    0.000594442
     12        1          -0.001910669   -0.001229400    0.000632346
 -------------------------------------------------------------------
 Cartesian Forces:  Max     0.031254888 RMS     0.011464149

 GradGradGradGradGradGradGradGradGradGradGradGradGradGradGradGradGradGrad
 Berny optimization.
 FormGI is forming the generalized inverse of G from B-inverse, IUseBI=4.
 Internal  Forces:  Max     0.038410315 RMS     0.007964400
 Search for a local minimum.
 Step number   1 out of a maximum of   64
 All quantities printed in internal units (Hartrees-Bohrs-Radians)
 Mixed Optimization -- RFO/linear search
 Second derivative matrix not updated -- first step.
 ITU=  0
     Eigenvalues ---    0.02122   0.02128   0.02129   0.02167   0.02167
     Eigenvalues ---    0.02168   0.02206   0.02207   0.02213   0.16000
     Eigenvalues ---    0.16000   0.16000   0.16000   0.22000   0.22497
     Eigenvalues ---    0.24493   0.25000   0.25000   0.35076   0.35076
     Eigenvalues ---    0.35344   0.35344   0.42344   0.42419   0.46105
     Eigenvalues ---    0.46658   0.46682   0.47163   0.57158   0.57158
 RFO step:  Lambda=-6.42546577D-03 EMin= 2.12184607D-02
 Linear search not attempted -- first point.
 Iteration  1 RMS(Cart)=  0.01879049 RMS(Int)=  0.00011370
 Iteration  2 RMS(Cart)=  0.00018269 RMS(Int)=  0.00000095
 Iteration  3 RMS(Cart)=  0.00000003 RMS(Int)=  0.00000095
 ClnCor:  largest displacement from symmetrization is 1.49D-08 for atom    11.
 Variable       Old X    -DE/DX   Delta X   Delta X   Delta X     New X
                                 (Linear)    (Quad)   (Total)
    R1        2.53263   0.03841   0.00000   0.06645   0.06645   2.59909
    R2        2.62977   0.00571   0.00000   0.01198   0.01198   2.64175
    R3        2.62662   0.01003   0.00000   0.02091   0.02090   2.64753
    R4        2.63899   0.00777   0.00000   0.01659   0.01659   2.65559
    R5        2.05120  -0.00098   0.00000  -0.00273  -0.00273   2.04848
    R6        2.64209   0.00642   0.00000   0.01377   0.01378   2.65587
    R7        2.05551  -0.00135   0.00000  -0.00379  -0.00379   2.05172
    R8        2.63899   0.00777   0.00000   0.01659   0.01659   2.65559
    R9        2.05551  -0.00135   0.00000  -0.00379  -0.00379   2.05172
   R10        2.62977   0.00571   0.00000   0.01198   0.01198   2.64175
   R11        2.05120  -0.00098   0.00000  -0.00273  -0.00273   2.04848
   R12        2.53263   0.03841   0.00000   0.06645   0.06645   2.59909
    A1        2.08310   0.00520   0.00000   0.02042   0.02042   2.10353
    A2        2.09906  -0.00341   0.00000  -0.01316  -0.01316   2.08590
    A3        2.10103  -0.00179   0.00000  -0.00726  -0.00727   2.09376
    A4        2.08657   0.00322   0.00000   0.01390   0.01390   2.10047
    A5        2.08832  -0.00381   0.00000  -0.02017  -0.02017   2.06815
    A6        2.10830   0.00059   0.00000   0.00626   0.00626   2.11456
    A7        2.09559  -0.00143   0.00000  -0.00664  -0.00664   2.08895
    A8        2.09358   0.00028   0.00000   0.00069   0.00069   2.09426
    A9        2.09402   0.00115   0.00000   0.00595   0.00595   2.09997
   A10        2.09559  -0.00143   0.00000  -0.00664  -0.00664   2.08895
   A11        2.09402   0.00115   0.00000   0.00595   0.00595   2.09997
   A12        2.09358   0.00028   0.00000   0.00069   0.00069   2.09426
   A13        2.08657   0.00322   0.00000   0.01390   0.01390   2.10047
   A14        2.10830   0.00059   0.00000   0.00626   0.00626   2.11456
   A15        2.08832  -0.00381   0.00000  -0.02017  -0.02017   2.06815
   A16        2.10103  -0.00179   0.00000  -0.00726  -0.00727   2.09376
   A17        2.09906  -0.00341   0.00000  -0.01316  -0.01316   2.08590
   A18        2.08310   0.00520   0.00000   0.02042   0.02042   2.10353
    D1       -3.14159  -0.00000   0.00000  -0.00000  -0.00000   3.14159
    D2        0.00000  -0.00000   0.00000  -0.00000  -0.00000   0.00000
    D3        0.00000  -0.00000   0.00000  -0.00000  -0.00000   0.00000
    D4       -3.14159  -0.00000   0.00000  -0.00000  -0.00000  -3.14159
    D5        3.14159   0.00000   0.00000   0.00000   0.00000  -3.14159
    D6       -0.00000   0.00000   0.00000   0.00000   0.00000   0.00000
    D7       -0.00000   0.00000   0.00000   0.00000   0.00000   0.00000
    D8       -3.14159  -0.00000   0.00000  -0.00000  -0.00000   3.14159
    D9       -0.00000   0.00000   0.00000   0.00000   0.00000   0.00000
   D10        3.14159   0.00000   0.00000   0.00000   0.00000   3.14159
   D11        3.14159   0.00000   0.00000   0.00000   0.00000   3.14159
   D12       -0.00000  -0.00000   0.00000  -0.00000  -0.00000  -0.00000
   D13       -0.00000   0.00000   0.00000   0.00000   0.00000  -0.00000
   D14       -3.14159  -0.00000   0.00000  -0.00000  -0.00000   3.14159
   D15        3.14159   0.00000   0.00000   0.00000   0.00000  -3.14159
   D16        0.00000  -0.00000   0.00000  -0.00000   0.00000   0.00000
   D17        0.00000  -0.00000   0.00000  -0.00000  -0.00000   0.00000
   D18       -3.14159  -0.00000   0.00000  -0.00000  -0.00000  -3.14159
   D19       -3.14159  -0.00000   0.00000  -0.00000  -0.00000  -3.14159
   D20        0.00000   0.00000   0.00000   0.00000   0.00000   0.00000
   D21       -0.00000   0.00000   0.00000   0.00000   0.00000   0.00000
   D22        3.14159   0.00000   0.00000   0.00000   0.00000  -3.14159
   D23        3.14159   0.00000   0.00000   0.00000   0.00000   3.14159
   D24       -0.00000   0.00000   0.00000   0.00000   0.00000  -0.00000
         Item               Value     Threshold  Converged?
 Maximum Force            0.038410     0.000450     NO 
 RMS     Force            0.007964     0.000300     NO 
 Maximum Displacement     0.065442     0.001800     NO 
 RMS     Displacement     0.018806     0.001200     NO 
 Predicted change in Energy=-3.254708D-03
 GradGradGradGradGradGradGradGradGradGradGradGradGradGradGradGradGradGrad

                          Input orientation:                          
 ---------------------------------------------------------------------
 Center     Atomic      Atomic             Coordinates (Angstroms)
 Number     Number       Type             X           Y           Z
 ---------------------------------------------------------------------
      1          9           0       -2.446719   -1.310246    1.073156
      2          6           0       -1.355637   -0.527087    0.776735
      3          6           0       -0.479852   -0.889278   -0.250927
      4          6           0        0.633829   -0.086367   -0.550673
      5          6           0        0.865633    1.086327    0.188434
      6          6           0       -0.018459    1.444909    1.220228
      7          6           0       -1.124562    0.641923    1.513521
      8          9           0       -1.992143    0.989451    2.522574
      9          1           0       -0.681298   -1.798534   -0.805675
     10          1           0        1.310277   -0.373146   -1.350029
     11          1           0        1.722880    1.714218   -0.034438
     12          1           0        0.137557    2.344061    1.805256
 ---------------------------------------------------------------------
                    Distance matrix (angstroms):
                    1          2          3          4          5
     1  F    0.000000
     2  C    1.375377   0.000000
     3  C    2.408106   1.397952   0.000000
     4  C    3.691135   2.431918   1.405276   0.000000
     5  C    4.183057   2.807711   2.430304   1.405426   0.000000
     6  C    3.675453   2.423531   2.797428   2.430304   1.405276
     7  C    2.398538   1.401012   2.423531   2.807711   2.431918
     8  F    2.756095   2.398538   3.675453   4.183057   3.691135
     9  H    2.623954   2.139002   1.084008   2.173960   3.421062
    10  H    4.567822   3.413784   2.163095   1.085722   2.166711
    11  H    5.268748   3.893420   3.417175   2.166711   1.085722
    12  H    4.535241   3.395729   3.881180   3.421062   2.173960
                    6          7          8          9         10
     6  C    0.000000
     7  C    1.397952   0.000000
     8  F    2.408106   1.375377   0.000000
     9  H    3.881180   3.395729   4.535241   0.000000
    10  H    3.417175   3.893420   5.268748   2.508869   0.000000
    11  H    2.163095   3.413784   4.567822   4.326003   2.501621
    12  H    1.084008   2.139002   2.623954   4.964733   4.326003
                   11         12
    11  H    0.000000
    12  H    2.508869   0.000000
 Stoichiometry    C6H4F2
 Framework group  CS[X(C6H4F2)]
 Deg. of freedom    15
 Full point group                 CS      NOp   2
 Largest Abelian subgroup         CS      NOp   2
 Largest concise Abelian subgroup CS      NOp   2
                         Standard orientation:                         
 ---------------------------------------------------------------------
 Center     Atomic      Atomic             Coordinates (Angstroms)
 Number     Number       Type             X           Y           Z
 ---------------------------------------------------------------------
      1          9           0        0.000000    1.736167   -1.378048
      2          6           0       -0.000000    0.539255   -0.700506
      3          6           0       -0.000000   -0.671850   -1.398714
      4          6           0       -0.000000   -1.892662   -0.702713
      5          6           0       -0.000000   -1.892662    0.702713
      6          6           0       -0.000000   -0.671850    1.398714
      7          6           0       -0.000000    0.539255    0.700506
      8          9           0        0.000000    1.736167    1.378048
      9          1           0        0.000000   -0.644088   -2.482367
     10          1           0       -0.000000   -2.829882   -1.250811
     11          1           0       -0.000000   -2.829882    1.250811
     12          1           0        0.000000   -0.644088    2.482367
 ---------------------------------------------------------------------
 Rotational constants (GHZ):           3.1922827           2.1564780           1.2870435
 Standard basis: 3-21G (6D, 7F)
 There are    40 symmetry adapted cartesian basis functions of A'  symmetry.
 There are    40 symmetry adapted cartesian basis functions of A"  symmetry.
 There are    40 symmetry adapted basis functions of A'  symmetry.
 There are    40 symmetry adapted basis functions of A"  symmetry.
    80 basis functions,   132 primitive gaussians,    80 cartesian basis functions
    29 alpha electrons       29 beta electrons
       nuclear repulsion energy       343.1090413760 Hartrees.
 NAtoms=   12 NActive=   12 NUniq=    6 SFac= 4.00D+00 NAtFMM=   60 NAOKFM=F Big=F
 Integral buffers will be    131072 words long.
 Raffenetti 1 integral format.
 Two-electron integral symmetry is turned on.
 One-electron integrals computed using PRISM.
 NBasis=    80 RedAO= T EigKep=  2.01D-03  NBF=    40    40
 NBsUse=    80 1.00D-06 EigRej= -1.00D+00 NBFU=    40    40
 Initial guess from the checkpoint file:  "oDifluorobenzene.chk"
 B after Tr=     0.000000    0.000000    0.000000
         Rot=    1.000000    0.000000    0.000000    0.000000 Ang=   0.00 deg.
 Initial guess orbital symmetries:
       Occupied  (A") (A') (A") (A') (A") (A') (A") (A') (A') (A")
                 (A') (A") (A') (A') (A") (A') (A') (A") (A') (A")
                 (A') (A") (A") (A') (A") (A') (A') (A") (A')
       Virtual   (A') (A") (A') (A") (A') (A") (A") (A') (A") (A")
                 (A') (A') (A") (A") (A") (A') (A') (A') (A') (A")
                 (A') (A") (A") (A') (A') (A") (A') (A") (A") (A')
                 (A") (A") (A") (A') (A') (A") (A') (A") (A') (A")
                 (A") (A') (A') (A") (A') (A") (A') (A") (A") (A')
                 (A")
 ExpMin= 1.83D-01 ExpMax= 4.14D+02 ExpMxC= 4.14D+02 IAcc=3 IRadAn=         5 AccDes= 0.00D+00
 Harris functional with IExCor=  205 and IRadAn=       5 diagonalized for initial guess.
 HarFok:  IExCor=  205 AccDes= 0.00D+00 IRadAn=         5 IDoV= 1 UseB2=F ITyADJ=14
 ICtDFT=  3500011 ScaDFX=  1.000000  1.000000  1.000000  1.000000
 FoFCou: FMM=F IPFlag=           0 FMFlag=      100000 FMFlg1=           0
         NFxFlg=           0 DoJE=T BraDBF=F KetDBF=T FulRan=T
         wScrn=  0.000000 ICntrl=       500 IOpCl=  0 I1Cent=   200000004 NGrid=           0
         NMat0=    1 NMatS0=      1 NMatT0=    0 NMatD0=    1 NMtDS0=    0 NMtDT0=    0
 Petite list used in FoFCou.
 Keep R1 ints in memory in symmetry-blocked form, NReq=7885123.
 Requested convergence on RMS density matrix=1.00D-08 within 128 cycles.
 Requested convergence on MAX density matrix=1.00D-06.
 Requested convergence on             energy=1.00D-06.
 No special actions if energy rises.
 SCF Done:  E(RHF) =  -426.053426287     A.U. after   12 cycles
            NFock= 12  Conv=0.58D-08     -V/T= 2.0039
 ExpMin= 1.83D-01 ExpMax= 4.14D+02 ExpMxC= 4.14D+02 IAcc=3 IRadAn=         5 AccDes= 0.00D+00
 HarFok:  IExCor=  205 AccDes= 0.00D+00 IRadAn=         5 IDoV=-2 UseB2=F ITyADJ=14
 ICtDFT= 12500011 ScaDFX=  1.000000  1.000000  1.000000  1.000000
 Range of M.O.s used for correlation:     9    80
 NBasis=    80 NAE=    29 NBE=    29 NFC=     8 NFV=     0
 NROrb=     72 NOA=    21 NOB=    21 NVA=    51 NVB=    51
 Fully direct method using O(ONN) memory.
 JobTyp=1 Pass  1:  I=   9 to  29 NPSUse=  8 ParTrn=T ParDer=T DoDerP=T.
 Spin components of T(2) and E(2):
     alpha-alpha T2 =       0.3504767782D-01 E2=     -0.9836057250D-01
     alpha-beta  T2 =       0.1932659795D+00 E2=     -0.5574207623D+00
     beta-beta   T2 =       0.3504767782D-01 E2=     -0.9836057250D-01
 ANorm=    0.1123993476D+01
 E2 =    -0.7541419073D+00 EUMP2 =    -0.42680756819465D+03
          IDoAtm=111111111111
          Differentiating once with respect to electric field.
                with respect to dipole field.
          Differentiating once with respect to nuclear coordinates.
 Keep R1 ints in memory in symmetry-blocked form, NReq=7886579.
          There are     1 degrees of freedom in the 1st order CPHF.  IDoFFX=0 NUNeed=     1.
 LinEq1:  Iter=  0 NonCon=     1 RMS=6.30D-03 Max=9.29D-02 NDo=     1
 AX will form     1 AO Fock derivatives at one time.
 LinEq1:  Iter=  1 NonCon=     1 RMS=1.90D-03 Max=2.34D-02 NDo=     1
 LinEq1:  Iter=  2 NonCon=     1 RMS=4.30D-04 Max=4.70D-03 NDo=     1
 LinEq1:  Iter=  3 NonCon=     1 RMS=1.83D-04 Max=2.20D-03 NDo=     1
 LinEq1:  Iter=  4 NonCon=     1 RMS=4.21D-05 Max=5.97D-04 NDo=     1
 LinEq1:  Iter=  5 NonCon=     1 RMS=2.14D-05 Max=4.98D-04 NDo=     1
 LinEq1:  Iter=  6 NonCon=     1 RMS=3.84D-06 Max=8.28D-05 NDo=     1
 LinEq1:  Iter=  7 NonCon=     1 RMS=8.36D-07 Max=1.51D-05 NDo=     1
 LinEq1:  Iter=  8 NonCon=     1 RMS=2.09D-07 Max=3.19D-06 NDo=     1
 LinEq1:  Iter=  9 NonCon=     1 RMS=6.43D-08 Max=6.46D-07 NDo=     1
 LinEq1:  Iter= 10 NonCon=     1 RMS=7.73D-09 Max=7.69D-08 NDo=     1
 LinEq1:  Iter= 11 NonCon=     1 RMS=1.08D-09 Max=9.10D-09 NDo=     1
 LinEq1:  Iter= 12 NonCon=     1 RMS=1.34D-10 Max=1.31D-09 NDo=     1
 LinEq1:  Iter= 13 NonCon=     0 RMS=1.47D-11 Max=1.42D-10 NDo=     1
 Linear equations converged to 1.000D-10 1.000D-09 after    13 iterations.
 End of Minotr F.D. properties file   721 does not exist.
 End of Minotr F.D. properties file   722 does not exist.
 End of Minotr F.D. properties file   788 does not exist.
 Calling FoFJK, ICntrl=  10002127 FMM=F ISym2X=1 I1Cent= 0 IOpClX= 0 NMat=1 NMatS=1 NMatT=0.
 ***** Axes restored to original set *****
 -------------------------------------------------------------------
 Center     Atomic                   Forces (Hartrees/Bohr)
 Number     Number              X              Y              Z
 -------------------------------------------------------------------
      1        9          -0.003089896   -0.002324030    0.000754841
      2        6           0.006167534    0.003118551   -0.002718436
      3        6          -0.002014220   -0.000368403    0.001405914
      4        6          -0.000328160    0.000601892    0.000756648
      5        6          -0.000607233   -0.000809943   -0.000133182
      6        6          -0.002047125   -0.000534871    0.001300996
      7        6           0.005445200   -0.000535736   -0.005021604
      8        9          -0.002413057    0.001100104    0.002912951
      9        1          -0.000246731   -0.000383887   -0.000097775
     10        1          -0.000421324   -0.000304143    0.000113085
     11        1          -0.000334305    0.000136085    0.000390545
     12        1          -0.000110683    0.000304382    0.000336016
 -------------------------------------------------------------------
 Cartesian Forces:  Max     0.006167534 RMS     0.002086791

 GradGradGradGradGradGradGradGradGradGradGradGradGradGradGradGradGradGrad
 Berny optimization.
 Using GEDIIS/GDIIS optimizer.
 FormGI is forming the generalized inverse of G from B-inverse, IUseBI=4.
 Internal  Forces:  Max     0.003937221 RMS     0.001122454
 Search for a local minimum.
 Step number   2 out of a maximum of   64
 All quantities printed in internal units (Hartrees-Bohrs-Radians)
 Mixed Optimization -- RFO/linear search
 Update second derivatives using D2CorX and points    1    2
 DE= -3.29D-03 DEPred=-3.25D-03 R= 1.01D+00
 TightC=F SS=  1.41D+00  RLast= 1.14D-01 DXNew= 5.0454D-01 3.4291D-01
 Trust test= 1.01D+00 RLast= 1.14D-01 DXMaxT set to 3.43D-01
 ITU=  1  0
 Use linear search instead of GDIIS.
     Eigenvalues ---    0.02122   0.02128   0.02129   0.02166   0.02166
     Eigenvalues ---    0.02168   0.02206   0.02207   0.02213   0.15897
     Eigenvalues ---    0.16000   0.16000   0.16033   0.22000   0.23005
     Eigenvalues ---    0.24487   0.25000   0.25279   0.35047   0.35076
     Eigenvalues ---    0.35344   0.35365   0.42061   0.42333   0.45917
     Eigenvalues ---    0.46167   0.46657   0.47983   0.53852   0.57158
 RFO step:  Lambda=-1.58456046D-04 EMin= 2.12181587D-02
 Quartic linear search produced a step of  0.05939.
 Iteration  1 RMS(Cart)=  0.00338656 RMS(Int)=  0.00000743
 Iteration  2 RMS(Cart)=  0.00000908 RMS(Int)=  0.00000221
 Iteration  3 RMS(Cart)=  0.00000000 RMS(Int)=  0.00000221
 ClnCor:  largest displacement from symmetrization is 1.12D-08 for atom    11.
 Variable       Old X    -DE/DX   Delta X   Delta X   Delta X     New X
                                 (Linear)    (Quad)   (Total)
    R1        2.59909   0.00394   0.00395   0.00527   0.00921   2.60830
    R2        2.64175  -0.00349   0.00071  -0.00831  -0.00760   2.63415
    R3        2.64753  -0.00064   0.00124  -0.00227  -0.00102   2.64650
    R4        2.65559  -0.00049   0.00099  -0.00151  -0.00053   2.65506
    R5        2.04848   0.00042  -0.00016   0.00133   0.00117   2.04964
    R6        2.65587   0.00023   0.00082   0.00035   0.00117   2.65704
    R7        2.05172  -0.00027  -0.00023  -0.00069  -0.00092   2.05080
    R8        2.65559  -0.00049   0.00099  -0.00151  -0.00053   2.65506
    R9        2.05172  -0.00027  -0.00023  -0.00069  -0.00092   2.05080
   R10        2.64175  -0.00349   0.00071  -0.00831  -0.00760   2.63415
   R11        2.04848   0.00042  -0.00016   0.00133   0.00117   2.04964
   R12        2.59909   0.00394   0.00395   0.00527   0.00921   2.60830
    A1        2.10353  -0.00073   0.00121  -0.00340  -0.00219   2.10134
    A2        2.08590  -0.00040  -0.00078  -0.00112  -0.00191   2.08399
    A3        2.09376   0.00113  -0.00043   0.00452   0.00410   2.09786
    A4        2.10047  -0.00142   0.00083  -0.00696  -0.00614   2.09433
    A5        2.06815   0.00050  -0.00120   0.00235   0.00115   2.06930
    A6        2.11456   0.00092   0.00037   0.00462   0.00499   2.11955
    A7        2.08895   0.00029  -0.00039   0.00244   0.00204   2.09099
    A8        2.09426  -0.00062   0.00004  -0.00429  -0.00425   2.09001
    A9        2.09997   0.00033   0.00035   0.00185   0.00221   2.10218
   A10        2.08895   0.00029  -0.00039   0.00244   0.00204   2.09099
   A11        2.09997   0.00033   0.00035   0.00185   0.00221   2.10218
   A12        2.09426  -0.00062   0.00004  -0.00429  -0.00425   2.09001
   A13        2.10047  -0.00142   0.00083  -0.00696  -0.00614   2.09433
   A14        2.11456   0.00092   0.00037   0.00462   0.00499   2.11955
   A15        2.06815   0.00050  -0.00120   0.00235   0.00115   2.06930
   A16        2.09376   0.00113  -0.00043   0.00452   0.00410   2.09786
   A17        2.08590  -0.00040  -0.00078  -0.00112  -0.00191   2.08399
   A18        2.10353  -0.00073   0.00121  -0.00340  -0.00219   2.10134
    D1        3.14159   0.00000  -0.00000   0.00000   0.00000   3.14159
    D2        0.00000  -0.00000  -0.00000  -0.00000  -0.00000  -0.00000
    D3       -0.00000   0.00000  -0.00000  -0.00000  -0.00000  -0.00000
    D4       -3.14159  -0.00000  -0.00000  -0.00000  -0.00000   3.14159
    D5       -3.14159  -0.00000   0.00000  -0.00000  -0.00000   3.14159
    D6       -0.00000   0.00000   0.00000   0.00000   0.00000   0.00000
    D7       -0.00000   0.00000   0.00000  -0.00000   0.00000   0.00000
    D8        3.14159   0.00000  -0.00000   0.00000   0.00000  -3.14159
    D9        0.00000  -0.00000   0.00000   0.00000   0.00000   0.00000
   D10        3.14159  -0.00000   0.00000  -0.00000  -0.00000   3.14159
   D11        3.14159   0.00000   0.00000   0.00000   0.00000  -3.14159
   D12       -0.00000   0.00000  -0.00000   0.00000   0.00000  -0.00000
   D13       -0.00000   0.00000   0.00000   0.00000   0.00000   0.00000
   D14        3.14159   0.00000  -0.00000  -0.00000  -0.00000   3.14159
   D15       -3.14159  -0.00000   0.00000   0.00000   0.00000  -3.14159
   D16        0.00000  -0.00000   0.00000   0.00000  -0.00000   0.00000
   D17       -0.00000   0.00000  -0.00000  -0.00000  -0.00000  -0.00000
   D18       -3.14159  -0.00000  -0.00000  -0.00000  -0.00000   3.14159
   D19       -3.14159   0.00000  -0.00000   0.00000   0.00000  -3.14159
   D20        0.00000  -0.00000   0.00000  -0.00000  -0.00000   0.00000
   D21        0.00000  -0.00000   0.00000   0.00000   0.00000   0.00000
   D22       -3.14159  -0.00000   0.00000  -0.00000  -0.00000  -3.14159
   D23        3.14159   0.00000   0.00000   0.00000   0.00000  -3.14159
   D24       -0.00000   0.00000   0.00000   0.00000   0.00000   0.00000
         Item               Value     Threshold  Converged?
 Maximum Force            0.003937     0.000450     NO 
 RMS     Force            0.001122     0.000300     NO 
 Maximum Displacement     0.010159     0.001800     NO 
 RMS     Displacement     0.003387     0.001200     NO 
 Predicted change in Energy=-8.806878D-05
 GradGradGradGradGradGradGradGradGradGradGradGradGradGradGradGradGradGrad

                          Input orientation:                          
 ---------------------------------------------------------------------
 Center     Atomic      Atomic             Coordinates (Angstroms)
 Number     Number       Type             X           Y           Z
 ---------------------------------------------------------------------
      1          9           0       -2.445891   -1.309935    1.072705
      2          6           0       -1.350261   -0.525675    0.773324
      3          6           0       -0.480151   -0.891467   -0.252419
      4          6           0        0.632553   -0.086896   -0.550019
      5          6           0        0.864458    1.086311    0.189413
      6          6           0       -0.017881    1.447160    1.221535
      7          6           0       -1.119276    0.642882    1.509825
      8          9           0       -1.991368    0.989497    2.521956
      9          1           0       -0.684312   -1.801750   -0.805696
     10          1           0        1.307365   -0.375492   -1.349442
     11          1           0        1.720671    1.715425   -0.031611
     12          1           0        0.135597    2.346171    1.808592
 ---------------------------------------------------------------------
                    Distance matrix (angstroms):
                    1          2          3          4          5
     1  F    0.000000
     2  C    1.380252   0.000000
     3  C    2.407323   1.393932   0.000000
     4  C    3.688614   2.423906   1.404995   0.000000
     5  C    4.180982   2.800792   2.432035   1.406042   0.000000
     6  C    3.676813   2.422439   2.802751   2.432035   1.404995
     7  C    2.400932   1.400469   2.422439   2.800792   2.423906
     8  F    2.755776   2.400932   3.676813   4.180982   3.688614
     9  H    2.621723   2.136624   1.084625   2.177206   3.424884
    10  H    4.563651   3.404655   2.159839   1.085236   2.168204
    11  H    5.266171   3.886011   3.418810   2.168204   1.085236
    12  H    4.535716   3.395152   3.887057   3.424884   2.177206
                    6          7          8          9         10
     6  C    0.000000
     7  C    1.393932   0.000000
     8  F    2.407323   1.380252   0.000000
     9  H    3.887057   3.395152   4.535716   0.000000
    10  H    3.418810   3.886011   5.266171   2.509313   0.000000
    11  H    2.159839   3.404655   4.563651   4.330551   2.505880
    12  H    1.084625   2.136624   2.621723   4.971117   4.330551
                   11         12
    11  H    0.000000
    12  H    2.509313   0.000000
 Stoichiometry    C6H4F2
 Framework group  CS[X(C6H4F2)]
 Deg. of freedom    15
 Full point group                 CS      NOp   2
 Largest Abelian subgroup         CS      NOp   2
 Largest concise Abelian subgroup CS      NOp   2
                         Standard orientation:                         
 ---------------------------------------------------------------------
 Center     Atomic      Atomic             Coordinates (Angstroms)
 Number     Number       Type             X           Y           Z
 ---------------------------------------------------------------------
      1          9           0       -0.000000    1.736353   -1.377888
      2          6           0        0.000000    0.533905   -0.700235
      3          6           0       -0.000000   -0.670856   -1.401375
      4          6           0        0.000000   -1.889999   -0.703021
      5          6           0        0.000000   -1.889999    0.703021
      6          6           0       -0.000000   -0.670856    1.401375
      7          6           0        0.000000    0.533905    0.700235
      8          9           0       -0.000000    1.736353    1.377888
      9          1           0       -0.000000   -0.639884   -2.485558
     10          1           0       -0.000000   -2.825588   -1.252940
     11          1           0       -0.000000   -2.825588    1.252940
     12          1           0       -0.000000   -0.639884    2.485558
 ---------------------------------------------------------------------
 Rotational constants (GHZ):           3.1881313           2.1605709           1.2878234
 Standard basis: 3-21G (6D, 7F)
 There are    40 symmetry adapted cartesian basis functions of A'  symmetry.
 There are    40 symmetry adapted cartesian basis functions of A"  symmetry.
 There are    40 symmetry adapted basis functions of A'  symmetry.
 There are    40 symmetry adapted basis functions of A"  symmetry.
    80 basis functions,   132 primitive gaussians,    80 cartesian basis functions
    29 alpha electrons       29 beta electrons
       nuclear repulsion energy       343.1197432171 Hartrees.
 NAtoms=   12 NActive=   12 NUniq=    6 SFac= 4.00D+00 NAtFMM=   60 NAOKFM=F Big=F
 Integral buffers will be    131072 words long.
 Raffenetti 1 integral format.
 Two-electron integral symmetry is turned on.
 One-electron integrals computed using PRISM.
 NBasis=    80 RedAO= T EigKep=  1.99D-03  NBF=    40    40
 NBsUse=    80 1.00D-06 EigRej= -1.00D+00 NBFU=    40    40
 Initial guess from the checkpoint file:  "oDifluorobenzene.chk"
 B after Tr=    -0.000000    0.000000   -0.000000
         Rot=    1.000000   -0.000000   -0.000000   -0.000000 Ang=  -0.00 deg.
 Initial guess orbital symmetries:
       Occupied  (A") (A') (A") (A') (A") (A') (A") (A') (A') (A")
                 (A') (A") (A') (A') (A") (A') (A') (A") (A') (A")
                 (A') (A") (A") (A') (A") (A') (A') (A") (A')
       Virtual   (A') (A") (A') (A") (A') (A") (A") (A') (A") (A")
                 (A') (A') (A") (A") (A") (A') (A') (A') (A") (A')
                 (A') (A") (A") (A') (A') (A") (A') (A") (A") (A')
                 (A") (A") (A") (A') (A') (A") (A') (A") (A') (A")
                 (A") (A') (A') (A") (A') (A") (A') (A") (A") (A')
                 (A")
 Keep R1 ints in memory in symmetry-blocked form, NReq=7885123.
 Requested convergence on RMS density matrix=1.00D-08 within 128 cycles.
 Requested convergence on MAX density matrix=1.00D-06.
 Requested convergence on             energy=1.00D-06.
 No special actions if energy rises.
 SCF Done:  E(RHF) =  -426.053523403     A.U. after   11 cycles
            NFock= 11  Conv=0.41D-08     -V/T= 2.0039
 ExpMin= 1.83D-01 ExpMax= 4.14D+02 ExpMxC= 4.14D+02 IAcc=3 IRadAn=         5 AccDes= 0.00D+00
 HarFok:  IExCor=  205 AccDes= 0.00D+00 IRadAn=         5 IDoV=-2 UseB2=F ITyADJ=14
 ICtDFT= 12500011 ScaDFX=  1.000000  1.000000  1.000000  1.000000
 Range of M.O.s used for correlation:     9    80
 NBasis=    80 NAE=    29 NBE=    29 NFC=     8 NFV=     0
 NROrb=     72 NOA=    21 NOB=    21 NVA=    51 NVB=    51
 Fully direct method using O(ONN) memory.
 JobTyp=1 Pass  1:  I=   9 to  29 NPSUse=  8 ParTrn=T ParDer=T DoDerP=T.
 Spin components of T(2) and E(2):
     alpha-alpha T2 =       0.3503002953D-01 E2=     -0.9836051773D-01
     alpha-beta  T2 =       0.1932097890D+00 E2=     -0.5574173214D+00
     beta-beta   T2 =       0.3503002953D-01 E2=     -0.9836051773D-01
 ANorm=    0.1123952778D+01
 E2 =    -0.7541383568D+00 EUMP2 =    -0.42680766176003D+03
          IDoAtm=111111111111
          Differentiating once with respect to electric field.
                with respect to dipole field.
          Differentiating once with respect to nuclear coordinates.
 Keep R1 ints in memory in symmetry-blocked form, NReq=7886579.
          There are     1 degrees of freedom in the 1st order CPHF.  IDoFFX=0 NUNeed=     1.
 LinEq1:  Iter=  0 NonCon=     1 RMS=6.31D-03 Max=9.27D-02 NDo=     1
 AX will form     1 AO Fock derivatives at one time.
 LinEq1:  Iter=  1 NonCon=     1 RMS=1.91D-03 Max=2.37D-02 NDo=     1
 LinEq1:  Iter=  2 NonCon=     1 RMS=4.31D-04 Max=4.67D-03 NDo=     1
 LinEq1:  Iter=  3 NonCon=     1 RMS=1.84D-04 Max=2.13D-03 NDo=     1
 LinEq1:  Iter=  4 NonCon=     1 RMS=4.19D-05 Max=5.50D-04 NDo=     1
 LinEq1:  Iter=  5 NonCon=     1 RMS=2.11D-05 Max=4.66D-04 NDo=     1
 LinEq1:  Iter=  6 NonCon=     1 RMS=3.51D-06 Max=6.85D-05 NDo=     1
 LinEq1:  Iter=  7 NonCon=     1 RMS=7.55D-07 Max=1.49D-05 NDo=     1
 LinEq1:  Iter=  8 NonCon=     1 RMS=2.07D-07 Max=3.15D-06 NDo=     1
 LinEq1:  Iter=  9 NonCon=     1 RMS=6.33D-08 Max=6.23D-07 NDo=     1
 LinEq1:  Iter= 10 NonCon=     1 RMS=7.61D-09 Max=7.53D-08 NDo=     1
 LinEq1:  Iter= 11 NonCon=     1 RMS=1.08D-09 Max=9.65D-09 NDo=     1
 LinEq1:  Iter= 12 NonCon=     1 RMS=1.37D-10 Max=1.40D-09 NDo=     1
 LinEq1:  Iter= 13 NonCon=     0 RMS=1.49D-11 Max=1.36D-10 NDo=     1
 Linear equations converged to 1.000D-10 1.000D-09 after    13 iterations.
 End of Minotr F.D. properties file   721 does not exist.
 End of Minotr F.D. properties file   722 does not exist.
 End of Minotr F.D. properties file   788 does not exist.
 Calling FoFJK, ICntrl=  10002127 FMM=F ISym2X=1 I1Cent= 0 IOpClX= 0 NMat=1 NMatS=1 NMatT=0.
 ***** Axes restored to original set *****
 -------------------------------------------------------------------
 Center     Atomic                   Forces (Hartrees/Bohr)
 Number     Number              X              Y              Z
 -------------------------------------------------------------------
      1        9          -0.000301122   -0.000132411    0.000148544
      2        6           0.000642151    0.000668214   -0.000009233
      3        6          -0.000858167   -0.000444968    0.000369441
      4        6           0.000488711    0.000900473    0.000305368
      5        6           0.000161297   -0.000755912   -0.000738593
      6        6          -0.000753091    0.000086610    0.000704476
      7        6           0.000424894   -0.000430893   -0.000701962
      8        9          -0.000274063    0.000004483    0.000234823
      9        1           0.000141303    0.000135729   -0.000011049
     10        1           0.000123068    0.000066604   -0.000050760
     11        1           0.000106845   -0.000015465   -0.000102485
     12        1           0.000098173   -0.000082464   -0.000148569
 -------------------------------------------------------------------
 Cartesian Forces:  Max     0.000900473 RMS     0.000425817

 GradGradGradGradGradGradGradGradGradGradGradGradGradGradGradGradGradGrad
 Berny optimization.
 Using GEDIIS/GDIIS optimizer.
 FormGI is forming the generalized inverse of G from B-inverse, IUseBI=4.
 Internal  Forces:  Max     0.000814280 RMS     0.000212450
 Search for a local minimum.
 Step number   3 out of a maximum of   64
 All quantities printed in internal units (Hartrees-Bohrs-Radians)
 Mixed Optimization -- En-DIIS/RFO-DIIS
 Update second derivatives using D2CorX and points    1    2    3
 DE= -9.36D-05 DEPred=-8.81D-05 R= 1.06D+00
 TightC=F SS=  1.41D+00  RLast= 2.29D-02 DXNew= 5.7670D-01 6.8741D-02
 Trust test= 1.06D+00 RLast= 2.29D-02 DXMaxT set to 3.43D-01
 ITU=  1  1  0
 Use linear search instead of GDIIS.
     Eigenvalues ---    0.02122   0.02127   0.02129   0.02166   0.02166
     Eigenvalues ---    0.02168   0.02206   0.02207   0.02213   0.16000
     Eigenvalues ---    0.16000   0.16029   0.16340   0.22000   0.22188
     Eigenvalues ---    0.24489   0.25000   0.25546   0.35076   0.35100
     Eigenvalues ---    0.35344   0.35492   0.37755   0.42353   0.43661
     Eigenvalues ---    0.46658   0.47255   0.51082   0.53744   0.57158
 RFO step:  Lambda=-6.23986097D-06 EMin= 2.12177603D-02
 Quartic linear search produced a step of  0.05479.
 Iteration  1 RMS(Cart)=  0.00072714 RMS(Int)=  0.00000031
 Iteration  2 RMS(Cart)=  0.00000036 RMS(Int)=  0.00000017
 ClnCor:  largest displacement from symmetrization is 9.21D-09 for atom     8.
 Variable       Old X    -DE/DX   Delta X   Delta X   Delta X     New X
                                 (Linear)    (Quad)   (Total)
    R1        2.60830   0.00035   0.00050   0.00063   0.00114   2.60944
    R2        2.63415  -0.00028  -0.00042  -0.00050  -0.00092   2.63323
    R3        2.64650  -0.00062  -0.00006  -0.00136  -0.00141   2.64509
    R4        2.65506   0.00058  -0.00003   0.00139   0.00136   2.65642
    R5        2.04964  -0.00013   0.00006  -0.00043  -0.00036   2.04928
    R6        2.65704  -0.00081   0.00006  -0.00182  -0.00175   2.65528
    R7        2.05080   0.00010  -0.00005   0.00030   0.00025   2.05104
    R8        2.65506   0.00058  -0.00003   0.00139   0.00136   2.65642
    R9        2.05080   0.00010  -0.00005   0.00030   0.00025   2.05104
   R10        2.63415  -0.00028  -0.00042  -0.00050  -0.00092   2.63323
   R11        2.04964  -0.00013   0.00006  -0.00043  -0.00036   2.04928
   R12        2.60830   0.00035   0.00050   0.00063   0.00114   2.60944
    A1        2.10134   0.00008  -0.00012   0.00046   0.00034   2.10168
    A2        2.08399  -0.00019  -0.00010  -0.00074  -0.00084   2.08315
    A3        2.09786   0.00011   0.00022   0.00028   0.00050   2.09836
    A4        2.09433  -0.00008  -0.00034  -0.00025  -0.00058   2.09375
    A5        2.06930   0.00019   0.00006   0.00108   0.00115   2.07044
    A6        2.11955  -0.00010   0.00027  -0.00084  -0.00057   2.11899
    A7        2.09099  -0.00003   0.00011  -0.00003   0.00008   2.09107
    A8        2.09001   0.00013  -0.00023   0.00083   0.00060   2.09061
    A9        2.10218  -0.00010   0.00012  -0.00080  -0.00068   2.10150
   A10        2.09099  -0.00003   0.00011  -0.00003   0.00008   2.09107
   A11        2.10218  -0.00010   0.00012  -0.00080  -0.00068   2.10150
   A12        2.09001   0.00013  -0.00023   0.00083   0.00060   2.09061
   A13        2.09433  -0.00008  -0.00034  -0.00025  -0.00058   2.09375
   A14        2.11955  -0.00010   0.00027  -0.00084  -0.00057   2.11899
   A15        2.06930   0.00019   0.00006   0.00108   0.00115   2.07044
   A16        2.09786   0.00011   0.00022   0.00028   0.00050   2.09836
   A17        2.08399  -0.00019  -0.00010  -0.00074  -0.00084   2.08315
   A18        2.10134   0.00008  -0.00012   0.00046   0.00034   2.10168
    D1        3.14159   0.00000   0.00000   0.00000   0.00000   3.14159
    D2       -0.00000   0.00000  -0.00000   0.00000   0.00000  -0.00000
    D3       -0.00000   0.00000  -0.00000   0.00000   0.00000   0.00000
    D4        3.14159   0.00000  -0.00000   0.00000   0.00000   3.14159
    D5        3.14159   0.00000  -0.00000   0.00000   0.00000  -3.14159
    D6        0.00000  -0.00000   0.00000   0.00000  -0.00000   0.00000
    D7        0.00000  -0.00000   0.00000   0.00000   0.00000   0.00000
    D8       -3.14159  -0.00000   0.00000  -0.00000  -0.00000   3.14159
    D9        0.00000  -0.00000   0.00000  -0.00000  -0.00000  -0.00000
   D10        3.14159   0.00000  -0.00000   0.00000   0.00000   3.14159
   D11       -3.14159  -0.00000   0.00000  -0.00000  -0.00000   3.14159
   D12       -0.00000   0.00000   0.00000   0.00000   0.00000   0.00000
   D13        0.00000  -0.00000   0.00000   0.00000   0.00000   0.00000
   D14        3.14159   0.00000  -0.00000   0.00000   0.00000  -3.14159
   D15       -3.14159  -0.00000   0.00000  -0.00000  -0.00000   3.14159
   D16       -0.00000   0.00000  -0.00000  -0.00000   0.00000   0.00000
   D17       -0.00000   0.00000  -0.00000   0.00000   0.00000   0.00000
   D18        3.14159   0.00000  -0.00000   0.00000   0.00000   3.14159
   D19       -3.14159  -0.00000   0.00000  -0.00000  -0.00000  -3.14159
   D20        0.00000  -0.00000  -0.00000  -0.00000  -0.00000  -0.00000
   D21        0.00000  -0.00000   0.00000  -0.00000  -0.00000  -0.00000
   D22       -3.14159  -0.00000  -0.00000  -0.00000  -0.00000   3.14159
   D23       -3.14159  -0.00000   0.00000  -0.00000  -0.00000  -3.14159
   D24        0.00000  -0.00000   0.00000  -0.00000  -0.00000   0.00000
         Item               Value     Threshold  Converged?
 Maximum Force            0.000814     0.000450     NO 
 RMS     Force            0.000212     0.000300     YES
 Maximum Displacement     0.001996     0.001800     NO 
 RMS     Displacement     0.000727     0.001200     YES
 Predicted change in Energy=-3.372188D-06
 GradGradGradGradGradGradGradGradGradGradGradGradGradGradGradGradGradGrad

                          Input orientation:                          
 ---------------------------------------------------------------------
 Center     Atomic      Atomic             Coordinates (Angstroms)
 Number     Number       Type             X           Y           Z
 ---------------------------------------------------------------------
      1          9           0       -2.446355   -1.309165    1.073710
      2          6           0       -1.349946   -0.525307    0.773352
      3          6           0       -0.480528   -0.891543   -0.252161
      4          6           0        0.632719   -0.086490   -0.549835
      5          6           0        0.864471    1.085945    0.189109
      6          6           0       -0.018261    1.447067    1.221782
      7          6           0       -1.119084    0.642626    1.509459
      8          9           0       -1.992193    0.988440    2.521810
      9          1           0       -0.684086   -1.801554   -0.805729
     10          1           0        1.308021   -0.374524   -1.349224
     11          1           0        1.720987    1.714673   -0.032477
     12          1           0        0.135762    2.346061    1.808366
 ---------------------------------------------------------------------
                    Distance matrix (angstroms):
                    1          2          3          4          5
     1  F    0.000000
     2  C    1.380855   0.000000
     3  C    2.407658   1.393447   0.000000
     4  C    3.689381   2.423705   1.405717   0.000000
     5  C    4.180985   2.800199   2.431913   1.405115   0.000000
     6  C    3.676191   2.421721   2.802730   2.431913   1.405717
     7  C    2.400212   1.399721   2.421721   2.800199   2.423705
     8  F    2.753588   2.400212   3.676191   4.180985   3.689381
     9  H    2.623038   2.136744   1.084432   2.177362   3.424234
    10  H    4.565030   3.404828   2.160963   1.085366   2.167065
    11  H    5.266307   3.885550   3.418668   2.167065   1.085366
    12  H    4.535166   3.394604   3.886858   3.424234   2.177362
                    6          7          8          9         10
     6  C    0.000000
     7  C    1.393447   0.000000
     8  F    2.407658   1.380855   0.000000
     9  H    3.886858   3.394604   4.535166   0.000000
    10  H    3.418668   3.885550   5.266307   2.510038   0.000000
    11  H    2.160963   3.404828   4.565030   4.329682   2.503819
    12  H    1.084432   2.136744   2.623038   4.970750   4.329682
                   11         12
    11  H    0.000000
    12  H    2.510038   0.000000
 Stoichiometry    C6H4F2
 Framework group  CS[X(C6H4F2)]
 Deg. of freedom    15
 Full point group                 CS      NOp   2
 Largest Abelian subgroup         CS      NOp   2
 Largest concise Abelian subgroup CS      NOp   2
                         Standard orientation:                         
 ---------------------------------------------------------------------
 Center     Atomic      Atomic             Coordinates (Angstroms)
 Number     Number       Type             X           Y           Z
 ---------------------------------------------------------------------
      1          9           0       -0.000000    1.736915   -1.376794
      2          6           0       -0.000000    0.533370   -0.699861
      3          6           0        0.000000   -0.670617   -1.401365
      4          6           0        0.000000   -1.890334   -0.702558
      5          6           0        0.000000   -1.890334    0.702558
      6          6           0        0.000000   -0.670617    1.401365
      7          6           0       -0.000000    0.533370    0.699861
      8          9           0       -0.000000    1.736915    1.376794
      9          1           0        0.000000   -0.640347   -2.485375
     10          1           0        0.000000   -2.826406   -1.251909
     11          1           0        0.000000   -2.826406    1.251909
     12          1           0        0.000000   -0.640347    2.485375
 ---------------------------------------------------------------------
 Rotational constants (GHZ):           3.1911601           2.1597113           1.2880116
 Standard basis: 3-21G (6D, 7F)
 There are    40 symmetry adapted cartesian basis functions of A'  symmetry.
 There are    40 symmetry adapted cartesian basis functions of A"  symmetry.
 There are    40 symmetry adapted basis functions of A'  symmetry.
 There are    40 symmetry adapted basis functions of A"  symmetry.
    80 basis functions,   132 primitive gaussians,    80 cartesian basis functions
    29 alpha electrons       29 beta electrons
       nuclear repulsion energy       343.1374853129 Hartrees.
 NAtoms=   12 NActive=   12 NUniq=    6 SFac= 4.00D+00 NAtFMM=   60 NAOKFM=F Big=F
 Integral buffers will be    131072 words long.
 Raffenetti 1 integral format.
 Two-electron integral symmetry is turned on.
 One-electron integrals computed using PRISM.
 NBasis=    80 RedAO= T EigKep=  1.99D-03  NBF=    40    40
 NBsUse=    80 1.00D-06 EigRej= -1.00D+00 NBFU=    40    40
 Initial guess from the checkpoint file:  "oDifluorobenzene.chk"
 B after Tr=     0.000000   -0.000000    0.000000
         Rot=    1.000000   -0.000000    0.000000    0.000000 Ang=   0.00 deg.
 Initial guess orbital symmetries:
       Occupied  (A") (A') (A") (A') (A") (A') (A") (A') (A') (A")
                 (A') (A") (A') (A') (A") (A') (A') (A") (A') (A")
                 (A') (A") (A") (A') (A") (A') (A') (A") (A')
       Virtual   (A') (A") (A') (A") (A') (A") (A") (A') (A") (A")
                 (A') (A') (A") (A") (A") (A') (A') (A') (A") (A')
                 (A') (A") (A") (A') (A') (A") (A') (A") (A") (A')
                 (A") (A") (A") (A') (A') (A") (A') (A") (A') (A")
                 (A") (A') (A') (A") (A') (A") (A') (A") (A") (A')
                 (A")
 Keep R1 ints in memory in symmetry-blocked form, NReq=7885123.
 Requested convergence on RMS density matrix=1.00D-08 within 128 cycles.
 Requested convergence on MAX density matrix=1.00D-06.
 Requested convergence on             energy=1.00D-06.
 No special actions if energy rises.
 SCF Done:  E(RHF) =  -426.053540951     A.U. after   10 cycles
            NFock= 10  Conv=0.40D-08     -V/T= 2.0039
 ExpMin= 1.83D-01 ExpMax= 4.14D+02 ExpMxC= 4.14D+02 IAcc=3 IRadAn=         5 AccDes= 0.00D+00
 HarFok:  IExCor=  205 AccDes= 0.00D+00 IRadAn=         5 IDoV=-2 UseB2=F ITyADJ=14
 ICtDFT= 12500011 ScaDFX=  1.000000  1.000000  1.000000  1.000000
 Range of M.O.s used for correlation:     9    80
 NBasis=    80 NAE=    29 NBE=    29 NFC=     8 NFV=     0
 NROrb=     72 NOA=    21 NOB=    21 NVA=    51 NVB=    51
 Fully direct method using O(ONN) memory.
 JobTyp=1 Pass  1:  I=   9 to  29 NPSUse=  8 ParTrn=T ParDer=T DoDerP=T.
 Spin components of T(2) and E(2):
     alpha-alpha T2 =       0.3502605880D-01 E2=     -0.9835850504D-01
     alpha-beta  T2 =       0.1931940601D+00 E2=     -0.5574076419D+00
     beta-beta   T2 =       0.3502605880D-01 E2=     -0.9835850504D-01
 ANorm=    0.1123942248D+01
 E2 =    -0.7541246520D+00 EUMP2 =    -0.42680766560304D+03
          IDoAtm=111111111111
          Differentiating once with respect to electric field.
                with respect to dipole field.
          Differentiating once with respect to nuclear coordinates.
 Keep R1 ints in memory in symmetry-blocked form, NReq=7886579.
          There are     1 degrees of freedom in the 1st order CPHF.  IDoFFX=0 NUNeed=     1.
 LinEq1:  Iter=  0 NonCon=     1 RMS=6.31D-03 Max=9.26D-02 NDo=     1
 AX will form     1 AO Fock derivatives at one time.
 LinEq1:  Iter=  1 NonCon=     1 RMS=1.91D-03 Max=2.37D-02 NDo=     1
 LinEq1:  Iter=  2 NonCon=     1 RMS=4.31D-04 Max=4.66D-03 NDo=     1
 LinEq1:  Iter=  3 NonCon=     1 RMS=1.84D-04 Max=2.10D-03 NDo=     1
 LinEq1:  Iter=  4 NonCon=     1 RMS=4.19D-05 Max=5.33D-04 NDo=     1
 LinEq1:  Iter=  5 NonCon=     1 RMS=2.11D-05 Max=4.55D-04 NDo=     1
 LinEq1:  Iter=  6 NonCon=     1 RMS=3.40D-06 Max=6.33D-05 NDo=     1
 LinEq1:  Iter=  7 NonCon=     1 RMS=7.21D-07 Max=1.47D-05 NDo=     1
 LinEq1:  Iter=  8 NonCon=     1 RMS=2.05D-07 Max=3.11D-06 NDo=     1
 LinEq1:  Iter=  9 NonCon=     1 RMS=6.30D-08 Max=6.35D-07 NDo=     1
 LinEq1:  Iter= 10 NonCon=     1 RMS=7.59D-09 Max=7.48D-08 NDo=     1
 LinEq1:  Iter= 11 NonCon=     1 RMS=1.08D-09 Max=9.70D-09 NDo=     1
 LinEq1:  Iter= 12 NonCon=     1 RMS=1.37D-10 Max=1.41D-09 NDo=     1
 LinEq1:  Iter= 13 NonCon=     0 RMS=1.49D-11 Max=1.35D-10 NDo=     1
 Linear equations converged to 1.000D-10 1.000D-09 after    13 iterations.
 End of Minotr F.D. properties file   721 does not exist.
 End of Minotr F.D. properties file   722 does not exist.
 End of Minotr F.D. properties file   788 does not exist.
 Calling FoFJK, ICntrl=  10002127 FMM=F ISym2X=1 I1Cent= 0 IOpClX= 0 NMat=1 NMatS=1 NMatT=0.
 ***** Axes restored to original set *****
 -------------------------------------------------------------------
 Center     Atomic                   Forces (Hartrees/Bohr)
 Number     Number              X              Y              Z
 -------------------------------------------------------------------
      1        9           0.000060477    0.000063635   -0.000000309
      2        6          -0.000007404   -0.000110212   -0.000081598
      3        6          -0.000271668   -0.000193137    0.000075289
      4        6           0.000162290    0.000241613    0.000055639
      5        6           0.000077305   -0.000188323   -0.000215334
      6        6          -0.000216788    0.000084499    0.000250273
      7        6           0.000037490    0.000116903    0.000061545
      8        9           0.000039725   -0.000041349   -0.000066477
      9        1           0.000063749    0.000027541   -0.000031839
     10        1          -0.000004692   -0.000015517   -0.000008408
     11        1           0.000001293    0.000014760    0.000010675
     12        1           0.000058223   -0.000000413   -0.000049457
 -------------------------------------------------------------------
 Cartesian Forces:  Max     0.000271668 RMS     0.000114824

 GradGradGradGradGradGradGradGradGradGradGradGradGradGradGradGradGradGrad
 Berny optimization.
 Using GEDIIS/GDIIS optimizer.
 FormGI is forming the generalized inverse of G from B-inverse, IUseBI=4.
 Internal  Forces:  Max     0.000183011 RMS     0.000054267
 Search for a local minimum.
 Step number   4 out of a maximum of   64
 All quantities printed in internal units (Hartrees-Bohrs-Radians)
 Mixed Optimization -- En-DIIS/RFO-DIIS
 Swapping is turned off.
 Update second derivatives using D2CorX and points    1    2    3    4
 DE= -3.84D-06 DEPred=-3.37D-06 R= 1.14D+00
 TightC=F SS=  1.41D+00  RLast= 4.61D-03 DXNew= 5.7670D-01 1.3817D-02
 Trust test= 1.14D+00 RLast= 4.61D-03 DXMaxT set to 3.43D-01
 ITU=  1  1  1  0
     Eigenvalues ---    0.02122   0.02127   0.02129   0.02166   0.02166
     Eigenvalues ---    0.02168   0.02206   0.02207   0.02213   0.14510
     Eigenvalues ---    0.16000   0.16000   0.16432   0.20497   0.22000
     Eigenvalues ---    0.24489   0.25000   0.25687   0.35076   0.35092
     Eigenvalues ---    0.35344   0.35436   0.37177   0.42353   0.43100
     Eigenvalues ---    0.46658   0.48463   0.51629   0.54432   0.57158
 En-DIIS/RFO-DIIS/Sim-DIIS IScMMF=       -3 using points:     4    3
 RFO step:  Lambda=-6.14083251D-07.
 DidBck=F Rises=F RFO-DIIS coefs:    1.26579   -0.26579
 Iteration  1 RMS(Cart)=  0.00024891 RMS(Int)=  0.00000007
 Iteration  2 RMS(Cart)=  0.00000007 RMS(Int)=  0.00000002
 ClnCor:  largest displacement from symmetrization is 1.25D-08 for atom     8.
 Variable       Old X    -DE/DX   Delta X   Delta X   Delta X     New X
                                 (Linear)    (Quad)   (Total)
    R1        2.60944  -0.00008   0.00030  -0.00033  -0.00002   2.60941
    R2        2.63323  -0.00005  -0.00024   0.00002  -0.00022   2.63301
    R3        2.64509   0.00011  -0.00038   0.00055   0.00017   2.64526
    R4        2.65642   0.00018   0.00036   0.00019   0.00055   2.65697
    R5        2.04928  -0.00002  -0.00010   0.00002  -0.00008   2.04920
    R6        2.65528  -0.00012  -0.00047   0.00005  -0.00042   2.65487
    R7        2.05104   0.00001   0.00007  -0.00003   0.00003   2.05108
    R8        2.65642   0.00018   0.00036   0.00019   0.00055   2.65697
    R9        2.05104   0.00001   0.00007  -0.00003   0.00003   2.05108
   R10        2.63323  -0.00005  -0.00024   0.00002  -0.00022   2.63301
   R11        2.04928  -0.00002  -0.00010   0.00002  -0.00008   2.04920
   R12        2.60944  -0.00008   0.00030  -0.00033  -0.00002   2.60941
    A1        2.10168   0.00002   0.00009  -0.00000   0.00009   2.10177
    A2        2.08315  -0.00005  -0.00022  -0.00007  -0.00030   2.08285
    A3        2.09836   0.00003   0.00013   0.00007   0.00021   2.09857
    A4        2.09375  -0.00006  -0.00015  -0.00022  -0.00038   2.09338
    A5        2.07044   0.00011   0.00030   0.00047   0.00077   2.07122
    A6        2.11899  -0.00005  -0.00015  -0.00025  -0.00040   2.11859
    A7        2.09107   0.00003   0.00002   0.00015   0.00017   2.09124
    A8        2.09061  -0.00003   0.00016  -0.00034  -0.00018   2.09043
    A9        2.10150   0.00000  -0.00018   0.00020   0.00002   2.10152
   A10        2.09107   0.00003   0.00002   0.00015   0.00017   2.09124
   A11        2.10150   0.00000  -0.00018   0.00020   0.00002   2.10152
   A12        2.09061  -0.00003   0.00016  -0.00034  -0.00018   2.09043
   A13        2.09375  -0.00006  -0.00015  -0.00022  -0.00038   2.09338
   A14        2.11899  -0.00005  -0.00015  -0.00025  -0.00040   2.11859
   A15        2.07044   0.00011   0.00030   0.00047   0.00077   2.07122
   A16        2.09836   0.00003   0.00013   0.00007   0.00021   2.09857
   A17        2.08315  -0.00005  -0.00022  -0.00007  -0.00030   2.08285
   A18        2.10168   0.00002   0.00009  -0.00000   0.00009   2.10177
    D1        3.14159  -0.00000   0.00000  -0.00000   0.00000  -3.14159
    D2        0.00000  -0.00000   0.00000  -0.00000   0.00000   0.00000
    D3        0.00000  -0.00000   0.00000  -0.00000  -0.00000   0.00000
    D4       -3.14159  -0.00000   0.00000  -0.00000  -0.00000   3.14159
    D5        3.14159   0.00000   0.00000  -0.00000   0.00000   3.14159
    D6        0.00000  -0.00000   0.00000  -0.00000   0.00000   0.00000
    D7        0.00000  -0.00000   0.00000   0.00000   0.00000   0.00000
    D8        3.14159  -0.00000  -0.00000   0.00000   0.00000   3.14159
    D9       -0.00000   0.00000  -0.00000   0.00000   0.00000   0.00000
   D10       -3.14159  -0.00000   0.00000  -0.00000  -0.00000   3.14159
   D11        3.14159   0.00000  -0.00000   0.00000   0.00000   3.14159
   D12        0.00000  -0.00000   0.00000  -0.00000  -0.00000  -0.00000
   D13        0.00000  -0.00000   0.00000   0.00000   0.00000   0.00000
   D14       -3.14159  -0.00000   0.00000  -0.00000  -0.00000  -3.14159
   D15        3.14159   0.00000  -0.00000   0.00000   0.00000   3.14159
   D16        0.00000  -0.00000   0.00000   0.00000  -0.00000   0.00000
   D17        0.00000  -0.00000   0.00000  -0.00000  -0.00000  -0.00000
   D18        3.14159  -0.00000   0.00000  -0.00000   0.00000   3.14159
   D19        3.14159   0.00000  -0.00000   0.00000   0.00000   3.14159
   D20       -0.00000   0.00000  -0.00000   0.00000   0.00000   0.00000
   D21       -0.00000   0.00000  -0.00000   0.00000   0.00000   0.00000
   D22        3.14159   0.00000  -0.00000   0.00000   0.00000   3.14159
   D23        3.14159   0.00000  -0.00000   0.00000   0.00000   3.14159
   D24        0.00000   0.00000  -0.00000   0.00000  -0.00000   0.00000
         Item               Value     Threshold  Converged?
 Maximum Force            0.000183     0.000450     YES
 RMS     Force            0.000054     0.000300     YES
 Maximum Displacement     0.000708     0.001800     YES
 RMS     Displacement     0.000249     0.001200     YES
 Predicted change in Energy=-3.070414D-07
 Optimization completed.
    -- Stationary point found.
                           ----------------------------
                           !   Optimized Parameters   !
                           ! (Angstroms and Degrees)  !
 --------------------------                            --------------------------
 ! Name  Definition              Value          Derivative Info.                !
 --------------------------------------------------------------------------------
 ! R1    R(1,2)                  1.3809         -DE/DX =   -0.0001              !
 ! R2    R(2,3)                  1.3934         -DE/DX =   -0.0001              !
 ! R3    R(2,7)                  1.3997         -DE/DX =    0.0001              !
 ! R4    R(3,4)                  1.4057         -DE/DX =    0.0002              !
 ! R5    R(3,9)                  1.0844         -DE/DX =    0.0                 !
 ! R6    R(4,5)                  1.4051         -DE/DX =   -0.0001              !
 ! R7    R(4,10)                 1.0854         -DE/DX =    0.0                 !
 ! R8    R(5,6)                  1.4057         -DE/DX =    0.0002              !
 ! R9    R(5,11)                 1.0854         -DE/DX =    0.0                 !
 ! R10   R(6,7)                  1.3934         -DE/DX =   -0.0001              !
 ! R11   R(6,12)                 1.0844         -DE/DX =    0.0                 !
 ! R12   R(7,8)                  1.3809         -DE/DX =   -0.0001              !
 ! A1    A(1,2,3)              120.4172         -DE/DX =    0.0                 !
 ! A2    A(1,2,7)              119.3556         -DE/DX =    0.0                 !
 ! A3    A(3,2,7)              120.2273         -DE/DX =    0.0                 !
 ! A4    A(2,3,4)              119.9632         -DE/DX =   -0.0001              !
 ! A5    A(2,3,9)              118.6277         -DE/DX =    0.0001              !
 ! A6    A(4,3,9)              121.409          -DE/DX =    0.0                 !
 ! A7    A(3,4,5)              119.8095         -DE/DX =    0.0                 !
 ! A8    A(3,4,10)             119.7831         -DE/DX =    0.0                 !
 ! A9    A(5,4,10)             120.4073         -DE/DX =    0.0                 !
 ! A10   A(4,5,6)              119.8095         -DE/DX =    0.0                 !
 ! A11   A(4,5,11)             120.4073         -DE/DX =    0.0                 !
 ! A12   A(6,5,11)             119.7831         -DE/DX =    0.0                 !
 ! A13   A(5,6,7)              119.9632         -DE/DX =   -0.0001              !
 ! A14   A(5,6,12)             121.409          -DE/DX =    0.0                 !
 ! A15   A(7,6,12)             118.6277         -DE/DX =    0.0001              !
 ! A16   A(2,7,6)              120.2273         -DE/DX =    0.0                 !
 ! A17   A(2,7,8)              119.3556         -DE/DX =    0.0                 !
 ! A18   A(6,7,8)              120.4172         -DE/DX =    0.0                 !
 ! D1    D(1,2,3,4)           -180.0            -DE/DX =    0.0                 !
 ! D2    D(1,2,3,9)              0.0            -DE/DX =    0.0                 !
 ! D3    D(7,2,3,4)              0.0            -DE/DX =    0.0                 !
 ! D4    D(7,2,3,9)            180.0            -DE/DX =    0.0                 !
 ! D5    D(1,2,7,6)            180.0            -DE/DX =    0.0                 !
 ! D6    D(1,2,7,8)              0.0            -DE/DX =    0.0                 !
 ! D7    D(3,2,7,6)              0.0            -DE/DX =    0.0                 !
 ! D8    D(3,2,7,8)            180.0            -DE/DX =    0.0                 !
 ! D9    D(2,3,4,5)              0.0            -DE/DX =    0.0                 !
 ! D10   D(2,3,4,10)           180.0            -DE/DX =    0.0                 !
 ! D11   D(9,3,4,5)            180.0            -DE/DX =    0.0                 !
 ! D12   D(9,3,4,10)             0.0            -DE/DX =    0.0                 !
 ! D13   D(3,4,5,6)              0.0            -DE/DX =    0.0                 !
 ! D14   D(3,4,5,11)          -180.0            -DE/DX =    0.0                 !
 ! D15   D(10,4,5,6)           180.0            -DE/DX =    0.0                 !
 ! D16   D(10,4,5,11)            0.0            -DE/DX =    0.0                 !
 ! D17   D(4,5,6,7)              0.0            -DE/DX =    0.0                 !
 ! D18   D(4,5,6,12)           180.0            -DE/DX =    0.0                 !
 ! D19   D(11,5,6,7)           180.0            -DE/DX =    0.0                 !
 ! D20   D(11,5,6,12)            0.0            -DE/DX =    0.0                 !
 ! D21   D(5,6,7,2)              0.0            -DE/DX =    0.0                 !
 ! D22   D(5,6,7,8)            180.0            -DE/DX =    0.0                 !
 ! D23   D(12,6,7,2)           180.0            -DE/DX =    0.0                 !
 ! D24   D(12,6,7,8)             0.0            -DE/DX =    0.0                 !
 --------------------------------------------------------------------------------
 GradGradGradGradGradGradGradGradGradGradGradGradGradGradGradGradGradGrad

                          Input orientation:                          
 ---------------------------------------------------------------------
 Center     Atomic      Atomic             Coordinates (Angstroms)
 Number     Number       Type             X           Y           Z
 ---------------------------------------------------------------------
      1          9           0       -2.446355   -1.309165    1.073710
      2          6           0       -1.349946   -0.525307    0.773352
      3          6           0       -0.480528   -0.891543   -0.252161
      4          6           0        0.632719   -0.086490   -0.549835
      5          6           0        0.864471    1.085945    0.189109
      6          6           0       -0.018261    1.447067    1.221782
      7          6           0       -1.119084    0.642626    1.509459
      8          9           0       -1.992193    0.988440    2.521810
      9          1           0       -0.684086   -1.801554   -0.805729
     10          1           0        1.308021   -0.374524   -1.349224
     11          1           0        1.720987    1.714673   -0.032477
     12          1           0        0.135762    2.346061    1.808366
 ---------------------------------------------------------------------
                    Distance matrix (angstroms):
                    1          2          3          4          5
     1  F    0.000000
     2  C    1.380855   0.000000
     3  C    2.407658   1.393447   0.000000
     4  C    3.689381   2.423705   1.405717   0.000000
     5  C    4.180985   2.800199   2.431913   1.405115   0.000000
     6  C    3.676191   2.421721   2.802730   2.431913   1.405717
     7  C    2.400212   1.399721   2.421721   2.800199   2.423705
     8  F    2.753588   2.400212   3.676191   4.180985   3.689381
     9  H    2.623038   2.136744   1.084432   2.177362   3.424234
    10  H    4.565030   3.404828   2.160963   1.085366   2.167065
    11  H    5.266307   3.885550   3.418668   2.167065   1.085366
    12  H    4.535166   3.394604   3.886858   3.424234   2.177362
                    6          7          8          9         10
     6  C    0.000000
     7  C    1.393447   0.000000
     8  F    2.407658   1.380855   0.000000
     9  H    3.886858   3.394604   4.535166   0.000000
    10  H    3.418668   3.885550   5.266307   2.510038   0.000000
    11  H    2.160963   3.404828   4.565030   4.329682   2.503819
    12  H    1.084432   2.136744   2.623038   4.970750   4.329682
                   11         12
    11  H    0.000000
    12  H    2.510038   0.000000
 Stoichiometry    C6H4F2
 Framework group  CS[X(C6H4F2)]
 Deg. of freedom    15
 Full point group                 CS      NOp   2
 Largest Abelian subgroup         CS      NOp   2
 Largest concise Abelian subgroup CS      NOp   2
                         Standard orientation:                         
 ---------------------------------------------------------------------
 Center     Atomic      Atomic             Coordinates (Angstroms)
 Number     Number       Type             X           Y           Z
 ---------------------------------------------------------------------
      1          9           0       -0.000000    1.736915   -1.376794
      2          6           0       -0.000000    0.533370   -0.699861
      3          6           0       -0.000000   -0.670617   -1.401365
      4          6           0       -0.000000   -1.890334   -0.702558
      5          6           0        0.000000   -1.890334    0.702558
      6          6           0       -0.000000   -0.670617    1.401365
      7          6           0       -0.000000    0.533370    0.699861
      8          9           0       -0.000000    1.736915    1.376794
      9          1           0       -0.000000   -0.640347   -2.485375
     10          1           0       -0.000000   -2.826406   -1.251909
     11          1           0       -0.000000   -2.826406    1.251909
     12          1           0       -0.000000   -0.640347    2.485375
 ---------------------------------------------------------------------
 Rotational constants (GHZ):           3.1911601           2.1597113           1.2880116

 **********************************************************************

            Population analysis using the SCF Density.

 **********************************************************************

 Orbital symmetries:
       Occupied  (A") (A') (A") (A') (A") (A') (A") (A') (A') (A")
                 (A') (A") (A') (A') (A") (A') (A') (A") (A') (A")
                 (A') (A") (A") (A') (A") (A') (A') (A") (A')
       Virtual   (A') (A") (A') (A") (A') (A") (A") (A') (A") (A")
                 (A') (A') (A") (A") (A") (A') (A') (A') (A") (A')
                 (A') (A") (A") (A') (A') (A") (A') (A") (A") (A')
                 (A") (A") (A") (A') (A') (A") (A') (A") (A') (A")
                 (A") (A') (A') (A") (A') (A") (A') (A") (A") (A')
                 (A")
 The electronic state is 1-A'.
 Alpha  occ. eigenvalues --  -26.18091 -26.18002 -11.29946 -11.29887 -11.21700
 Alpha  occ. eigenvalues --  -11.21685 -11.21545 -11.21494  -1.61021  -1.59763
 Alpha  occ. eigenvalues --   -1.18545  -1.04789  -1.03853  -0.87776  -0.85310
 Alpha  occ. eigenvalues --   -0.75060  -0.72275  -0.71038  -0.68980  -0.66069
 Alpha  occ. eigenvalues --   -0.65824  -0.64131  -0.63370  -0.59207  -0.55067
 Alpha  occ. eigenvalues --   -0.52822  -0.51967  -0.36863  -0.35612
 Alpha virt. eigenvalues --    0.11636   0.12586   0.22492   0.30383   0.30514
 Alpha virt. eigenvalues --    0.34189   0.34815   0.35036   0.40552   0.48338
 Alpha virt. eigenvalues --    0.49983   0.54219   0.54916   0.79814   0.81497
 Alpha virt. eigenvalues --    0.89469   0.90590   0.91003   0.99450   0.99603
 Alpha virt. eigenvalues --    1.01413   1.01797   1.03252   1.04687   1.07301
 Alpha virt. eigenvalues --    1.07546   1.10542   1.16673   1.23782   1.30823
 Alpha virt. eigenvalues --    1.31789   1.36904   1.42475   1.44996   1.52130
 Alpha virt. eigenvalues --    1.63799   1.66218   1.69436   1.74566   1.76036
 Alpha virt. eigenvalues --    2.07999   2.10023   2.26535   2.34378   2.44937
 Alpha virt. eigenvalues --    2.45779   2.53461   2.58730   2.63439   4.08321
 Alpha virt. eigenvalues --    4.54674
          Condensed to atoms (all electrons):
               1          2          3          4          5          6
     1  F    9.208076   0.275732  -0.049846   0.001736  -0.000156   0.001795
     2  C    0.275732   5.137896   0.292182  -0.064915  -0.001713  -0.109946
     3  C   -0.049846   0.292182   5.487360   0.383294  -0.102586   0.008334
     4  C    0.001736  -0.064915   0.383294   5.224527   0.455129  -0.102586
     5  C   -0.000156  -0.001713  -0.102586   0.455129   5.224527   0.383294
     6  C    0.001795  -0.109946   0.008334  -0.102586   0.383294   5.487360
     7  C   -0.050255   0.203469  -0.109946  -0.001713  -0.064915   0.292182
     8  F   -0.000185  -0.050255   0.001795  -0.000156   0.001736  -0.049846
     9  H   -0.001663  -0.038169   0.389808  -0.026049   0.002045  -0.000225
    10  H   -0.000000   0.001848  -0.029486   0.395194  -0.028693   0.002209
    11  H   -0.000000  -0.000117   0.002209  -0.028693   0.395194  -0.029486
    12  H   -0.000000   0.002691  -0.000225   0.002045  -0.026049   0.389808
               7          8          9         10         11         12
     1  F   -0.050255  -0.000185  -0.001663  -0.000000  -0.000000  -0.000000
     2  C    0.203469  -0.050255  -0.038169   0.001848  -0.000117   0.002691
     3  C   -0.109946   0.001795   0.389808  -0.029486   0.002209  -0.000225
     4  C   -0.001713  -0.000156  -0.026049   0.395194  -0.028693   0.002045
     5  C   -0.064915   0.001736   0.002045  -0.028693   0.395194  -0.026049
     6  C    0.292182  -0.049846  -0.000225   0.002209  -0.029486   0.389808
     7  C    5.137896   0.275732   0.002691  -0.000117   0.001848  -0.038169
     8  F    0.275732   9.208076  -0.000000  -0.000000  -0.000000  -0.001663
     9  H    0.002691  -0.000000   0.388622  -0.001274  -0.000023   0.000000
    10  H   -0.000117  -0.000000  -0.001274   0.400919  -0.000977  -0.000023
    11  H    0.001848  -0.000000  -0.000023  -0.000977   0.400919  -0.001274
    12  H   -0.038169  -0.001663   0.000000  -0.000023  -0.001274   0.388622
 Mulliken charges:
               1
     1  F   -0.385234
     2  C    0.351297
     3  C   -0.272892
     4  C   -0.237810
     5  C   -0.237810
     6  C   -0.272892
     7  C    0.351297
     8  F   -0.385234
     9  H    0.284237
    10  H    0.260403
    11  H    0.260403
    12  H    0.284237
 Sum of Mulliken charges =  -0.00000
 Mulliken charges with hydrogens summed into heavy atoms:
               1
     1  F   -0.385234
     2  C    0.351297
     3  C    0.011345
     4  C    0.022592
     5  C    0.022592
     6  C    0.011345
     7  C    0.351297
     8  F   -0.385234
 Electronic spatial extent (au):  <R**2>=            841.5439
 Charge=             -0.0000 electrons
 Dipole moment (field-independent basis, Debye):
    X=             -0.0000    Y=             -3.7270    Z=             -0.0000  Tot=              3.7270
 Quadrupole moment (field-independent basis, Debye-Ang):
   XX=            -47.8273   YY=            -45.3430   ZZ=            -40.7862
   XY=              0.0000   XZ=              0.0000   YZ=             -0.0000
 Traceless Quadrupole moment (field-independent basis, Debye-Ang):
   XX=             -3.1751   YY=             -0.6908   ZZ=              3.8659
   XY=              0.0000   XZ=              0.0000   YZ=             -0.0000
 Octapole moment (field-independent basis, Debye-Ang**2):
  XXX=             -0.0000  YYY=              2.0398  ZZZ=             -0.0000  XYY=             -0.0000
  XXY=             15.0359  XXZ=             -0.0000  XZZ=             -0.0000  YZZ=             -3.7598
  YYZ=              0.0000  XYZ=              0.0000
 Hexadecapole moment (field-independent basis, Debye-Ang**3):
 XXXX=            -45.7243 YYYY=           -511.9125 ZZZZ=           -348.3049 XXXY=              0.0000
 XXXZ=              0.0000 YYYX=              0.0000 YYYZ=             -0.0000 ZZZX=              0.0000
 ZZZY=             -0.0000 XXYY=           -105.8933 XXZZ=            -77.9528 YYZZ=           -156.6056
 XXYZ=             -0.0000 YYXZ=              0.0000 ZZXY=              0.0000
 N-N= 3.431374853129D+02 E-N=-1.689933741666D+03  KE= 4.243855306233D+02
 Symmetry A'   KE= 2.157861014474D+02
 Symmetry A"   KE= 2.085994291759D+02
 Unable to Open any file for archive entry.
 1\1\GINC-BS001\FOpt\RMP2-FC\3-21G\C6H4F2\PNATT\14-Aug-2026\0\\# opt fr
 eq=hpmodes mp2/3-21g geom=connectivity\\1,2-Difluorobenzene - size6to1
 0_C2v\\0,1\F,-2.4463547614,-1.3091653599,1.073710163\C,-1.3499463043,-
 0.5253069595,0.7733521091\C,-0.4805282638,-0.8915426348,-0.2521612362\
 C,0.6327192583,-0.0864897529,-0.5498347343\C,0.8644712942,1.0859445727
 ,0.1891091456\C,-0.0182613112,1.4470674257,1.2217819554\C,-1.119083945
 7,0.6426264857,1.5094592434\F,-1.9921930103,0.9884404595,2.5218098319\
 H,-0.6840863049,-1.8015537305,-0.8057294054\H,1.3080205869,-0.37452384
 25,-1.3492240131\H,1.7209867112,1.7146731628,-0.0324770471\H,0.1357619
 612,2.346061392,1.8083656821\\Version=ES64L-G16RevC.01\State=1-A'\HF=-
 426.053541\MP2=-426.8076656\RMSD=4.050e-09\RMSF=1.148e-04\Dipole=0.888
 14,0.197533,-0.5919567\PG=CS [X(C6H4F2)]\\@
 The archive entry for this job was punched.


      SCIENCE SANS CONSCIENCE N'EST QUE RUINE DE L'AME.

                                                  -- RABELAIS
 Job cpu time:       0 days  0 hours  1 minutes  7.0 seconds.
 Elapsed time:       0 days  0 hours  0 minutes  8.8 seconds.
 File lengths (MBytes):  RWF=     10 Int=      0 D2E=      0 Chk=      2 Scr=      1
 Normal termination of Gaussian 16 at Fri Aug 14 18:18:43 2026.
 Link1:  Proceeding to internal job step number  2.
 -------------------------------------------------------------------
 #N Geom=AllCheck Guess=TCheck SCRF=Check GenChk RMP2(FC)/3-21G Freq
 -------------------------------------------------------------------
 1/10=4,29=7,30=1,38=1,40=1/1,3;
 2/12=2,40=1/2;
 3/5=5,11=1,14=-4,25=1,30=1,70=2,71=2,116=1,140=1/1,2,3;
 4/5=101/1;
 5/5=2,38=6,98=1/2;
 8/6=3,8=1,10=1,19=11,30=-1/1;
 9/15=3,16=-3/6;
 11/6=1,8=1,15=11,17=12,24=-1,27=1,28=-2,29=300,32=6,42=3/1,2,10;
 10/6=2,21=1/2;
 8/6=4,8=1,10=1,19=11,30=-1/11,4;
 10/5=1,20=4/2;
 11/12=2,14=11,16=1,17=2,28=-2,42=3,76=2/2,10,12;
 6/7=2,8=2,9=2,10=2/1;
 7/8=11,10=1,12=2,25=1,44=2/1,2,3,16;
 1/10=4,30=1/3;
 99//99;
 Structure from the checkpoint file:  "oDifluorobenzene.chk"
 -----------------------------------
 1,2-Difluorobenzene - size6to10_C2v
 -----------------------------------
 Charge =  0 Multiplicity = 1
 Redundant internal coordinates found in file.  (old form).
 F,0,-2.4463547614,-1.3091653599,1.073710163
 C,0,-1.3499463043,-0.5253069595,0.7733521091
 C,0,-0.4805282638,-0.8915426348,-0.2521612362
 C,0,0.6327192583,-0.0864897529,-0.5498347343
 C,0,0.8644712942,1.0859445727,0.1891091456
 C,0,-0.0182613112,1.4470674257,1.2217819554
 C,0,-1.1190839457,0.6426264857,1.5094592434
 F,0,-1.9921930103,0.9884404595,2.5218098319
 H,0,-0.6840863049,-1.8015537305,-0.8057294054
 H,0,1.3080205869,-0.3745238425,-1.3492240131
 H,0,1.7209867112,1.7146731628,-0.0324770471
 H,0,0.1357619612,2.346061392,1.8083656821
 Recover connectivity data from disk.

 GradGradGradGradGradGradGradGradGradGradGradGradGradGradGradGradGradGrad
 Berny optimization.
 Initialization pass.
                           ----------------------------
                           !    Initial Parameters    !
                           ! (Angstroms and Degrees)  !
 --------------------------                            --------------------------
 ! Name  Definition              Value          Derivative Info.                !
 --------------------------------------------------------------------------------
 ! R1    R(1,2)                  1.3809         calculate D2E/DX2 analytically  !
 ! R2    R(2,3)                  1.3934         calculate D2E/DX2 analytically  !
 ! R3    R(2,7)                  1.3997         calculate D2E/DX2 analytically  !
 ! R4    R(3,4)                  1.4057         calculate D2E/DX2 analytically  !
 ! R5    R(3,9)                  1.0844         calculate D2E/DX2 analytically  !
 ! R6    R(4,5)                  1.4051         calculate D2E/DX2 analytically  !
 ! R7    R(4,10)                 1.0854         calculate D2E/DX2 analytically  !
 ! R8    R(5,6)                  1.4057         calculate D2E/DX2 analytically  !
 ! R9    R(5,11)                 1.0854         calculate D2E/DX2 analytically  !
 ! R10   R(6,7)                  1.3934         calculate D2E/DX2 analytically  !
 ! R11   R(6,12)                 1.0844         calculate D2E/DX2 analytically  !
 ! R12   R(7,8)                  1.3809         calculate D2E/DX2 analytically  !
 ! A1    A(1,2,3)              120.4172         calculate D2E/DX2 analytically  !
 ! A2    A(1,2,7)              119.3556         calculate D2E/DX2 analytically  !
 ! A3    A(3,2,7)              120.2273         calculate D2E/DX2 analytically  !
 ! A4    A(2,3,4)              119.9632         calculate D2E/DX2 analytically  !
 ! A5    A(2,3,9)              118.6277         calculate D2E/DX2 analytically  !
 ! A6    A(4,3,9)              121.409          calculate D2E/DX2 analytically  !
 ! A7    A(3,4,5)              119.8095         calculate D2E/DX2 analytically  !
 ! A8    A(3,4,10)             119.7831         calculate D2E/DX2 analytically  !
 ! A9    A(5,4,10)             120.4073         calculate D2E/DX2 analytically  !
 ! A10   A(4,5,6)              119.8095         calculate D2E/DX2 analytically  !
 ! A11   A(4,5,11)             120.4073         calculate D2E/DX2 analytically  !
 ! A12   A(6,5,11)             119.7831         calculate D2E/DX2 analytically  !
 ! A13   A(5,6,7)              119.9632         calculate D2E/DX2 analytically  !
 ! A14   A(5,6,12)             121.409          calculate D2E/DX2 analytically  !
 ! A15   A(7,6,12)             118.6277         calculate D2E/DX2 analytically  !
 ! A16   A(2,7,6)              120.2273         calculate D2E/DX2 analytically  !
 ! A17   A(2,7,8)              119.3556         calculate D2E/DX2 analytically  !
 ! A18   A(6,7,8)              120.4172         calculate D2E/DX2 analytically  !
 ! D1    D(1,2,3,4)            180.0            calculate D2E/DX2 analytically  !
 ! D2    D(1,2,3,9)              0.0            calculate D2E/DX2 analytically  !
 ! D3    D(7,2,3,4)              0.0            calculate D2E/DX2 analytically  !
 ! D4    D(7,2,3,9)            180.0            calculate D2E/DX2 analytically  !
 ! D5    D(1,2,7,6)            180.0            calculate D2E/DX2 analytically  !
 ! D6    D(1,2,7,8)              0.0            calculate D2E/DX2 analytically  !
 ! D7    D(3,2,7,6)              0.0            calculate D2E/DX2 analytically  !
 ! D8    D(3,2,7,8)            180.0            calculate D2E/DX2 analytically  !
 ! D9    D(2,3,4,5)              0.0            calculate D2E/DX2 analytically  !
 ! D10   D(2,3,4,10)           180.0            calculate D2E/DX2 analytically  !
 ! D11   D(9,3,4,5)            180.0            calculate D2E/DX2 analytically  !
 ! D12   D(9,3,4,10)             0.0            calculate D2E/DX2 analytically  !
 ! D13   D(3,4,5,6)              0.0            calculate D2E/DX2 analytically  !
 ! D14   D(3,4,5,11)           180.0            calculate D2E/DX2 analytically  !
 ! D15   D(10,4,5,6)           180.0            calculate D2E/DX2 analytically  !
 ! D16   D(10,4,5,11)            0.0            calculate D2E/DX2 analytically  !
 ! D17   D(4,5,6,7)              0.0            calculate D2E/DX2 analytically  !
 ! D18   D(4,5,6,12)           180.0            calculate D2E/DX2 analytically  !
 ! D19   D(11,5,6,7)           180.0            calculate D2E/DX2 analytically  !
 ! D20   D(11,5,6,12)            0.0            calculate D2E/DX2 analytically  !
 ! D21   D(5,6,7,2)              0.0            calculate D2E/DX2 analytically  !
 ! D22   D(5,6,7,8)            180.0            calculate D2E/DX2 analytically  !
 ! D23   D(12,6,7,2)           180.0            calculate D2E/DX2 analytically  !
 ! D24   D(12,6,7,8)             0.0            calculate D2E/DX2 analytically  !
 --------------------------------------------------------------------------------
 Trust Radius=3.00D-01 FncErr=1.00D-07 GrdErr=1.00D-07 EigMax=2.50D+02 EigMin=1.00D-04
 Number of steps in this run=      2 maximum allowed number of steps=      2.
 GradGradGradGradGradGradGradGradGradGradGradGradGradGradGradGradGradGrad

                          Input orientation:                          
 ---------------------------------------------------------------------
 Center     Atomic      Atomic             Coordinates (Angstroms)
 Number     Number       Type             X           Y           Z
 ---------------------------------------------------------------------
      1          9           0       -2.446355   -1.309165    1.073710
      2          6           0       -1.349946   -0.525307    0.773352
      3          6           0       -0.480528   -0.891543   -0.252161
      4          6           0        0.632719   -0.086490   -0.549835
      5          6           0        0.864471    1.085945    0.189109
      6          6           0       -0.018261    1.447067    1.221782
      7          6           0       -1.119084    0.642626    1.509459
      8          9           0       -1.992193    0.988440    2.521810
      9          1           0       -0.684086   -1.801554   -0.805729
     10          1           0        1.308021   -0.374524   -1.349224
     11          1           0        1.720987    1.714673   -0.032477
     12          1           0        0.135762    2.346061    1.808366
 ---------------------------------------------------------------------
                    Distance matrix (angstroms):
                    1          2          3          4          5
     1  F    0.000000
     2  C    1.380855   0.000000
     3  C    2.407658   1.393447   0.000000
     4  C    3.689381   2.423705   1.405717   0.000000
     5  C    4.180985   2.800199   2.431913   1.405115   0.000000
     6  C    3.676191   2.421721   2.802730   2.431913   1.405717
     7  C    2.400212   1.399721   2.421721   2.800199   2.423705
     8  F    2.753588   2.400212   3.676191   4.180985   3.689381
     9  H    2.623038   2.136744   1.084432   2.177362   3.424234
    10  H    4.565030   3.404828   2.160963   1.085366   2.167065
    11  H    5.266307   3.885550   3.418668   2.167065   1.085366
    12  H    4.535166   3.394604   3.886858   3.424234   2.177362
                    6          7          8          9         10
     6  C    0.000000
     7  C    1.393447   0.000000
     8  F    2.407658   1.380855   0.000000
     9  H    3.886858   3.394604   4.535166   0.000000
    10  H    3.418668   3.885550   5.266307   2.510038   0.000000
    11  H    2.160963   3.404828   4.565030   4.329682   2.503819
    12  H    1.084432   2.136744   2.623038   4.970750   4.329682
                   11         12
    11  H    0.000000
    12  H    2.510038   0.000000
 Stoichiometry    C6H4F2
 Framework group  C2V[SGV(C6H4F2)]
 Deg. of freedom    11
 Full point group                 C2V     NOp   4
 Largest Abelian subgroup         C2V     NOp   4
 Largest concise Abelian subgroup C2      NOp   2
                         Standard orientation:                         
 ---------------------------------------------------------------------
 Center     Atomic      Atomic             Coordinates (Angstroms)
 Number     Number       Type             X           Y           Z
 ---------------------------------------------------------------------
      1          9           0       -0.000000    1.376794    1.736915
      2          6           0       -0.000000    0.699861    0.533370
      3          6           0       -0.000000    1.401365   -0.670617
      4          6           0       -0.000000    0.702558   -1.890334
      5          6           0        0.000000   -0.702558   -1.890334
      6          6           0        0.000000   -1.401365   -0.670617
      7          6           0        0.000000   -0.699861    0.533370
      8          9           0        0.000000   -1.376794    1.736915
      9          1           0       -0.000000    2.485375   -0.640347
     10          1           0       -0.000000    1.251909   -2.826406
     11          1           0        0.000000   -1.251909   -2.826406
     12          1           0        0.000000   -2.485375   -0.640347
 ---------------------------------------------------------------------
 Rotational constants (GHZ):           3.1911601           2.1597113           1.2880116
 Standard basis: 3-21G (6D, 7F)
 There are    32 symmetry adapted cartesian basis functions of A1  symmetry.
 There are     8 symmetry adapted cartesian basis functions of A2  symmetry.
 There are     8 symmetry adapted cartesian basis functions of B1  symmetry.
 There are    32 symmetry adapted cartesian basis functions of B2  symmetry.
 There are    32 symmetry adapted basis functions of A1  symmetry.
 There are     8 symmetry adapted basis functions of A2  symmetry.
 There are     8 symmetry adapted basis functions of B1  symmetry.
 There are    32 symmetry adapted basis functions of B2  symmetry.
    80 basis functions,   132 primitive gaussians,    80 cartesian basis functions
    29 alpha electrons       29 beta electrons
       nuclear repulsion energy       343.1374853129 Hartrees.
 NAtoms=   12 NActive=   12 NUniq=    6 SFac= 4.00D+00 NAtFMM=   60 NAOKFM=F Big=F
 Integral buffers will be    131072 words long.
 Raffenetti 1 integral format.
 Two-electron integral symmetry is turned on.
 One-electron integrals computed using PRISM.
 NBasis=    80 RedAO= T EigKep=  1.99D-03  NBF=    32     8     8    32
 NBsUse=    80 1.00D-06 EigRej= -1.00D+00 NBFU=    32     8     8    32
 Initial guess from the checkpoint file:  "oDifluorobenzene.chk"
 B after Tr=    -0.000000    0.000000   -0.000000
         Rot=    0.707107   -0.707107   -0.000000    0.000000 Ang= -90.00 deg.
 Initial guess orbital symmetries:
       Occupied  (B2) (A1) (B2) (A1) (B2) (A1) (B2) (A1) (A1) (B2)
                 (A1) (B2) (A1) (A1) (B2) (A1) (A1) (B2) (B1) (A2)
                 (A1) (B2) (B2) (A1) (B2) (A1) (B1) (A2) (B1)
       Virtual   (B1) (A2) (A1) (B2) (A1) (B2) (A2) (A1) (B2) (B2)
                 (A1) (A1) (B2) (B2) (B2) (A1) (A1) (B1) (B2) (A1)
                 (B1) (A2) (B2) (A1) (B1) (A2) (A1) (A2) (B2) (A1)
                 (B2) (B2) (B2) (A1) (A1) (B2) (A1) (B2) (A1) (B2)
                 (B2) (A1) (B1) (A2) (A1) (B2) (A1) (B2) (B2) (A1)
                 (B2)
 Keep R1 ints in memory in symmetry-blocked form, NReq=6895637.
 Requested convergence on RMS density matrix=1.00D-08 within 128 cycles.
 Requested convergence on MAX density matrix=1.00D-06.
 Requested convergence on             energy=1.00D-06.
 No special actions if energy rises.
 SCF Done:  E(RHF) =  -426.053540951     A.U. after    1 cycles
            NFock=  1  Conv=0.59D-09     -V/T= 2.0039
 ExpMin= 1.83D-01 ExpMax= 4.14D+02 ExpMxC= 4.14D+02 IAcc=3 IRadAn=         5 AccDes= 0.00D+00
 HarFok:  IExCor=  205 AccDes= 0.00D+00 IRadAn=         5 IDoV=-2 UseB2=F ITyADJ=14
 ICtDFT= 12500011 ScaDFX=  1.000000  1.000000  1.000000  1.000000
 Range of M.O.s used for correlation:     9    80
 NBasis=    80 NAE=    29 NBE=    29 NFC=     8 NFV=     0
 NROrb=     72 NOA=    21 NOB=    21 NVA=    51 NVB=    51
 Disk-based method using ON**2 memory for 21 occupieds at a time.
 Permanent disk used for amplitudes=     2705091 words.
 Estimated scratch disk usage=    11271072 words.
 Actual    scratch disk usage=    10558368 words.
 JobTyp=1 Pass  1:  I=   9 to  29 NPSUse=  8 ParTrn=T ParDer=T DoDerP=T.
 (rs|ai) integrals will be sorted in core.
 Spin components of T(2) and E(2):
     alpha-alpha T2 =       0.3502605869D-01 E2=     -0.9835850482D-01
     alpha-beta  T2 =       0.1931940596D+00 E2=     -0.5574076410D+00
     beta-beta   T2 =       0.3502605869D-01 E2=     -0.9835850482D-01
 ANorm=    0.1123942248D+01
 E2 =    -0.7541246507D+00 EUMP2 =    -0.42680766560172D+03
 G2DrvN: will do    13 centers at a time, making    1 passes.
 Calling FoFCou, ICntrl=  3107 FMM=F I1Cent=   0 AccDes= 0.00D+00.
 End of G2Drv F.D. properties file   721 does not exist.
 End of G2Drv F.D. properties file   722 does not exist.
 End of G2Drv F.D. properties file   788 does not exist.
          IDoAtm=111111111111
          Differentiating once with respect to electric field.
                with respect to dipole field.
          Differentiating once with respect to nuclear coordinates.
 Keep R1 ints in memory in symmetry-blocked form, NReq=6895939.
          There are    39 degrees of freedom in the 1st order CPHF.  IDoFFX=6 NUNeed=    39.
     36 vectors produced by pass  0 Test12= 3.79D-15 2.56D-09 XBig12= 2.64D+01 3.13D+00.
 AX will form    36 AO Fock derivatives at one time.
     36 vectors produced by pass  1 Test12= 3.79D-15 2.56D-09 XBig12= 1.01D+00 2.30D-01.
     36 vectors produced by pass  2 Test12= 3.79D-15 2.56D-09 XBig12= 2.22D-02 3.63D-02.
     36 vectors produced by pass  3 Test12= 3.79D-15 2.56D-09 XBig12= 1.88D-04 2.25D-03.
     36 vectors produced by pass  4 Test12= 3.79D-15 2.56D-09 XBig12= 7.77D-07 2.03D-04.
     36 vectors produced by pass  5 Test12= 3.79D-15 2.56D-09 XBig12= 3.20D-09 1.18D-05.
     32 vectors produced by pass  6 Test12= 3.79D-15 2.56D-09 XBig12= 1.16D-11 5.99D-07.
      7 vectors produced by pass  7 Test12= 3.79D-15 2.56D-09 XBig12= 3.73D-14 3.61D-08.
      1 vectors produced by pass  8 Test12= 3.79D-15 2.56D-09 XBig12= 1.56D-16 2.63D-09.
 InvSVY:  IOpt=1 It=  1 EMax= 8.91D-16
 Solved reduced A of dimension   256 with    39 vectors.
 End of Minotr F.D. properties file   721 does not exist.
 End of Minotr F.D. properties file   722 does not exist.
 End of Minotr F.D. properties file   788 does not exist.
 MDV=  1073741824.
 Form MO integral derivatives with frozen-active canonical formalism.
 Discarding MO integrals.
 Reordered first order wavefunction length =      4374882
 In DefCFB: NBatch=  1 ICI= 29 ICA= 51 LFMax= 29
            Large arrays: LIAPS=    37862400 LIARS=     7454160 words.
 Semi-Direct transformation.
 ModeAB=           4 MOrb=            29 LenV=    1073518965
 LASXX=      5273911 LTotXX=     5273911 LenRXX=    10831906
 LTotAB=     5557995 MaxLAS=     3858160 LenRXY=           0
 NonZer=    16105817 LenScr=    24936448 LnRSAI=     3858160
 LnScr1=     6506496 LExtra=           0 Total=     46133010
 MaxDsk=          -1 SrtSym=           T ITran=            4
 JobTyp=0 Pass  1:  I=   1 to  29.
 (rs|ai) integrals will be sorted in core.
 Spin components of T(2) and E(2):
     alpha-alpha T2 =       0.3502605869D-01 E2=     -0.9835850482D-01
     alpha-beta  T2 =       0.1931940596D+00 E2=     -0.5574076410D+00
     beta-beta   T2 =       0.3502605869D-01 E2=     -0.9835850482D-01
 ANorm=    0.1589494371D+01
 E2 =    -0.7541246507D+00 EUMP2 =    -0.42680766560172D+03
          IDoAtm=111111111111
          Differentiating once with respect to electric field.
                with respect to dipole field.
          Differentiating once with respect to nuclear coordinates.
          There are     1 degrees of freedom in the 1st order CPHF.  IDoFFX=0 NUNeed=     1.
 LinEq1:  Iter=  0 NonCon=     1 RMS=6.31D-03 Max=9.26D-02 NDo=     1
 LinEq1:  Iter=  1 NonCon=     1 RMS=1.91D-03 Max=2.37D-02 NDo=     1
 LinEq1:  Iter=  2 NonCon=     1 RMS=4.31D-04 Max=4.66D-03 NDo=     1
 LinEq1:  Iter=  3 NonCon=     1 RMS=1.84D-04 Max=2.10D-03 NDo=     1
 LinEq1:  Iter=  4 NonCon=     1 RMS=4.19D-05 Max=5.33D-04 NDo=     1
 LinEq1:  Iter=  5 NonCon=     1 RMS=2.11D-05 Max=4.55D-04 NDo=     1
 LinEq1:  Iter=  6 NonCon=     1 RMS=3.40D-06 Max=6.33D-05 NDo=     1
 LinEq1:  Iter=  7 NonCon=     1 RMS=7.21D-07 Max=1.47D-05 NDo=     1
 LinEq1:  Iter=  8 NonCon=     1 RMS=2.05D-07 Max=3.11D-06 NDo=     1
 LinEq1:  Iter=  9 NonCon=     1 RMS=6.30D-08 Max=6.35D-07 NDo=     1
 LinEq1:  Iter= 10 NonCon=     1 RMS=7.59D-09 Max=7.48D-08 NDo=     1
 LinEq1:  Iter= 11 NonCon=     1 RMS=1.08D-09 Max=9.70D-09 NDo=     1
 LinEq1:  Iter= 12 NonCon=     1 RMS=1.37D-10 Max=1.41D-09 NDo=     1
 LinEq1:  Iter= 13 NonCon=     0 RMS=1.49D-11 Max=1.35D-10 NDo=     1
 Linear equations converged to 1.000D-10 1.000D-09 after    13 iterations.
 End of Minotr F.D. properties file   721 does not exist.
 End of Minotr F.D. properties file   722 does not exist.
 End of Minotr F.D. properties file   788 does not exist.
 Symmetrizing basis deriv contribution to polar:
 IMax=3 JMax=2 DiffMx= 0.00D+00
 G2DrvN: will do    13 centers at a time, making    1 passes.
 Calling FoFCou, ICntrl=  3107 FMM=F I1Cent=   0 AccDes= 0.00D+00.
 End of G2Drv F.D. properties file   721 does not exist.
 End of G2Drv F.D. properties file   722 does not exist.
 End of G2Drv F.D. properties file   788 does not exist.
 R2 and R3 integrals will be kept in memory, NReq=    11300840.
 DD1Dir will call FoFMem   1 times, MxPair=       870
 NAB=   435 NAA=     0 NBB=     0.
 Discarding MO integrals.

 **********************************************************************

            Population analysis using the SCF Density.

 **********************************************************************

 Orbital symmetries:
       Occupied  (B2) (A1) (B2) (A1) (B2) (A1) (B2) (A1) (A1) (B2)
                 (A1) (B2) (A1) (A1) (B2) (A1) (A1) (B2) (B1) (A2)
                 (A1) (B2) (B2) (A1) (B2) (A1) (B1) (A2) (B1)
       Virtual   (B1) (A2) (A1) (B2) (A1) (B2) (A2) (A1) (B2) (B2)
                 (A1) (A1) (B2) (B2) (B2) (A1) (A1) (B1) (B2) (A1)
                 (B1) (A2) (B2) (A1) (B1) (A2) (A1) (A2) (B2) (A1)
                 (B2) (B2) (B2) (A1) (A1) (B2) (A1) (B2) (A1) (B2)
                 (B2) (A1) (B1) (A2) (A1) (B2) (A1) (B2) (B2) (A1)
                 (B2)
 The electronic state is 1-A1.
 Alpha  occ. eigenvalues --  -26.18091 -26.18002 -11.29946 -11.29887 -11.21700
 Alpha  occ. eigenvalues --  -11.21685 -11.21545 -11.21494  -1.61021  -1.59763
 Alpha  occ. eigenvalues --   -1.18545  -1.04789  -1.03853  -0.87776  -0.85310
 Alpha  occ. eigenvalues --   -0.75060  -0.72275  -0.71038  -0.68980  -0.66069
 Alpha  occ. eigenvalues --   -0.65824  -0.64131  -0.63370  -0.59207  -0.55067
 Alpha  occ. eigenvalues --   -0.52822  -0.51967  -0.36863  -0.35612
 Alpha virt. eigenvalues --    0.11636   0.12586   0.22492   0.30383   0.30514
 Alpha virt. eigenvalues --    0.34189   0.34815   0.35036   0.40552   0.48338
 Alpha virt. eigenvalues --    0.49983   0.54219   0.54916   0.79814   0.81497
 Alpha virt. eigenvalues --    0.89469   0.90590   0.91003   0.99450   0.99603
 Alpha virt. eigenvalues --    1.01413   1.01797   1.03252   1.04687   1.07301
 Alpha virt. eigenvalues --    1.07546   1.10542   1.16673   1.23782   1.30823
 Alpha virt. eigenvalues --    1.31789   1.36904   1.42475   1.44996   1.52130
 Alpha virt. eigenvalues --    1.63799   1.66218   1.69436   1.74566   1.76036
 Alpha virt. eigenvalues --    2.07999   2.10023   2.26535   2.34378   2.44937
 Alpha virt. eigenvalues --    2.45779   2.53461   2.58730   2.63439   4.08321
 Alpha virt. eigenvalues --    4.54674
          Condensed to atoms (all electrons):
               1          2          3          4          5          6
     1  F    9.208076   0.275732  -0.049846   0.001736  -0.000156   0.001795
     2  C    0.275732   5.137896   0.292182  -0.064915  -0.001713  -0.109946
     3  C   -0.049846   0.292182   5.487360   0.383294  -0.102586   0.008334
     4  C    0.001736  -0.064915   0.383294   5.224527   0.455129  -0.102586
     5  C   -0.000156  -0.001713  -0.102586   0.455129   5.224527   0.383294
     6  C    0.001795  -0.109946   0.008334  -0.102586   0.383294   5.487360
     7  C   -0.050255   0.203469  -0.109946  -0.001713  -0.064915   0.292182
     8  F   -0.000185  -0.050255   0.001795  -0.000156   0.001736  -0.049846
     9  H   -0.001663  -0.038169   0.389808  -0.026049   0.002045  -0.000225
    10  H   -0.000000   0.001848  -0.029486   0.395194  -0.028693   0.002209
    11  H   -0.000000  -0.000117   0.002209  -0.028693   0.395194  -0.029486
    12  H   -0.000000   0.002691  -0.000225   0.002045  -0.026049   0.389808
               7          8          9         10         11         12
     1  F   -0.050255  -0.000185  -0.001663  -0.000000  -0.000000  -0.000000
     2  C    0.203469  -0.050255  -0.038169   0.001848  -0.000117   0.002691
     3  C   -0.109946   0.001795   0.389808  -0.029486   0.002209  -0.000225
     4  C   -0.001713  -0.000156  -0.026049   0.395194  -0.028693   0.002045
     5  C   -0.064915   0.001736   0.002045  -0.028693   0.395194  -0.026049
     6  C    0.292182  -0.049846  -0.000225   0.002209  -0.029486   0.389808
     7  C    5.137896   0.275732   0.002691  -0.000117   0.001848  -0.038169
     8  F    0.275732   9.208076  -0.000000  -0.000000  -0.000000  -0.001663
     9  H    0.002691  -0.000000   0.388622  -0.001274  -0.000023   0.000000
    10  H   -0.000117  -0.000000  -0.001274   0.400919  -0.000977  -0.000023
    11  H    0.001848  -0.000000  -0.000023  -0.000977   0.400919  -0.001274
    12  H   -0.038169  -0.001663   0.000000  -0.000023  -0.001274   0.388622
 Mulliken charges:
               1
     1  F   -0.385234
     2  C    0.351297
     3  C   -0.272892
     4  C   -0.237810
     5  C   -0.237810
     6  C   -0.272892
     7  C    0.351297
     8  F   -0.385234
     9  H    0.284237
    10  H    0.260403
    11  H    0.260403
    12  H    0.284237
 Sum of Mulliken charges =   0.00000
 Mulliken charges with hydrogens summed into heavy atoms:
               1
     1  F   -0.385234
     2  C    0.351297
     3  C    0.011345
     4  C    0.022592
     5  C    0.022592
     6  C    0.011345
     7  C    0.351297
     8  F   -0.385234
 APT charges:
               1
     1  F   -0.412505
     2  C    0.409650
     3  C   -0.092680
     4  C   -0.043049
     5  C   -0.043049
     6  C   -0.092680
     7  C    0.409650
     8  F   -0.412505
     9  H    0.083609
    10  H    0.054974
    11  H    0.054974
    12  H    0.083609
 Sum of APT charges =   0.00000
 APT charges with hydrogens summed into heavy atoms:
               1
     1  F   -0.412505
     2  C    0.409650
     3  C   -0.009071
     4  C    0.011925
     5  C    0.011925
     6  C   -0.009071
     7  C    0.409650
     8  F   -0.412505
 Electronic spatial extent (au):  <R**2>=            841.5439
 Charge=             -0.0000 electrons
 Dipole moment (field-independent basis, Debye):
    X=              0.0000    Y=              0.0000    Z=             -3.7270  Tot=              3.7270
 Quadrupole moment (field-independent basis, Debye-Ang):
   XX=            -47.8273   YY=            -40.7862   ZZ=            -45.3430
   XY=              0.0000   XZ=             -0.0000   YZ=             -0.0000
 Traceless Quadrupole moment (field-independent basis, Debye-Ang):
   XX=             -3.1751   YY=              3.8659   ZZ=             -0.6908
   XY=              0.0000   XZ=             -0.0000   YZ=             -0.0000
 Octapole moment (field-independent basis, Debye-Ang**2):
  XXX=             -0.0000  YYY=              0.0000  ZZZ=              2.0398  XYY=             -0.0000
  XXY=             -0.0000  XXZ=             15.0359  XZZ=             -0.0000  YZZ=             -0.0000
  YYZ=             -3.7598  XYZ=              0.0000
 Hexadecapole moment (field-independent basis, Debye-Ang**3):
 XXXX=            -45.7243 YYYY=           -348.3049 ZZZZ=           -511.9125 XXXY=              0.0000
 XXXZ=              0.0000 YYYX=              0.0000 YYYZ=             -0.0000 ZZZX=             -0.0000
 ZZZY=             -0.0000 XXYY=            -77.9528 XXZZ=           -105.8933 YYZZ=           -156.6056
 XXYZ=             -0.0000 YYXZ=             -0.0000 ZZXY=              0.0000
 N-N= 3.431374853129D+02 E-N=-1.689933741595D+03  KE= 4.243855306179D+02
 Symmetry A1   KE= 2.053525005486D+02
 Symmetry A2   KE= 8.286002607175D+00
 Symmetry B1   KE= 1.043360087532D+01
 Symmetry B2   KE= 2.003134265868D+02
  Exact polarizability:      15.088      -0.000      65.442      -0.000      -0.000      68.364
 Approx polarizability:      14.217      -0.000      64.462      -0.000       0.000      68.336
 Calling FoFJK, ICntrl=  10100127 FMM=F ISym2X=1 I1Cent= 0 IOpClX= 0 NMat=1 NMatS=1 NMatT=0.
 Full mass-weighted force constant matrix:
 Low frequencies ---   -2.7303   -1.7781   -0.5887   -0.0006    0.0009    0.0011
 Low frequencies ---  193.7443  273.7804  307.7582
 Diagonal vibrational polarizability:
        5.4034960       1.5507133       3.6385143
 Harmonic frequencies (cm**-1), IR intensities (KM/Mole), Raman scattering
 activities (A**4/AMU), depolarization ratios for plane and unpolarized
 incident light, reduced masses (AMU), force constants (mDyne/A),
 and normal coordinates:
                           1         2         3         4         5
                          A2        A1        B1        B2        B1
       Frequencies ---   193.7443  273.7804  307.7581  439.7690  486.0004
    Reduced masses ---     6.1896   17.6180    5.3524    6.8200    3.0622
   Force constants ---     0.1369    0.7781    0.2987    0.7771    0.4261
    IR Intensities ---     0.0000    0.5555    0.0337    0.6991    2.7418
 Coord Atom Element:
   1     1     9          0.28392   0.00000  -0.16634  -0.00000  -0.04413
   2     1     9         -0.00000   0.63892   0.00000  -0.05166   0.00000
   3     1     9          0.00000  -0.17660  -0.00000   0.28884  -0.00000
   1     2     6          0.00122  -0.00000   0.25383   0.00000   0.22474
   2     2     6         -0.00000   0.02365  -0.00000   0.24996  -0.00000
   3     2     6         -0.00000   0.15018   0.00000   0.06115  -0.00000
   1     3     6         -0.25172  -0.00000   0.22698  -0.00000  -0.18269
   2     3     6          0.00000  -0.08189  -0.00000   0.05693   0.00000
   3     3     6         -0.00000   0.06080   0.00000  -0.10430   0.00000
   1     4     6         -0.20101   0.00000  -0.19074   0.00000   0.07984
   2     4     6          0.00000  -0.00156  -0.00000  -0.20619   0.00000
   3     4     6         -0.00000   0.05357   0.00000  -0.02478   0.00000
   1     5     6          0.20101   0.00000  -0.19074   0.00000   0.07984
   2     5     6         -0.00000   0.00156  -0.00000  -0.20619   0.00000
   3     5     6         -0.00000   0.05357  -0.00000   0.02478   0.00000
   1     6     6          0.25172  -0.00000   0.22698  -0.00000  -0.18269
   2     6     6         -0.00000   0.08189   0.00000   0.05693  -0.00000
   3     6     6         -0.00000   0.06080  -0.00000   0.10430  -0.00000
   1     7     6         -0.00122  -0.00000   0.25383   0.00000   0.22474
   2     7     6         -0.00000  -0.02365  -0.00000   0.24996  -0.00000
   3     7     6          0.00000   0.15018   0.00000  -0.06115  -0.00000
   1     8     9         -0.28392   0.00000  -0.16634  -0.00000  -0.04413
   2     8     9          0.00000  -0.63892  -0.00000  -0.05166   0.00000
   3     8     9          0.00000  -0.17660  -0.00000  -0.28884   0.00000
   1     9     1         -0.40763  -0.00000   0.20790  -0.00000  -0.63831
   2     9     1          0.00000  -0.08209  -0.00000   0.06811   0.00000
   3     9     1         -0.00000   0.10893   0.00000  -0.44021   0.00000
   1    10     1         -0.38659   0.00000  -0.52609  -0.00000   0.01874
   2    10     1          0.00000   0.02582   0.00000  -0.29332   0.00000
   3    10     1         -0.00000   0.07027   0.00000  -0.07731   0.00000
   1    11     1          0.38659   0.00000  -0.52609   0.00000   0.01874
   2    11     1         -0.00000  -0.02582   0.00000  -0.29332   0.00000
   3    11     1         -0.00000   0.07027   0.00000   0.07731   0.00000
   1    12     1          0.40763   0.00000   0.20790  -0.00000  -0.63831
   2    12     1         -0.00000   0.08209  -0.00000   0.06811   0.00000
   3    12     1         -0.00000   0.10893  -0.00000   0.44021  -0.00000
                           6         7         8         9        10
                          B2        A2        A1        A2        A1
       Frequencies ---   549.2351  574.5605  599.4031  710.4029  769.9264
    Reduced masses ---     8.5192    4.3438    8.4015    6.4299    6.1346
   Force constants ---     1.5141    0.8449    1.7785    1.9119    2.1426
    IR Intensities ---     2.5809    0.0000    3.7245    0.0000   17.6637
 Coord Atom Element:
   1     1     9         -0.00000   0.06443   0.00000  -0.04410  -0.00000
   2     1     9          0.24952   0.00000  -0.05129  -0.00000   0.10042
   3     1     9          0.11986   0.00000  -0.24062  -0.00000   0.17644
   1     2     6          0.00000  -0.19668  -0.00000   0.41897   0.00000
   2     2     6         -0.07121   0.00000  -0.00082  -0.00000   0.14559
   3     2     6          0.21882   0.00000  -0.14335   0.00000  -0.07021
   1     3     6          0.00000  -0.16679  -0.00000  -0.16361  -0.00000
   2     3     6         -0.19201  -0.00000   0.26660  -0.00000   0.34593
   3     3     6          0.25339   0.00000   0.13005   0.00000  -0.13345
   1     4     6         -0.00000   0.28008   0.00000   0.20286   0.00000
   2     4     6         -0.12438  -0.00000   0.01420  -0.00000   0.03057
   3     4     6          0.21624  -0.00000   0.35849   0.00000  -0.03477
   1     5     6          0.00000  -0.28008  -0.00000  -0.20286  -0.00000
   2     5     6         -0.12438   0.00000  -0.01420   0.00000  -0.03057
   3     5     6         -0.21624  -0.00000   0.35849   0.00000  -0.03477
   1     6     6         -0.00000   0.16679   0.00000   0.16361  -0.00000
   2     6     6         -0.19201   0.00000  -0.26660   0.00000  -0.34593
   3     6     6         -0.25339  -0.00000   0.13005   0.00000  -0.13345
   1     7     6         -0.00000   0.19668   0.00000  -0.41897  -0.00000
   2     7     6         -0.07121  -0.00000   0.00082   0.00000  -0.14559
   3     7     6         -0.21882  -0.00000  -0.14335   0.00000  -0.07021
   1     8     9          0.00000  -0.06443  -0.00000   0.04410   0.00000
   2     8     9          0.24952   0.00000   0.05129   0.00000  -0.10042
   3     8     9         -0.11986   0.00000  -0.24062  -0.00000   0.17644
   1     9     1          0.00000  -0.12773   0.00000  -0.50177  -0.00000
   2     9     1         -0.19297  -0.00000   0.25929  -0.00000   0.36061
   3     9     1          0.18822  -0.00000   0.19212   0.00000  -0.31947
   1    10     1         -0.00000   0.57843   0.00000  -0.05323   0.00000
   2    10     1          0.10430   0.00000  -0.20873   0.00000  -0.18119
   3    10     1          0.35153   0.00000   0.23348   0.00000  -0.16764
   1    11     1          0.00000  -0.57843  -0.00000   0.05323   0.00000
   2    11     1          0.10430  -0.00000   0.20873  -0.00000   0.18119
   3    11     1         -0.35153  -0.00000   0.23348   0.00000  -0.16764
   1    12     1         -0.00000   0.12773   0.00000   0.50177   0.00000
   2    12     1         -0.19297   0.00000  -0.25929   0.00000  -0.36061
   3    12     1         -0.18822  -0.00000   0.19212   0.00000  -0.31947
                          11        12        13        14        15
                          B1        A2        B2        A2        B1
       Frequencies ---   782.5829  873.9484  891.3749  940.9344  945.8495
    Reduced masses ---     1.2470    1.3427    6.3191    1.1961    1.3776
   Force constants ---     0.4500    0.6042    2.9582    0.6239    0.7261
    IR Intensities ---   104.5871    0.0000   12.1059    0.0000   16.1513
 Coord Atom Element:
   1     1     9         -0.01233  -0.00950   0.00000  -0.00005  -0.00745
   2     1     9         -0.00000  -0.00000  -0.10103   0.00000  -0.00000
   3     1     9         -0.00000   0.00000  -0.16110   0.00000  -0.00000
   1     2     6          0.05763   0.04920   0.00000   0.02601   0.03449
   2     2     6         -0.00000  -0.00000   0.13885  -0.00000   0.00000
   3     2     6          0.00000  -0.00000  -0.02733   0.00000   0.00000
   1     3     6         -0.04310  -0.10134   0.00000   0.03120  -0.10761
   2     3     6         -0.00000   0.00000   0.16927   0.00000   0.00000
   3     3     6          0.00000  -0.00000   0.09619  -0.00000   0.00000
   1     4     6         -0.07383  -0.04893   0.00000  -0.08314   0.06293
   2     4     6          0.00000   0.00000  -0.16618   0.00000  -0.00000
   3     4     6          0.00000   0.00000   0.31123  -0.00000   0.00000
   1     5     6         -0.07383   0.04893  -0.00000   0.08314   0.06293
   2     5     6          0.00000  -0.00000  -0.16618  -0.00000  -0.00000
   3     5     6          0.00000  -0.00000  -0.31123   0.00000  -0.00000
   1     6     6         -0.04310   0.10134  -0.00000  -0.03120  -0.10761
   2     6     6          0.00000  -0.00000   0.16927  -0.00000   0.00000
   3     6     6          0.00000  -0.00000  -0.09619  -0.00000  -0.00000
   1     7     6          0.05763  -0.04920   0.00000  -0.02601   0.03449
   2     7     6          0.00000   0.00000   0.13885   0.00000  -0.00000
   3     7     6          0.00000  -0.00000   0.02733   0.00000  -0.00000
   1     8     9         -0.01233   0.00950   0.00000   0.00005  -0.00745
   2     8     9          0.00000  -0.00000  -0.10103   0.00000  -0.00000
   3     8     9         -0.00000   0.00000   0.16110  -0.00000   0.00000
   1     9     1          0.31294   0.63172  -0.00000  -0.32835   0.60466
   2     9     1         -0.00000  -0.00000   0.17545   0.00000  -0.00000
   3     9     1          0.00000  -0.00000  -0.24346   0.00000   0.00000
   1    10     1          0.62553   0.29285   0.00000   0.61937  -0.34294
   2    10     1          0.00000   0.00000   0.03900   0.00000  -0.00000
   3    10     1          0.00000   0.00000   0.43572   0.00000  -0.00000
   1    11     1          0.62553  -0.29285   0.00000  -0.61937  -0.34294
   2    11     1         -0.00000  -0.00000   0.03900  -0.00000  -0.00000
   3    11     1         -0.00000   0.00000  -0.43572   0.00000   0.00000
   1    12     1          0.31294  -0.63172  -0.00000   0.32835   0.60466
   2    12     1         -0.00000   0.00000   0.17545  -0.00000  -0.00000
   3    12     1          0.00000  -0.00000   0.24346   0.00000   0.00000
                          16        17        18        19        20
                          A1        B2        A1        B2        A1
       Frequencies ---  1045.8160 1142.1605 1233.4181 1258.9760 1320.1777
    Reduced masses ---     2.2916    2.1414    1.1683    3.1437    4.2983
   Force constants ---     1.4768    1.6459    1.0472    2.9358    4.4138
    IR Intensities ---     5.0709   14.5910    0.0126   17.6069   37.6485
 Coord Atom Element:
   1     1     9         -0.00000   0.00000  -0.00000   0.00000  -0.00000
   2     1     9         -0.00312   0.02605  -0.00264  -0.05398  -0.04177
   3     1     9         -0.01733   0.01682  -0.00582  -0.07830  -0.08889
   1     2     6         -0.00000   0.00000  -0.00000  -0.00000   0.00000
   2     2     6         -0.03006  -0.10494   0.00068   0.20233   0.17663
   3     2     6          0.01999   0.00321   0.01140   0.11444   0.13173
   1     3     6          0.00000   0.00000  -0.00000   0.00000  -0.00000
   2     3     6          0.09167   0.16862   0.00176  -0.08251   0.06507
   3     3     6          0.09792   0.05664  -0.02533   0.10951   0.20833
   1     4     6          0.00000  -0.00000   0.00000  -0.00000  -0.00000
   2     4     6          0.14342  -0.08126   0.07536  -0.00894  -0.13001
   3     4     6         -0.13426  -0.02686   0.02794  -0.09715  -0.14421
   1     5     6         -0.00000  -0.00000  -0.00000  -0.00000   0.00000
   2     5     6         -0.14342  -0.08126  -0.07536  -0.00894   0.13001
   3     5     6         -0.13426   0.02686   0.02794   0.09715  -0.14421
   1     6     6          0.00000   0.00000  -0.00000  -0.00000  -0.00000
   2     6     6         -0.09167   0.16862  -0.00176  -0.08251  -0.06507
   3     6     6          0.09792  -0.05664  -0.02533  -0.10951   0.20833
   1     7     6          0.00000  -0.00000   0.00000   0.00000  -0.00000
   2     7     6          0.03006  -0.10494  -0.00068   0.20233  -0.17663
   3     7     6          0.01999  -0.00321   0.01140  -0.11444   0.13173
   1     8     9          0.00000   0.00000   0.00000  -0.00000   0.00000
   2     8     9          0.00312   0.02605   0.00264  -0.05398   0.04177
   3     8     9         -0.01733  -0.01682  -0.00582   0.07830  -0.08889
   1     9     1         -0.00000  -0.00000   0.00000  -0.00000   0.00000
   2     9     1          0.09140   0.17182   0.00821  -0.08960   0.09379
   3     9     1          0.58221   0.38977  -0.35071   0.55389  -0.58502
   1    10     1         -0.00000   0.00000  -0.00000   0.00000   0.00000
   2    10     1          0.30127  -0.45369   0.53239  -0.21321   0.01863
   3    10     1         -0.06094  -0.24854   0.29362  -0.21981  -0.07125
   1    11     1          0.00000   0.00000   0.00000   0.00000  -0.00000
   2    11     1         -0.30127  -0.45369  -0.53239  -0.21321  -0.01863
   3    11     1         -0.06094   0.24854   0.29362   0.21981  -0.07125
   1    12     1         -0.00000   0.00000   0.00000   0.00000  -0.00000
   2    12     1         -0.09140   0.17182  -0.00821  -0.08960  -0.09379
   3    12     1          0.58221  -0.38977  -0.35071  -0.55389  -0.58502
                          21        22        23        24        25
                          B2        A1        B2        A1        A1
       Frequencies ---  1321.9033 1336.8962 1504.0220 1556.6763 1610.0352
    Reduced masses ---     1.7499    3.7258    1.8737    2.7331    7.0124
   Force constants ---     1.8016    3.9234    2.4972    3.9021   10.7099
    IR Intensities ---     3.7246   15.7323    9.3715  106.9346   20.1247
 Coord Atom Element:
   1     1     9         -0.00000  -0.00000   0.00000   0.00000  -0.00000
   2     1     9          0.00994  -0.03495  -0.00267   0.02841  -0.03258
   3     1     9          0.04259  -0.06580  -0.01849   0.03840  -0.02803
   1     2     6          0.00000  -0.00000  -0.00000   0.00000   0.00000
   2     2     6          0.03780  -0.13620  -0.02733  -0.09821   0.39294
   3     2     6         -0.15115   0.24938   0.09326  -0.14164   0.00571
   1     3     6         -0.00000   0.00000   0.00000  -0.00000  -0.00000
   2     3     6         -0.02780   0.06278   0.07125  -0.04158  -0.15606
   3     3     6         -0.05031  -0.10667  -0.01492   0.16245  -0.03972
   1     4     6          0.00000   0.00000   0.00000   0.00000   0.00000
   2     4     6         -0.03857   0.13512  -0.09786   0.12920   0.28622
   3     4     6          0.03945   0.01506  -0.12040  -0.01492   0.08840
   1     5     6          0.00000  -0.00000  -0.00000  -0.00000  -0.00000
   2     5     6         -0.03857  -0.13512  -0.09786  -0.12920  -0.28622
   3     5     6         -0.03945   0.01506   0.12040  -0.01492   0.08840
   1     6     6         -0.00000  -0.00000   0.00000   0.00000   0.00000
   2     6     6         -0.02780  -0.06278   0.07125   0.04158   0.15606
   3     6     6          0.05031  -0.10667   0.01492   0.16245  -0.03972
   1     7     6          0.00000   0.00000  -0.00000  -0.00000  -0.00000
   2     7     6          0.03780   0.13620  -0.02733   0.09821  -0.39294
   3     7     6          0.15115   0.24938  -0.09326  -0.14164   0.00571
   1     8     9          0.00000   0.00000   0.00000  -0.00000   0.00000
   2     8     9          0.00994   0.03495  -0.00267  -0.02841   0.03258
   3     8     9         -0.04259  -0.06580   0.01849   0.03840  -0.02803
   1     9     1         -0.00000   0.00000   0.00000   0.00000  -0.00000
   2     9     1         -0.04645   0.07943   0.08640  -0.04232  -0.17320
   3     9     1          0.62574  -0.31780   0.08512  -0.52827   0.15589
   1    10     1         -0.00000  -0.00000  -0.00000   0.00000  -0.00000
   2    10     1          0.19915  -0.41236   0.60618  -0.26725  -0.31308
   3    10     1          0.18464  -0.32025   0.28048  -0.26589  -0.27519
   1    11     1         -0.00000  -0.00000  -0.00000  -0.00000   0.00000
   2    11     1          0.19915   0.41236   0.60618   0.26725   0.31308
   3    11     1         -0.18464  -0.32025  -0.28048  -0.26589  -0.27519
   1    12     1          0.00000  -0.00000   0.00000   0.00000   0.00000
   2    12     1         -0.04645  -0.07943   0.08640   0.04232   0.17320
   3    12     1         -0.62574  -0.31780  -0.08512  -0.52827   0.15589
                          26        27        28        29        30
                          B2        B2        A1        B2        A1
       Frequencies ---  1624.5221 3210.6711 3225.3326 3238.8897 3244.3450
    Reduced masses ---     5.7476    1.0880    1.0911    1.0925    1.0966
   Force constants ---     8.9369    6.6082    6.6877    6.7523    6.8010
    IR Intensities ---     3.7158    1.1355    6.5425    1.3734    0.6341
 Coord Atom Element:
   1     1     9         -0.00000  -0.00000  -0.00000   0.00000  -0.00000
   2     1     9          0.01145   0.00001   0.00006   0.00005   0.00013
   3     1     9          0.03024  -0.00001   0.00011   0.00025   0.00032
   1     2     6          0.00000   0.00000  -0.00000  -0.00000  -0.00000
   2     2     6          0.03472   0.00001   0.00004   0.00089  -0.00002
   3     2     6         -0.26541  -0.00027  -0.00097  -0.00252  -0.00285
   1     3     6         -0.00000   0.00000  -0.00000  -0.00000  -0.00000
   2     3     6         -0.00991  -0.01676  -0.03322  -0.05924  -0.05226
   3     3     6          0.33206   0.00118   0.00154  -0.00107  -0.00169
   1     4     6          0.00000   0.00000   0.00000  -0.00000  -0.00000
   2     4     6         -0.05997   0.02836   0.02834  -0.00666  -0.01798
   3     4     6         -0.16815  -0.05061  -0.04335   0.01695   0.03122
   1     5     6         -0.00000   0.00000  -0.00000  -0.00000   0.00000
   2     5     6         -0.05997   0.02836  -0.02834  -0.00666   0.01798
   3     5     6          0.16815   0.05061  -0.04335  -0.01695   0.03122
   1     6     6         -0.00000   0.00000   0.00000  -0.00000   0.00000
   2     6     6         -0.00991  -0.01676   0.03322  -0.05924   0.05226
   3     6     6         -0.33206  -0.00118   0.00154   0.00107  -0.00169
   1     7     6          0.00000  -0.00000   0.00000  -0.00000   0.00000
   2     7     6          0.03472   0.00001  -0.00004   0.00089   0.00002
   3     7     6          0.26541   0.00027  -0.00097   0.00252  -0.00285
   1     8     9         -0.00000  -0.00000   0.00000  -0.00000   0.00000
   2     8     9          0.01145   0.00001  -0.00006   0.00005  -0.00013
   3     8     9         -0.03024   0.00001   0.00011  -0.00025   0.00032
   1     9     1          0.00000   0.00000   0.00000   0.00000   0.00000
   2     9     1         -0.00219   0.20121   0.39111   0.67519   0.58678
   3     9     1         -0.49202   0.00118   0.00380   0.01226   0.01205
   1    10     1          0.00000  -0.00000  -0.00000   0.00000   0.00000
   2    10     1          0.20504  -0.33971  -0.29945   0.09800   0.19681
   3    10     1         -0.03070   0.58349   0.50354  -0.17469  -0.33581
   1    11     1          0.00000  -0.00000   0.00000   0.00000  -0.00000
   2    11     1          0.20504  -0.33971   0.29945   0.09800  -0.19681
   3    11     1          0.03070  -0.58349   0.50354   0.17469  -0.33581
   1    12     1         -0.00000   0.00000  -0.00000   0.00000  -0.00000
   2    12     1         -0.00219   0.20121  -0.39111   0.67519  -0.58678
   3    12     1          0.49202  -0.00118   0.00380  -0.01226   0.01205
 Harmonic frequencies (cm**-1), IR intensities (KM/Mole), Raman scattering
 activities (A**4/AMU), depolarization ratios for plane and unpolarized
 incident light, reduced masses (AMU), force constants (mDyne/A),
 and normal coordinates:
                      1                      2                      3
                     A2                     A1                     B1
 Frequencies --    193.7443               273.7804               307.7581
 Red. masses --      6.1896                17.6180                 5.3524
 Frc consts  --      0.1369                 0.7781                 0.2987
 IR Inten    --      0.0000                 0.5555                 0.0337
  Atom  AN      X      Y      Z        X      Y      Z        X      Y      Z
     1   9     0.28  -0.00   0.00     0.00   0.64  -0.18    -0.17   0.00  -0.00
     2   6     0.00  -0.00  -0.00    -0.00   0.02   0.15     0.25  -0.00   0.00
     3   6    -0.25   0.00  -0.00    -0.00  -0.08   0.06     0.23  -0.00   0.00
     4   6    -0.20   0.00  -0.00     0.00  -0.00   0.05    -0.19  -0.00   0.00
     5   6     0.20  -0.00  -0.00     0.00   0.00   0.05    -0.19  -0.00  -0.00
     6   6     0.25  -0.00  -0.00    -0.00   0.08   0.06     0.23   0.00  -0.00
     7   6    -0.00  -0.00   0.00    -0.00  -0.02   0.15     0.25  -0.00   0.00
     8   9    -0.28   0.00   0.00     0.00  -0.64  -0.18    -0.17  -0.00  -0.00
     9   1    -0.41   0.00  -0.00    -0.00  -0.08   0.11     0.21  -0.00   0.00
    10   1    -0.39   0.00  -0.00     0.00   0.03   0.07    -0.53   0.00   0.00
    11   1     0.39  -0.00  -0.00     0.00  -0.03   0.07    -0.53   0.00   0.00
    12   1     0.41  -0.00  -0.00     0.00   0.08   0.11     0.21  -0.00  -0.00
                      4                      5                      6
                     B2                     B1                     B2
 Frequencies --    439.7690               486.0004               549.2351
 Red. masses --      6.8200                 3.0622                 8.5192
 Frc consts  --      0.7771                 0.4261                 1.5141
 IR Inten    --      0.6991                 2.7418                 2.5809
  Atom  AN      X      Y      Z        X      Y      Z        X      Y      Z
     1   9    -0.00  -0.05   0.29    -0.04   0.00  -0.00    -0.00   0.25   0.12
     2   6     0.00   0.25   0.06     0.22  -0.00  -0.00     0.00  -0.07   0.22
     3   6    -0.00   0.06  -0.10    -0.18   0.00   0.00     0.00  -0.19   0.25
     4   6     0.00  -0.21  -0.02     0.08   0.00   0.00    -0.00  -0.12   0.22
     5   6     0.00  -0.21   0.02     0.08   0.00   0.00     0.00  -0.12  -0.22
     6   6    -0.00   0.06   0.10    -0.18  -0.00  -0.00    -0.00  -0.19  -0.25
     7   6     0.00   0.25  -0.06     0.22  -0.00  -0.00    -0.00  -0.07  -0.22
     8   9    -0.00  -0.05  -0.29    -0.04   0.00   0.00     0.00   0.25  -0.12
     9   1    -0.00   0.07  -0.44    -0.64   0.00   0.00     0.00  -0.19   0.19
    10   1    -0.00  -0.29  -0.08     0.02   0.00   0.00    -0.00   0.10   0.35
    11   1     0.00  -0.29   0.08     0.02   0.00   0.00     0.00   0.10  -0.35
    12   1    -0.00   0.07   0.44    -0.64   0.00  -0.00    -0.00  -0.19  -0.19
                      7                      8                      9
                     A2                     A1                     A2
 Frequencies --    574.5605               599.4031               710.4029
 Red. masses --      4.3438                 8.4015                 6.4299
 Frc consts  --      0.8449                 1.7785                 1.9119
 IR Inten    --      0.0000                 3.7245                 0.0000
  Atom  AN      X      Y      Z        X      Y      Z        X      Y      Z
     1   9     0.06   0.00   0.00     0.00  -0.05  -0.24    -0.04  -0.00  -0.00
     2   6    -0.20   0.00   0.00    -0.00  -0.00  -0.14     0.42  -0.00   0.00
     3   6    -0.17  -0.00   0.00    -0.00   0.27   0.13    -0.16  -0.00   0.00
     4   6     0.28  -0.00  -0.00     0.00   0.01   0.36     0.20  -0.00   0.00
     5   6    -0.28   0.00  -0.00    -0.00  -0.01   0.36    -0.20   0.00   0.00
     6   6     0.17   0.00  -0.00     0.00  -0.27   0.13     0.16   0.00   0.00
     7   6     0.20  -0.00  -0.00     0.00   0.00  -0.14    -0.42   0.00   0.00
     8   9    -0.06   0.00   0.00    -0.00   0.05  -0.24     0.04   0.00  -0.00
     9   1    -0.13  -0.00  -0.00     0.00   0.26   0.19    -0.50  -0.00   0.00
    10   1     0.58   0.00   0.00     0.00  -0.21   0.23    -0.05   0.00   0.00
    11   1    -0.58  -0.00  -0.00    -0.00   0.21   0.23     0.05  -0.00   0.00
    12   1     0.13   0.00  -0.00     0.00  -0.26   0.19     0.50   0.00   0.00
                     10                     11                     12
                     A1                     B1                     A2
 Frequencies --    769.9264               782.5829               873.9484
 Red. masses --      6.1346                 1.2470                 1.3427
 Frc consts  --      2.1426                 0.4500                 0.6042
 IR Inten    --     17.6637               104.5871                 0.0000
  Atom  AN      X      Y      Z        X      Y      Z        X      Y      Z
     1   9    -0.00   0.10   0.18    -0.01  -0.00  -0.00    -0.01  -0.00   0.00
     2   6     0.00   0.15  -0.07     0.06  -0.00   0.00     0.05  -0.00  -0.00
     3   6    -0.00   0.35  -0.13    -0.04  -0.00   0.00    -0.10   0.00  -0.00
     4   6     0.00   0.03  -0.03    -0.07   0.00   0.00    -0.05   0.00   0.00
     5   6    -0.00  -0.03  -0.03    -0.07   0.00   0.00     0.05  -0.00  -0.00
     6   6    -0.00  -0.35  -0.13    -0.04   0.00   0.00     0.10  -0.00  -0.00
     7   6    -0.00  -0.15  -0.07     0.06   0.00   0.00    -0.05   0.00  -0.00
     8   9     0.00  -0.10   0.18    -0.01   0.00  -0.00     0.01  -0.00   0.00
     9   1    -0.00   0.36  -0.32     0.31  -0.00   0.00     0.63  -0.00  -0.00
    10   1     0.00  -0.18  -0.17     0.63   0.00   0.00     0.29   0.00   0.00
    11   1     0.00   0.18  -0.17     0.63  -0.00  -0.00    -0.29  -0.00   0.00
    12   1     0.00  -0.36  -0.32     0.31  -0.00   0.00    -0.63   0.00  -0.00
                     13                     14                     15
                     B2                     A2                     B1
 Frequencies --    891.3749               940.9344               945.8495
 Red. masses --      6.3191                 1.1961                 1.3776
 Frc consts  --      2.9582                 0.6239                 0.7261
 IR Inten    --     12.1059                 0.0000                16.1513
  Atom  AN      X      Y      Z        X      Y      Z        X      Y      Z
     1   9     0.00  -0.10  -0.16    -0.00   0.00   0.00    -0.01  -0.00  -0.00
     2   6     0.00   0.14  -0.03     0.03  -0.00   0.00     0.03   0.00   0.00
     3   6     0.00   0.17   0.10     0.03   0.00  -0.00    -0.11   0.00   0.00
     4   6     0.00  -0.17   0.31    -0.08   0.00  -0.00     0.06  -0.00   0.00
     5   6    -0.00  -0.17  -0.31     0.08  -0.00   0.00     0.06  -0.00  -0.00
     6   6    -0.00   0.17  -0.10    -0.03  -0.00  -0.00    -0.11   0.00  -0.00
     7   6     0.00   0.14   0.03    -0.03   0.00   0.00     0.03  -0.00  -0.00
     8   9     0.00  -0.10   0.16     0.00   0.00  -0.00    -0.01  -0.00   0.00
     9   1    -0.00   0.18  -0.24    -0.33   0.00   0.00     0.60  -0.00   0.00
    10   1     0.00   0.04   0.44     0.62   0.00   0.00    -0.34  -0.00  -0.00
    11   1     0.00   0.04  -0.44    -0.62  -0.00   0.00    -0.34  -0.00   0.00
    12   1    -0.00   0.18   0.24     0.33  -0.00   0.00     0.60  -0.00   0.00
                     16                     17                     18
                     A1                     B2                     A1
 Frequencies --   1045.8160              1142.1605              1233.4181
 Red. masses --      2.2916                 2.1414                 1.1683
 Frc consts  --      1.4768                 1.6459                 1.0472
 IR Inten    --      5.0709                14.5910                 0.0126
  Atom  AN      X      Y      Z        X      Y      Z        X      Y      Z
     1   9    -0.00  -0.00  -0.02     0.00   0.03   0.02    -0.00  -0.00  -0.01
     2   6    -0.00  -0.03   0.02     0.00  -0.10   0.00    -0.00   0.00   0.01
     3   6     0.00   0.09   0.10     0.00   0.17   0.06    -0.00   0.00  -0.03
     4   6     0.00   0.14  -0.13    -0.00  -0.08  -0.03     0.00   0.08   0.03
     5   6    -0.00  -0.14  -0.13    -0.00  -0.08   0.03    -0.00  -0.08   0.03
     6   6     0.00  -0.09   0.10     0.00   0.17  -0.06    -0.00  -0.00  -0.03
     7   6     0.00   0.03   0.02    -0.00  -0.10  -0.00     0.00  -0.00   0.01
     8   9     0.00   0.00  -0.02     0.00   0.03  -0.02     0.00   0.00  -0.01
     9   1    -0.00   0.09   0.58    -0.00   0.17   0.39     0.00   0.01  -0.35
    10   1    -0.00   0.30  -0.06     0.00  -0.45  -0.25    -0.00   0.53   0.29
    11   1     0.00  -0.30  -0.06     0.00  -0.45   0.25     0.00  -0.53   0.29
    12   1    -0.00  -0.09   0.58     0.00   0.17  -0.39     0.00  -0.01  -0.35
                     19                     20                     21
                     B2                     A1                     B2
 Frequencies --   1258.9760              1320.1777              1321.9033
 Red. masses --      3.1437                 4.2983                 1.7499
 Frc consts  --      2.9358                 4.4138                 1.8016
 IR Inten    --     17.6069                37.6485                 3.7246
  Atom  AN      X      Y      Z        X      Y      Z        X      Y      Z
     1   9     0.00  -0.05  -0.08    -0.00  -0.04  -0.09    -0.00   0.01   0.04
     2   6    -0.00   0.20   0.11     0.00   0.18   0.13     0.00   0.04  -0.15
     3   6     0.00  -0.08   0.11    -0.00   0.07   0.21    -0.00  -0.03  -0.05
     4   6    -0.00  -0.01  -0.10    -0.00  -0.13  -0.14     0.00  -0.04   0.04
     5   6    -0.00  -0.01   0.10     0.00   0.13  -0.14     0.00  -0.04  -0.04
     6   6    -0.00  -0.08  -0.11    -0.00  -0.07   0.21    -0.00  -0.03   0.05
     7   6     0.00   0.20  -0.11    -0.00  -0.18   0.13     0.00   0.04   0.15
     8   9    -0.00  -0.05   0.08     0.00   0.04  -0.09     0.00   0.01  -0.04
     9   1    -0.00  -0.09   0.55     0.00   0.09  -0.59    -0.00  -0.05   0.63
    10   1     0.00  -0.21  -0.22     0.00   0.02  -0.07    -0.00   0.20   0.18
    11   1     0.00  -0.21   0.22    -0.00  -0.02  -0.07    -0.00   0.20  -0.18
    12   1     0.00  -0.09  -0.55    -0.00  -0.09  -0.59     0.00  -0.05  -0.63
                     22                     23                     24
                     A1                     B2                     A1
 Frequencies --   1336.8962              1504.0220              1556.6763
 Red. masses --      3.7258                 1.8737                 2.7331
 Frc consts  --      3.9234                 2.4972                 3.9021
 IR Inten    --     15.7323                 9.3715               106.9346
  Atom  AN      X      Y      Z        X      Y      Z        X      Y      Z
     1   9    -0.00  -0.03  -0.07     0.00  -0.00  -0.02     0.00   0.03   0.04
     2   6    -0.00  -0.14   0.25    -0.00  -0.03   0.09     0.00  -0.10  -0.14
     3   6     0.00   0.06  -0.11     0.00   0.07  -0.01    -0.00  -0.04   0.16
     4   6     0.00   0.14   0.02     0.00  -0.10  -0.12     0.00   0.13  -0.01
     5   6    -0.00  -0.14   0.02    -0.00  -0.10   0.12    -0.00  -0.13  -0.01
     6   6    -0.00  -0.06  -0.11     0.00   0.07   0.01     0.00   0.04   0.16
     7   6     0.00   0.14   0.25    -0.00  -0.03  -0.09    -0.00   0.10  -0.14
     8   9     0.00   0.03  -0.07     0.00  -0.00   0.02    -0.00  -0.03   0.04
     9   1     0.00   0.08  -0.32     0.00   0.09   0.09     0.00  -0.04  -0.53
    10   1    -0.00  -0.41  -0.32    -0.00   0.61   0.28     0.00  -0.27  -0.27
    11   1    -0.00   0.41  -0.32    -0.00   0.61  -0.28    -0.00   0.27  -0.27
    12   1    -0.00  -0.08  -0.32     0.00   0.09  -0.09     0.00   0.04  -0.53
                     25                     26                     27
                     A1                     B2                     B2
 Frequencies --   1610.0352              1624.5221              3210.6711
 Red. masses --      7.0124                 5.7476                 1.0880
 Frc consts  --     10.7099                 8.9369                 6.6082
 IR Inten    --     20.1247                 3.7158                 1.1355
  Atom  AN      X      Y      Z        X      Y      Z        X      Y      Z
     1   9    -0.00  -0.03  -0.03    -0.00   0.01   0.03    -0.00   0.00  -0.00
     2   6     0.00   0.39   0.01     0.00   0.03  -0.27     0.00   0.00  -0.00
     3   6    -0.00  -0.16  -0.04    -0.00  -0.01   0.33     0.00  -0.02   0.00
     4   6     0.00   0.29   0.09     0.00  -0.06  -0.17     0.00   0.03  -0.05
     5   6    -0.00  -0.29   0.09    -0.00  -0.06   0.17     0.00   0.03   0.05
     6   6     0.00   0.16  -0.04    -0.00  -0.01  -0.33     0.00  -0.02  -0.00
     7   6    -0.00  -0.39   0.01     0.00   0.03   0.27    -0.00   0.00   0.00
     8   9     0.00   0.03  -0.03    -0.00   0.01  -0.03    -0.00   0.00   0.00
     9   1    -0.00  -0.17   0.16     0.00  -0.00  -0.49     0.00   0.20   0.00
    10   1    -0.00  -0.31  -0.28     0.00   0.21  -0.03    -0.00  -0.34   0.58
    11   1     0.00   0.31  -0.28     0.00   0.21   0.03    -0.00  -0.34  -0.58
    12   1     0.00   0.17   0.16    -0.00  -0.00   0.49     0.00   0.20  -0.00
                     28                     29                     30
                     A1                     B2                     A1
 Frequencies --   3225.3326              3238.8897              3244.3450
 Red. masses --      1.0911                 1.0925                 1.0966
 Frc consts  --      6.6877                 6.7523                 6.8010
 IR Inten    --      6.5425                 1.3734                 0.6341
  Atom  AN      X      Y      Z        X      Y      Z        X      Y      Z
     1   9    -0.00   0.00   0.00     0.00   0.00   0.00    -0.00   0.00   0.00
     2   6    -0.00   0.00  -0.00    -0.00   0.00  -0.00    -0.00  -0.00  -0.00
     3   6    -0.00  -0.03   0.00    -0.00  -0.06  -0.00    -0.00  -0.05  -0.00
     4   6     0.00   0.03  -0.04    -0.00  -0.01   0.02    -0.00  -0.02   0.03
     5   6    -0.00  -0.03  -0.04    -0.00  -0.01  -0.02     0.00   0.02   0.03
     6   6     0.00   0.03   0.00    -0.00  -0.06   0.00     0.00   0.05  -0.00
     7   6     0.00  -0.00  -0.00    -0.00   0.00   0.00     0.00   0.00  -0.00
     8   9     0.00  -0.00   0.00    -0.00   0.00  -0.00     0.00  -0.00   0.00
     9   1     0.00   0.39   0.00     0.00   0.68   0.01     0.00   0.59   0.01
    10   1    -0.00  -0.30   0.50     0.00   0.10  -0.17     0.00   0.20  -0.34
    11   1     0.00   0.30   0.50     0.00   0.10   0.17    -0.00  -0.20  -0.34
    12   1    -0.00  -0.39   0.00     0.00   0.68  -0.01    -0.00  -0.59   0.01

 -------------------
 - Thermochemistry -
 -------------------
 Temperature   298.150 Kelvin.  Pressure   1.00000 Atm.
 Atom     1 has atomic number  9 and mass  18.99840
 Atom     2 has atomic number  6 and mass  12.00000
 Atom     3 has atomic number  6 and mass  12.00000
 Atom     4 has atomic number  6 and mass  12.00000
 Atom     5 has atomic number  6 and mass  12.00000
 Atom     6 has atomic number  6 and mass  12.00000
 Atom     7 has atomic number  6 and mass  12.00000
 Atom     8 has atomic number  9 and mass  18.99840
 Atom     9 has atomic number  1 and mass   1.00783
 Atom    10 has atomic number  1 and mass   1.00783
 Atom    11 has atomic number  1 and mass   1.00783
 Atom    12 has atomic number  1 and mass   1.00783
 Molecular mass:   114.02811 amu.
 Principal axes and moments of inertia in atomic units:
                           1         2         3
     Eigenvalues --   565.54392 835.640021401.18394
           X            0.00000  -0.00000   1.00000
           Y            0.00000   1.00000   0.00000
           Z            1.00000   0.00000   0.00000
 This molecule is an asymmetric top.
 Rotational symmetry number  2.
 Warning -- assumption of classical behavior for rotation
           may cause significant error
 Rotational temperatures (Kelvin)      0.15315     0.10365     0.06181
 Rotational constants (GHZ):           3.19116     2.15971     1.28801
 Zero-point vibrational energy     222583.8 (Joules/Mol)
                                   53.19881 (Kcal/Mol)
 Warning -- explicit consideration of   8 degrees of freedom as
           vibrations may cause significant error
 Vibrational temperatures:    278.75   393.91   442.80   632.73   699.25
          (Kelvin)            790.23   826.66   862.41  1022.11  1107.75
                             1125.96  1257.42  1282.49  1353.79  1360.87
                             1504.70  1643.31  1774.61  1811.39  1899.44
                             1901.92  1923.50  2163.95  2239.71  2316.48
                             2337.32  4619.44  4640.53  4660.04  4667.89
 
 Zero-point correction=                           0.084778 (Hartree/Particle)
 Thermal correction to Energy=                    0.090689
 Thermal correction to Enthalpy=                  0.091633
 Thermal correction to Gibbs Free Energy=         0.055305
 Sum of electronic and zero-point Energies=           -426.722888
 Sum of electronic and thermal Energies=              -426.716977
 Sum of electronic and thermal Enthalpies=            -426.716032
 Sum of electronic and thermal Free Energies=         -426.752360
 
                     E (Thermal)             CV                S
                      KCal/Mol        Cal/Mol-Kelvin    Cal/Mol-Kelvin
 Total                   56.908             22.813             76.458
 Electronic               0.000              0.000              0.000
 Translational            0.889              2.981             40.109
 Rotational               0.889              2.981             26.607
 Vibrational             55.131             16.851              9.742
 Vibration     1          0.635              1.849              2.192
 Vibration     2          0.676              1.722              1.572
 Vibration     3          0.698              1.659              1.374
 Vibration     4          0.800              1.383              0.827
 Vibration     5          0.842              1.281              0.694
 Vibration     6          0.904              1.141              0.546
 Vibration     7          0.931              1.086              0.496
 Vibration     8          0.957              1.033              0.451
                       Q            Log10(Q)             Ln(Q)
 Total Bot       0.364159D-25        -25.438710        -58.574793
 Total V=0       0.359993D+14         13.556294         31.214521
 Vib (Bot)       0.522412D-38        -38.281987        -88.147533
 Vib (Bot)    1  0.103159D+01          0.013508          0.031104
 Vib (Bot)    2  0.704531D+00         -0.152100         -0.350223
 Vib (Bot)    3  0.615217D+00         -0.210972         -0.485781
 Vib (Bot)    4  0.393167D+00         -0.405423         -0.933521
 Vib (Bot)    5  0.342352D+00         -0.465527         -1.071915
 Vib (Bot)    6  0.285939D+00         -0.543727         -1.251979
 Vib (Bot)    7  0.266658D+00         -0.574045         -1.321788
 Vib (Bot)    8  0.249267D+00         -0.603336         -1.389233
 Vib (V=0)       0.516436D+01          0.713017          1.641781
 Vib (V=0)    1  0.164638D+01          0.216530          0.498578
 Vib (V=0)    2  0.136392D+01          0.134790          0.310366
 Vib (V=0)    3  0.129277D+01          0.111523          0.256791
 Vib (V=0)    4  0.113607D+01          0.055404          0.127572
 Vib (V=0)    5  0.110597D+01          0.043745          0.100727
 Vib (V=0)    6  0.107599D+01          0.031807          0.073238
 Vib (V=0)    7  0.106666D+01          0.028027          0.064535
 Vib (V=0)    8  0.105869D+01          0.024769          0.057032
 Electronic      0.100000D+01          0.000000          0.000000
 Translational   0.478599D+08          7.679972         17.683788
 Rotational      0.145648D+06          5.163306         11.888951
 ***** Axes restored to original set *****
 -------------------------------------------------------------------
 Center     Atomic                   Forces (Hartrees/Bohr)
 Number     Number              X              Y              Z
 -------------------------------------------------------------------
      1        9           0.000060476    0.000063635   -0.000000309
      2        6          -0.000007402   -0.000110211   -0.000081598
      3        6          -0.000271669   -0.000193139    0.000075289
      4        6           0.000162290    0.000241613    0.000055641
      5        6           0.000077305   -0.000188325   -0.000215334
      6        6          -0.000216789    0.000084500    0.000250275
      7        6           0.000037491    0.000116903    0.000061544
      8        9           0.000039724   -0.000041349   -0.000066476
      9        1           0.000063750    0.000027542   -0.000031838
     10        1          -0.000004692   -0.000015517   -0.000008408
     11        1           0.000001293    0.000014761    0.000010674
     12        1           0.000058223   -0.000000414   -0.000049458
 -------------------------------------------------------------------
 Cartesian Forces:  Max     0.000271669 RMS     0.000114824
 FormGI is forming the generalized inverse of G from B-inverse, IUseBI=4.

 GradGradGradGradGradGradGradGradGradGradGradGradGradGradGradGradGradGrad
 Berny optimization.
 Internal  Forces:  Max     0.000183011 RMS     0.000054267
 Search for a local minimum.
 Step number   1 out of a maximum of    2
 All quantities printed in internal units (Hartrees-Bohrs-Radians)
 Second derivative matrix not updated -- analytic derivatives used.
 ITU=  0
     Eigenvalues ---    0.01567   0.01779   0.02032   0.02378   0.02534
     Eigenvalues ---    0.02618   0.03073   0.03465   0.03691   0.11250
     Eigenvalues ---    0.11521   0.12716   0.13187   0.16880   0.19743
     Eigenvalues ---    0.20596   0.21093   0.21442   0.30337   0.36187
     Eigenvalues ---    0.36402   0.36861   0.37076   0.37846   0.38738
     Eigenvalues ---    0.44543   0.44954   0.46027   0.46229   0.50448
 Angle between quadratic step and forces=  26.67 degrees.
 Linear search not attempted -- first point.
 Iteration  1 RMS(Cart)=  0.00034337 RMS(Int)=  0.00000014
 Iteration  2 RMS(Cart)=  0.00000014 RMS(Int)=  0.00000001
 ClnCor:  largest displacement from symmetrization is 7.77D-09 for atom     5.
 Variable       Old X    -DE/DX   Delta X   Delta X   Delta X     New X
                                 (Linear)    (Quad)   (Total)
    R1        2.60944  -0.00008   0.00000  -0.00018  -0.00018   2.60926
    R2        2.63323  -0.00005   0.00000  -0.00037  -0.00037   2.63287
    R3        2.64509   0.00011   0.00000   0.00048   0.00048   2.64557
    R4        2.65642   0.00018   0.00000   0.00072   0.00071   2.65713
    R5        2.04928  -0.00002   0.00000  -0.00009  -0.00009   2.04919
    R6        2.65528  -0.00012   0.00000  -0.00059  -0.00059   2.65469
    R7        2.05104   0.00001   0.00000   0.00003   0.00003   2.05107
    R8        2.65642   0.00018   0.00000   0.00072   0.00071   2.65713
    R9        2.05104   0.00001   0.00000   0.00003   0.00003   2.05107
   R10        2.63323  -0.00005   0.00000  -0.00037  -0.00037   2.63287
   R11        2.04928  -0.00002   0.00000  -0.00009  -0.00009   2.04919
   R12        2.60944  -0.00008   0.00000  -0.00018  -0.00018   2.60926
    A1        2.10168   0.00002   0.00000   0.00031   0.00031   2.10199
    A2        2.08315  -0.00005   0.00000  -0.00049  -0.00049   2.08265
    A3        2.09836   0.00003   0.00000   0.00018   0.00018   2.09855
    A4        2.09375  -0.00006   0.00000  -0.00037  -0.00037   2.09339
    A5        2.07044   0.00011   0.00000   0.00095   0.00095   2.07140
    A6        2.11899  -0.00005   0.00000  -0.00059  -0.00059   2.11840
    A7        2.09107   0.00003   0.00000   0.00018   0.00018   2.09125
    A8        2.09061  -0.00003   0.00000  -0.00035  -0.00035   2.09026
    A9        2.10150   0.00000   0.00000   0.00017   0.00017   2.10168
   A10        2.09107   0.00003   0.00000   0.00018   0.00018   2.09125
   A11        2.10150   0.00000   0.00000   0.00017   0.00017   2.10168
   A12        2.09061  -0.00003   0.00000  -0.00035  -0.00035   2.09026
   A13        2.09375  -0.00006   0.00000  -0.00037  -0.00037   2.09339
   A14        2.11899  -0.00005   0.00000  -0.00059  -0.00059   2.11840
   A15        2.07044   0.00011   0.00000   0.00095   0.00095   2.07140
   A16        2.09836   0.00003   0.00000   0.00018   0.00018   2.09855
   A17        2.08315  -0.00005   0.00000  -0.00049  -0.00049   2.08265
   A18        2.10168   0.00002   0.00000   0.00031   0.00031   2.10199
    D1        3.14159  -0.00000   0.00000   0.00000   0.00000   3.14159
    D2       -0.00000  -0.00000   0.00000  -0.00000   0.00000   0.00000
    D3        0.00000  -0.00000   0.00000  -0.00000  -0.00000   0.00000
    D4        3.14159  -0.00000   0.00000  -0.00000   0.00000   3.14159
    D5        3.14159  -0.00000   0.00000  -0.00000   0.00000   3.14159
    D6        0.00000  -0.00000   0.00000  -0.00000  -0.00000   0.00000
    D7        0.00000  -0.00000   0.00000  -0.00000  -0.00000   0.00000
    D8       -3.14159  -0.00000   0.00000  -0.00000  -0.00000   3.14159
    D9       -0.00000   0.00000   0.00000   0.00000   0.00000   0.00000
   D10        3.14159   0.00000   0.00000   0.00000   0.00000   3.14159
   D11        3.14159   0.00000   0.00000   0.00000   0.00000   3.14159
   D12       -0.00000   0.00000   0.00000   0.00000   0.00000   0.00000
   D13        0.00000  -0.00000   0.00000  -0.00000   0.00000   0.00000
   D14        3.14159  -0.00000   0.00000  -0.00000   0.00000   3.14159
   D15        3.14159  -0.00000   0.00000  -0.00000   0.00000   3.14159
   D16        0.00000  -0.00000   0.00000  -0.00000  -0.00000   0.00000
   D17       -0.00000  -0.00000   0.00000  -0.00000   0.00000   0.00000
   D18        3.14159  -0.00000   0.00000  -0.00000  -0.00000   3.14159
   D19        3.14159   0.00000   0.00000   0.00000   0.00000   3.14159
   D20       -0.00000   0.00000   0.00000   0.00000   0.00000   0.00000
   D21       -0.00000   0.00000   0.00000   0.00000  -0.00000  -0.00000
   D22        3.14159   0.00000   0.00000   0.00000   0.00000  -3.14159
   D23        3.14159   0.00000   0.00000   0.00000   0.00000   3.14159
   D24       -0.00000   0.00000   0.00000   0.00000   0.00000   0.00000
         Item               Value     Threshold  Converged?
 Maximum Force            0.000183     0.000450     YES
 RMS     Force            0.000054     0.000300     YES
 Maximum Displacement     0.000978     0.001800     YES
 RMS     Displacement     0.000343     0.001200     YES
 Predicted change in Energy=-4.314117D-07
 Optimization completed.
    -- Stationary point found.
                           ----------------------------
                           !   Optimized Parameters   !
                           ! (Angstroms and Degrees)  !
 --------------------------                            --------------------------
 ! Name  Definition              Value          Derivative Info.                !
 --------------------------------------------------------------------------------
 ! R1    R(1,2)                  1.3809         -DE/DX =   -0.0001              !
 ! R2    R(2,3)                  1.3934         -DE/DX =   -0.0001              !
 ! R3    R(2,7)                  1.3997         -DE/DX =    0.0001              !
 ! R4    R(3,4)                  1.4057         -DE/DX =    0.0002              !
 ! R5    R(3,9)                  1.0844         -DE/DX =    0.0                 !
 ! R6    R(4,5)                  1.4051         -DE/DX =   -0.0001              !
 ! R7    R(4,10)                 1.0854         -DE/DX =    0.0                 !
 ! R8    R(5,6)                  1.4057         -DE/DX =    0.0002              !
 ! R9    R(5,11)                 1.0854         -DE/DX =    0.0                 !
 ! R10   R(6,7)                  1.3934         -DE/DX =   -0.0001              !
 ! R11   R(6,12)                 1.0844         -DE/DX =    0.0                 !
 ! R12   R(7,8)                  1.3809         -DE/DX =   -0.0001              !
 ! A1    A(1,2,3)              120.4172         -DE/DX =    0.0                 !
 ! A2    A(1,2,7)              119.3556         -DE/DX =    0.0                 !
 ! A3    A(3,2,7)              120.2273         -DE/DX =    0.0                 !
 ! A4    A(2,3,4)              119.9632         -DE/DX =   -0.0001              !
 ! A5    A(2,3,9)              118.6277         -DE/DX =    0.0001              !
 ! A6    A(4,3,9)              121.409          -DE/DX =    0.0                 !
 ! A7    A(3,4,5)              119.8095         -DE/DX =    0.0                 !
 ! A8    A(3,4,10)             119.7831         -DE/DX =    0.0                 !
 ! A9    A(5,4,10)             120.4073         -DE/DX =    0.0                 !
 ! A10   A(4,5,6)              119.8095         -DE/DX =    0.0                 !
 ! A11   A(4,5,11)             120.4073         -DE/DX =    0.0                 !
 ! A12   A(6,5,11)             119.7831         -DE/DX =    0.0                 !
 ! A13   A(5,6,7)              119.9632         -DE/DX =   -0.0001              !
 ! A14   A(5,6,12)             121.409          -DE/DX =    0.0                 !
 ! A15   A(7,6,12)             118.6277         -DE/DX =    0.0001              !
 ! A16   A(2,7,6)              120.2273         -DE/DX =    0.0                 !
 ! A17   A(2,7,8)              119.3556         -DE/DX =    0.0                 !
 ! A18   A(6,7,8)              120.4172         -DE/DX =    0.0                 !
 ! D1    D(1,2,3,4)            180.0            -DE/DX =    0.0                 !
 ! D2    D(1,2,3,9)              0.0            -DE/DX =    0.0                 !
 ! D3    D(7,2,3,4)              0.0            -DE/DX =    0.0                 !
 ! D4    D(7,2,3,9)            180.0            -DE/DX =    0.0                 !
 ! D5    D(1,2,7,6)            180.0            -DE/DX =    0.0                 !
 ! D6    D(1,2,7,8)              0.0            -DE/DX =    0.0                 !
 ! D7    D(3,2,7,6)              0.0            -DE/DX =    0.0                 !
 ! D8    D(3,2,7,8)            180.0            -DE/DX =    0.0                 !
 ! D9    D(2,3,4,5)              0.0            -DE/DX =    0.0                 !
 ! D10   D(2,3,4,10)           180.0            -DE/DX =    0.0                 !
 ! D11   D(9,3,4,5)            180.0            -DE/DX =    0.0                 !
 ! D12   D(9,3,4,10)             0.0            -DE/DX =    0.0                 !
 ! D13   D(3,4,5,6)              0.0            -DE/DX =    0.0                 !
 ! D14   D(3,4,5,11)           180.0            -DE/DX =    0.0                 !
 ! D15   D(10,4,5,6)           180.0            -DE/DX =    0.0                 !
 ! D16   D(10,4,5,11)            0.0            -DE/DX =    0.0                 !
 ! D17   D(4,5,6,7)              0.0            -DE/DX =    0.0                 !
 ! D18   D(4,5,6,12)           180.0            -DE/DX =    0.0                 !
 ! D19   D(11,5,6,7)           180.0            -DE/DX =    0.0                 !
 ! D20   D(11,5,6,12)            0.0            -DE/DX =    0.0                 !
 ! D21   D(5,6,7,2)              0.0            -DE/DX =    0.0                 !
 ! D22   D(5,6,7,8)           -180.0            -DE/DX =    0.0                 !
 ! D23   D(12,6,7,2)           180.0            -DE/DX =    0.0                 !
 ! D24   D(12,6,7,8)             0.0            -DE/DX =    0.0                 !
 --------------------------------------------------------------------------------
 GradGradGradGradGradGradGradGradGradGradGradGradGradGradGradGradGradGrad


 ----------------------------------------------------------------------

 Electric dipole moment (input orientation):
 (Debye = 10**-18 statcoulomb cm , SI units = C m)
                  (au)            (Debye)         (10**-30 SI)
   Tot        0.108546D+01      0.275897D+01      0.920292D+01
   x          0.888140D+00      0.225743D+01      0.752996D+01
   y          0.197533D+00      0.502079D+00      0.167475D+01
   z         -0.591957D+00     -0.150460D+01     -0.501882D+01

 Dipole polarizability, Alpha (input orientation).
 (esu units = cm**3 , SI units = C**2 m**2 J**-1)
 Alpha(0;0):
               (au)            (10**-24 esu)      (10**-40 SI)
   iso        0.496313D+02      0.735460D+01      0.818310D+01
   aniso      0.518766D+02      0.768732D+01      0.855330D+01
   xx         0.521245D+02      0.772406D+01      0.859417D+01
   yx         0.148626D+02      0.220240D+01      0.245050D+01
   yy         0.519106D+02      0.769235D+01      0.855890D+01
   zx        -0.194046D+02     -0.287547D+01     -0.319939D+01
   zy         0.168087D+02      0.249079D+01      0.277138D+01
   zz         0.448589D+02      0.664740D+01      0.739623D+01

 ----------------------------------------------------------------------

 Dipole orientation:
     9         -0.72164680          1.60626926         -5.33929923
     6         -0.15446706          0.45966208         -3.06492804
     6         -0.74223399          1.64788819         -0.78972176
     6         -0.15672684          0.46423043          1.51520808
     6          1.02057200         -1.91578991          1.51520808
     6          1.60607915         -3.09944766         -0.78972176
     6          1.01831223         -1.91122155         -3.06492804
     9          1.58549196         -3.05782873         -5.33929923
     1         -1.65048937          3.48401186         -0.84692381
     1         -0.61701004          1.39473621          3.28412856
     1          1.48085520         -2.84629568          3.28412856
     1          2.51433453         -4.93557133         -0.84692381

 Electric dipole moment (dipole orientation):
 (Debye = 10**-18 statcoulomb cm , SI units = C m)
                  (au)            (Debye)         (10**-30 SI)
   Tot        0.108546D+01      0.275897D+01      0.920292D+01
   x          0.000000D+00      0.000000D+00      0.000000D+00
   y          0.000000D+00      0.000000D+00      0.000000D+00
   z          0.108546D+01      0.275897D+01      0.920292D+01

 Dipole polarizability, Alpha (dipole orientation).
 (esu units = cm**3 , SI units = C**2 m**2 J**-1)
 Alpha(0;0):
               (au)            (10**-24 esu)      (10**-40 SI)
   iso        0.496313D+02      0.735460D+01      0.818310D+01
   aniso      0.518766D+02      0.768732D+01      0.855330D+01
   xx         0.249870D+02      0.370269D+01      0.411980D+01
   yx        -0.200116D+02     -0.296541D+01     -0.329947D+01
   yy         0.555434D+02      0.823068D+01      0.915787D+01
   zx         0.000000D+00      0.000000D+00      0.000000D+00
   zy         0.000000D+00      0.000000D+00      0.000000D+00
   zz         0.683636D+02      0.101304D+02      0.112716D+02

 ----------------------------------------------------------------------
 Unable to Open any file for archive entry.
 1\1\GINC-BS001\Freq\RMP2-FC\3-21G\C6H4F2\PNATT\14-Aug-2026\0\\#N Geom=
 AllCheck Guess=TCheck SCRF=Check GenChk RMP2(FC)/3-21G Freq\\1,2-Diflu
 orobenzene - size6to10_C2v\\0,1\F,-2.4463547614,-1.3091653599,1.073710
 163\C,-1.3499463043,-0.5253069595,0.7733521091\C,-0.4805282638,-0.8915
 426348,-0.2521612362\C,0.6327192583,-0.0864897529,-0.5498347343\C,0.86
 44712942,1.0859445727,0.1891091456\C,-0.0182613112,1.4470674257,1.2217
 819554\C,-1.1190839457,0.6426264857,1.5094592434\F,-1.9921930103,0.988
 4404595,2.5218098319\H,-0.6840863049,-1.8015537305,-0.8057294054\H,1.3
 080205869,-0.3745238425,-1.3492240131\H,1.7209867112,1.7146731628,-0.0
 324770471\H,0.1357619612,2.346061392,1.8083656821\\Version=ES64L-G16Re
 vC.01\State=1-A1\HF=-426.053541\MP2=-426.8076656\RMSD=5.928e-10\RMSF=1
 .148e-04\ZeroPoint=0.0847777\Thermal=0.0906889\ETot=-426.7169767\HTot=
 -426.7160325\GTot=-426.7523602\Dipole=0.88814,0.197533,-0.5919567\Dipo
 leDeriv=-0.62696,-0.3311397,0.1439131,-0.3444824,-0.4087509,0.0793337,
 0.1332783,0.0680753,-0.2018032,0.647442,0.333272,-0.144646,0.4421096,0
 .4268368,-0.1613224,-0.0578966,-0.0694866,0.1546714,-0.1183727,0.02203
 44,-0.0492199,0.0622499,-0.0533829,0.0623584,-0.017166,0.0962917,-0.10
 62847,-0.0461578,0.0212564,-0.073682,-0.0411568,-0.0714462,0.1001766,-
 0.1234287,0.0475131,-0.0115418,-0.0024668,0.0742184,-0.0683343,0.13663
 16,-0.0222858,-0.0106555,-0.0185876,0.042008,-0.1043933,-0.1165568,0.0
 670451,-0.0148762,0.0268297,-0.0513397,0.0938741,-0.04693,0.0599408,-0
 .1101438,0.4362958,-0.1154658,-0.3241517,-0.2243034,0.1892586,0.211625
 8,-0.4109012,0.11979,0.6033958,-0.4602218,0.0958242,0.3435348,0.109166
 9,-0.22114,-0.1539137,0.3541697,-0.1426553,-0.5561522,0.1088313,-0.053
 0705,0.0187416,-0.0510154,0.0351162,-0.0733696,0.0203796,-0.0716355,0.
 1068803,0.0465298,-0.0018753,0.0877577,0.0015642,0.0843558,-0.0554797,
 0.0904992,-0.0525774,0.0340367,0.0147,-0.0824891,0.0503618,-0.0859286,
 0.0485414,-0.0102003,0.0476203,-0.0131026,0.1016809,0.1169371,-0.02961
 02,0.0306011,-0.0316653,0.0442368,-0.0824273,0.0289631,-0.0841614,0.08
 96539\Polar=52.1245341,14.8625555,51.910574,-19.4046425,16.8086897,44.
 8588823\PG=C02V [SGV(C6H4F2)]\NImag=0\\0.27965383,0.17519858,0.1683721
 3,-0.07603632,-0.03279424,0.06206522,-0.23557356,-0.13550776,0.0565022
 7,0.54288498,-0.13575079,-0.15152709,0.02613648,0.16993813,0.53830359,
 0.05630856,0.02593141,-0.06745194,-0.20292130,0.17258715,0.45065382,-0
 .03015108,0.00286253,0.03204688,-0.17380051,-0.00527285,0.09230533,0.4
 9796964,-0.02784980,0.00573968,0.02398943,0.03947269,-0.12757247,-0.08
 762327,0.16779994,0.58256247,0.00756751,-0.00192524,-0.00279513,0.1279
 6994,-0.04986756,-0.20715213,-0.18031683,0.22250560,0.45526189,0.00332
 667,-0.00309056,0.00220162,-0.04086587,0.01364668,0.04241704,-0.220286
 27,-0.11935738,0.04627832,0.52243913,0.00151050,-0.00007592,-0.0083931
 8,-0.01090458,0.04153928,0.04508943,-0.08778780,-0.16702223,-0.0170518
 8,0.12384686,0.49834655,0.00586891,-0.00451086,0.00030776,0.02284836,0
 .02437339,-0.00333915,0.07144097,0.00958613,-0.10533388,-0.23957625,0.
 19584918,0.47977555,-0.00137258,-0.00065092,-0.00052853,-0.00365475,0.
 00878248,0.01162179,0.00179632,-0.02853927,-0.02323986,-0.11163895,-0.
 06248191,0.00054791,0.55216533,0.00011959,0.00134851,0.00207712,0.0085
 3996,-0.02864344,-0.03148895,-0.04685686,-0.03656306,0.00942796,-0.031
 74517,-0.23365400,-0.11802714,0.20234508,0.53179398,0.00008561,0.00272
 726,0.00071746,0.01142849,-0.03169358,-0.03308215,-0.03783996,-0.00602
 818,0.02833671,0.02504675,-0.09209187,-0.14650457,-0.20209154,0.156272
 79,0.41660192,0.00440749,0.00312395,0.00511372,0.00348467,-0.04760653,
 -0.04388234,-0.03614835,-0.01081516,0.02538588,0.02949399,0.04460217,0
 .01168688,-0.17854511,-0.00913119,0.09891387,0.49615317,-0.00217517,-0
 .00018482,-0.00430339,-0.02242504,-0.03269244,-0.00430463,-0.00886025,
 -0.00245662,0.00220758,0.02628459,-0.00539811,-0.02744771,0.02243839,-
 0.12005578,-0.07262454,0.16300318,0.58051861,0.00089004,-0.00877472,-0
 .00022792,-0.02381133,0.01694320,0.03004444,0.02694406,0.00385711,-0.0
 1550727,-0.00291322,-0.04290385,-0.03052591,0.12407653,-0.04598653,-0.
 19404149,-0.18260739,0.22492398,0.45912222,-0.02345997,-0.04433710,-0.
 01080112,-0.09102890,-0.01251757,0.01554448,0.03147808,0.02631589,-0.0
 0858267,-0.01773996,-0.02841244,-0.00613965,-0.04159655,0.01171718,0.0
 4149565,-0.22290171,-0.13493477,0.03038876,0.53435829,-0.01422227,-0.0
 2541567,-0.01273713,-0.06387782,-0.22848731,-0.07977060,0.05149739,-0.
 00119472,-0.04157404,-0.02865496,-0.04449188,-0.01273642,-0.01283409,0
 .04071713,0.04606223,-0.09018923,-0.18282032,-0.02225172,0.14742167,0.
 52870951,0.01320203,0.01267338,0.00458242,-0.02539241,-0.12310772,-0.1
 3748004,0.01148834,-0.02032621,-0.02944670,-0.00633294,-0.01294105,-0.
 00314850,0.02192698,0.02534619,-0.00178632,0.06605337,0.01550400,-0.10
 280307,-0.21367342,0.18393926,0.46877457,0.00490464,0.00299693,-0.0047
 2450,-0.00791992,-0.00330036,0.00879488,0.00206384,-0.00306496,0.00215
 838,-0.00066319,0.00122238,0.00036602,0.00144926,-0.00804826,-0.000165
 80,-0.02555010,0.01501236,0.03784871,-0.16956572,0.03879963,0.13973807
 ,0.19529154,0.00302845,0.00290040,0.00256639,0.02681447,-0.00793026,-0
 .03342659,-0.00836408,-0.00282186,-0.00118313,0.00199289,0.00214671,0.
 00113266,-0.00344719,-0.00218835,-0.00589366,-0.01569996,0.01091662,0.
 01786385,0.03855659,-0.07725618,-0.06174395,-0.04757757,0.07344909,-0.
 00469937,0.00259299,0.00250656,0.03279802,-0.00801608,-0.02844304,-0.0
 0206530,-0.00565446,0.00475277,0.00098015,0.00178280,-0.00079014,0.003
 50149,-0.00201134,0.00429760,0.01336934,-0.00805081,-0.01257305,0.1395
 4436,-0.06194902,-0.20773067,-0.18241708,0.07952265,0.24135055,0.00020
 529,0.00047627,-0.00360968,0.00694482,0.01947033,0.01314807,-0.0612073
 5,-0.05076257,-0.01753292,-0.00051280,-0.02124402,-0.01605986,-0.00155
 568,-0.00463280,0.00391574,-0.00155800,0.00051980,0.00028618,-0.000719
 21,-0.00186467,0.00510976,0.00008101,0.00127386,0.00078599,0.05898451,
 0.00116266,-0.00043456,0.00227731,-0.00476033,-0.00440918,-0.00279352,
 -0.04927017,-0.25565034,-0.13506572,0.00078112,-0.00988439,-0.00895320
 ,-0.00431238,0.00160413,-0.00102967,0.00050086,0.00015706,0.00106540,-
 0.00158105,0.00255669,-0.00228553,0.00011661,-0.00017744,-0.00008775,0
 .05640590,0.26729927,-0.00306259,0.00285648,0.00033839,-0.00616507,-0.
 02323905,-0.00918569,-0.01634341,-0.13380646,-0.12689572,0.00149537,0.
 00963134,0.00693647,0.00417113,-0.00075931,0.00333644,0.00027109,0.001
 04943,-0.00110214,0.00533581,-0.00204622,0.00096468,-0.00013640,-0.001
 06422,-0.00092394,0.01615795,0.14564896,0.12730818,-0.00112090,0.00012
 759,0.00110995,0.00068465,-0.00486704,0.00238083,-0.01326300,0.0088001
 7,0.01809460,-0.16285990,0.03901017,0.14181151,0.00650633,-0.00295713,
 -0.00803109,0.00280019,-0.00344084,0.00145561,-0.00045035,-0.00072994,
 -0.00087281,-0.00022868,0.00046205,-0.00028777,-0.00062660,0.00086808,
 -0.00167447,0.16865570,-0.00098265,0.00023849,0.00096024,-0.00473198,0
 .00022171,-0.00228960,-0.01363615,0.00647998,0.01677553,0.03878871,-0.
 07297200,-0.06567007,0.01985390,-0.00378815,-0.01959788,-0.00330975,-0
 .00200274,-0.00500109,-0.00097828,-0.00137479,0.00036352,0.00045890,-0
 .00002740,0.00039293,0.00132945,-0.00039932,0.00129470,-0.03850665,0.0
 7421968,0.00022503,0.00002344,-0.00009718,0.00248848,-0.00217564,0.004
 26987,0.00021164,-0.00215596,-0.00202826,0.14163499,-0.06585694,-0.203
 64530,0.01015053,-0.00035023,-0.00906227,0.00156009,-0.00489048,0.0025
 6118,-0.00107075,0.00015398,0.00023097,-0.00029028,0.00039027,-0.00045
 018,-0.00130673,0.00168400,-0.00098623,-0.15247812,0.07226191,0.210578
 53,-0.00032757,0.00019775,-0.00041499,0.00028824,0.00097213,-0.0001393
 8,0.00321910,-0.00220352,0.00208834,-0.00043996,0.00151077,0.00139126,
 -0.23030239,-0.13930720,0.05659008,-0.01247539,-0.01155631,0.00120481,
 0.00224383,-0.00061462,0.00445462,-0.00093658,-0.00049591,0.00045746,-
 0.00002747,-0.00004310,0.00019889,-0.00041332,0.00085092,-0.00175673,0
 .23973240,0.00020091,-0.00013867,0.00052194,0.00122047,-0.00054374,-0.
 00082936,-0.00233461,-0.00153138,-0.00544821,-0.02130026,-0.01160400,0
 .00889781,-0.13908574,-0.14885717,0.02393354,0.01088001,0.00736618,-0.
 00320455,-0.00074968,0.00197608,-0.00425149,0.00061432,0.00044588,-0.0
 0022196,-0.00111569,-0.00049207,0.00035076,0.00144254,-0.00048972,0.00
 102201,0.14918613,0.15419400,-0.00041248,0.00052460,-0.00024002,0.0000
 5856,-0.00061981,-0.00133867,0.00198386,-0.00555882,0.00167091,-0.0167
 9036,-0.01034984,0.00569987,0.05676660,0.02412041,-0.06031764,0.019087
 77,0.01572693,-0.00370207,0.00434697,-0.00436545,0.00095631,0.00134238
 ,0.00071484,-0.00048890,-0.00065602,-0.00055427,0.00036071,-0.00128518
 ,0.00152121,-0.00100217,-0.06285047,-0.02236702,0.05952752,-0.00049227
 ,-0.00139726,-0.00085931,-0.00144385,-0.00349461,0.00442204,-0.0016704
 4,0.00020397,0.00012932,-0.00025290,-0.00087211,0.00581394,0.00674877,
 0.01995680,0.01065219,-0.05916084,-0.04386595,-0.01376277,-0.00061784,
 -0.02473110,-0.01570158,0.00107389,0.00345640,-0.00196728,-0.00000851,
 0.00013179,-0.00024831,0.00031588,0.00086359,0.00063185,-0.00056089,0.
 00104159,-0.00159161,0.05606900,-0.00024001,-0.00082248,-0.00030097,-0
 .00377822,0.00174134,-0.00108146,0.00022290,0.00003056,0.00119912,-0.0
 0119252,0.00307000,-0.00249379,-0.00206835,-0.00171380,-0.00003645,-0.
 04535834,-0.25334765,-0.13653110,-0.00050043,-0.01291856,-0.01317040,0
 .00277001,0.00054278,0.00170005,0.00014413,-0.00016984,0.00008358,-0.0
 0020900,-0.00010574,-0.00010636,0.00150296,-0.00032539,0.00120722,0.04
 870688,0.26401878,0.00006308,0.00067549,0.00029439,0.00419599,-0.00132
 077,0.00250467,0.00014441,0.00121509,-0.00086321,0.00555855,-0.0027641
 5,0.00056779,-0.00690303,-0.01862098,-0.00849569,-0.01495228,-0.137790
 36,-0.13124491,0.00361157,0.00727512,0.00688634,-0.00251437,0.00112088
 ,-0.00150756,-0.00023847,0.00009399,-0.00015115,-0.00022306,-0.0010114
 0,-0.00036897,-0.00122388,0.00159651,-0.00112587,0.01248150,0.14953057
 ,0.13350417\\-0.00006048,-0.00006363,0.00000031,0.00000740,0.00011021,
 0.00008160,0.00027167,0.00019314,-0.00007529,-0.00016229,-0.00024161,-
 0.00005564,-0.00007731,0.00018832,0.00021533,0.00021679,-0.00008450,-0
 .00025027,-0.00003749,-0.00011690,-0.00006154,-0.00003972,0.00004135,0
 .00006648,-0.00006375,-0.00002754,0.00003184,0.00000469,0.00001552,0.0
 0000841,-0.00000129,-0.00001476,-0.00001067,-0.00005822,0.00000041,0.0
 0004946\\\@
 The archive entry for this job was punched.


 DEFINE YOUR TERMS, YOU WILL PERMIT ME AGAIN TO SAY, 
 OR WE SHALL NEVER UNDERSTAND ONE ANOTHER.

                                    -- VOLTAIRE
 Job cpu time:       0 days  0 hours  3 minutes  6.2 seconds.
 Elapsed time:       0 days  0 hours  0 minutes 23.3 seconds.
 File lengths (MBytes):  RWF=    426 Int=      0 D2E=      0 Chk=      2 Scr=      1
 Normal termination of Gaussian 16 at Fri Aug 14 18:19:07 2026.
