 Entering Gaussian System, Link 0=g16
 Input=ClBr3.com
 Output=ClBr3.log
 Initial command:
 /opt/g16/g16/l1.exe "/home/pnatt/scratch/Gau-1468609.inp" -scrdir="/home/pnatt/scratch/"
 Entering Link 1 = /opt/g16/g16/l1.exe PID=   1468620.
  
 Copyright (c) 1988-2019, Gaussian, Inc.  All Rights Reserved.
  
 This is part of the Gaussian(R) 16 program.  It is based on
 the Gaussian(R) 09 system (copyright 2009, Gaussian, Inc.),
 the Gaussian(R) 03 system (copyright 2003, Gaussian, Inc.),
 the Gaussian(R) 98 system (copyright 1998, Gaussian, Inc.),
 the Gaussian(R) 94 system (copyright 1995, Gaussian, Inc.),
 the Gaussian 92(TM) system (copyright 1992, Gaussian, Inc.),
 the Gaussian 90(TM) system (copyright 1990, Gaussian, Inc.),
 the Gaussian 88(TM) system (copyright 1988, Gaussian, Inc.),
 the Gaussian 86(TM) system (copyright 1986, Carnegie Mellon
 University), and the Gaussian 82(TM) system (copyright 1983,
 Carnegie Mellon University). Gaussian is a federally registered
 trademark of Gaussian, Inc.
  
 This software contains proprietary and confidential information,
 including trade secrets, belonging to Gaussian, Inc.
  
 This software is provided under written license and may be
 used, copied, transmitted, or stored only in accord with that
 written license.
  
 The following legend is applicable only to US Government
 contracts under FAR:
  
                    RESTRICTED RIGHTS LEGEND
  
 Use, reproduction and disclosure by the US Government is
 subject to restrictions as set forth in subparagraphs (a)
 and (c) of the Commercial Computer Software - Restricted
 Rights clause in FAR 52.227-19.
  
 Gaussian, Inc.
 340 Quinnipiac St., Bldg. 40, Wallingford CT 06492
  
  
 ---------------------------------------------------------------
 Warning -- This program may not be used in any manner that
 competes with the business of Gaussian, Inc. or will provide
 assistance to any competitor of Gaussian, Inc.  The licensee
 of this program is prohibited from giving any competitor of
 Gaussian, Inc. access to this program.  By using this program,
 the user acknowledges that Gaussian, Inc. is engaged in the
 business of creating and licensing software in the field of
 computational chemistry and represents and warrants to the
 licensee that it is not a competitor of Gaussian, Inc. and that
 it will not use this program in any manner prohibited above.
 ---------------------------------------------------------------
  

 Cite this work as:
 Gaussian 16, Revision C.01,
 M. J. Frisch, G. W. Trucks, H. B. Schlegel, G. E. Scuseria, 
 M. A. Robb, J. R. Cheeseman, G. Scalmani, V. Barone, 
 G. A. Petersson, H. Nakatsuji, X. Li, M. Caricato, A. V. Marenich, 
 J. Bloino, B. G. Janesko, R. Gomperts, B. Mennucci, H. P. Hratchian, 
 J. V. Ortiz, A. F. Izmaylov, J. L. Sonnenberg, D. Williams-Young, 
 F. Ding, F. Lipparini, F. Egidi, J. Goings, B. Peng, A. Petrone, 
 T. Henderson, D. Ranasinghe, V. G. Zakrzewski, J. Gao, N. Rega, 
 G. Zheng, W. Liang, M. Hada, M. Ehara, K. Toyota, R. Fukuda, 
 J. Hasegawa, M. Ishida, T. Nakajima, Y. Honda, O. Kitao, H. Nakai, 
 T. Vreven, K. Throssell, J. A. Montgomery, Jr., J. E. Peralta, 
 F. Ogliaro, M. J. Bearpark, J. J. Heyd, E. N. Brothers, K. N. Kudin, 
 V. N. Staroverov, T. A. Keith, R. Kobayashi, J. Normand, 
 K. Raghavachari, A. P. Rendell, J. C. Burant, S. S. Iyengar, 
 J. Tomasi, M. Cossi, J. M. Millam, M. Klene, C. Adamo, R. Cammi, 
 J. W. Ochterski, R. L. Martin, K. Morokuma, O. Farkas, 
 J. B. Foresman, and D. J. Fox, Gaussian, Inc., Wallingford CT, 2019.
 
 ******************************************
 Gaussian 16:  ES64L-G16RevC.01  3-Jul-2019
                10-Aug-2026 
 ******************************************
 %chk=clbr3.chk
 ----------------------------------------------
 # opt freq=hpmodes mp2/3-21g geom=connectivity
 ----------------------------------------------
 1/18=20,19=15,38=1,57=2/1,3;
 2/9=110,12=2,17=6,18=5,40=1/2;
 3/5=5,11=9,25=1,30=1,71=1/1,2,3;
 4//1;
 5/5=2,38=5/2;
 8/6=4,10=1/1;
 9/15=2,16=-3/6;
 10/5=1/2;
 6/7=2,8=2,9=2,10=2/1;
 7/12=2/1,2,3,16;
 1/18=20,19=15/3(2);
 2/9=110/2;
 99//99;
 2/9=110/2;
 3/5=5,11=9,25=1,30=1,71=1/1,2,3;
 4/5=5,16=3,69=1/1;
 5/5=2,38=5/2;
 8/6=4,10=1/1;
 9/15=2,16=-3/6;
 10/5=1/2;
 7/12=2/1,2,3,16;
 1/18=20,19=15/3(-8);
 2/9=110/2;
 6/7=2,8=2,9=2,10=2/1;
 99/9=10/99;
 -------------------
 Title Card Required
 -------------------
 Symbolic Z-matrix:
 Charge =  0 Multiplicity = 1
 Cl                    0.65144   1.24365   0. 
 Br                    0.65144   1.24365  -2.13 
 Br                    0.65144   1.24365   2.13 
 Br                   -0.41356   3.08829   0. 
 

 GradGradGradGradGradGradGradGradGradGradGradGradGradGradGradGradGradGrad
 Berny optimization.
 Initialization pass.
                           ----------------------------
                           !    Initial Parameters    !
                           ! (Angstroms and Degrees)  !
 --------------------------                            --------------------------
 ! Name  Definition              Value          Derivative Info.                !
 --------------------------------------------------------------------------------
 ! R1    R(1,2)                  2.13           estimate D2E/DX2                !
 ! R2    R(1,3)                  2.13           estimate D2E/DX2                !
 ! R3    R(1,4)                  2.13           estimate D2E/DX2                !
 ! A1    A(2,1,4)               90.0            estimate D2E/DX2                !
 ! A2    A(3,1,4)               90.0            estimate D2E/DX2                !
 ! A3    L(2,1,3,4,-1)         180.0            estimate D2E/DX2                !
 ! A4    L(2,1,3,4,-2)         180.0            estimate D2E/DX2                !
 ! D1    D(1,2,4,3)              0.0            estimate D2E/DX2                !
 --------------------------------------------------------------------------------
 Trust Radius=3.00D-01 FncErr=1.00D-07 GrdErr=1.00D-07 EigMax=2.50D+02 EigMin=1.00D-04
 Number of steps in this run=     20 maximum allowed number of steps=    100.
 GradGradGradGradGradGradGradGradGradGradGradGradGradGradGradGradGradGrad

                          Input orientation:                          
 ---------------------------------------------------------------------
 Center     Atomic      Atomic             Coordinates (Angstroms)
 Number     Number       Type             X           Y           Z
 ---------------------------------------------------------------------
      1         17           0        0.651438    1.243655    0.000000
      2         35           0        0.651438    1.243655   -2.130000
      3         35           0        0.651438    1.243655    2.130000
      4         35           0       -0.413562    3.088289    0.000000
 ---------------------------------------------------------------------
                    Distance matrix (angstroms):
                    1          2          3          4
     1  Cl   0.000000
     2  Br   2.130000   0.000000
     3  Br   2.130000   4.260000   0.000000
     4  Br   2.130000   3.012275   3.012275   0.000000
 Stoichiometry    Br3Cl
 Framework group  C2V[C2(ClBr),SGV(Br2)]
 Deg. of freedom     3
 Full point group                 C2V     NOp   4
 Largest Abelian subgroup         C2V     NOp   4
 Largest concise Abelian subgroup C2      NOp   2
                         Standard orientation:                         
 ---------------------------------------------------------------------
 Center     Atomic      Atomic             Coordinates (Angstroms)
 Number     Number       Type             X           Y           Z
 ---------------------------------------------------------------------
      1         17           0       -0.000000    0.000000   -0.611066
      2         35           0       -0.000000    2.130000   -0.611066
      3         35           0        0.000000   -2.130000   -0.611066
      4         35           0        0.000000   -0.000000    1.518934
 ---------------------------------------------------------------------
 Rotational constants (GHZ):           1.9892455           0.7057487           0.5209315
 Standard basis: 3-21G (6D, 7F)
 There are    36 symmetry adapted cartesian basis functions of A1  symmetry.
 There are     7 symmetry adapted cartesian basis functions of A2  symmetry.
 There are    14 symmetry adapted cartesian basis functions of B1  symmetry.
 There are    25 symmetry adapted cartesian basis functions of B2  symmetry.
 There are    36 symmetry adapted basis functions of A1  symmetry.
 There are     7 symmetry adapted basis functions of A2  symmetry.
 There are    14 symmetry adapted basis functions of B1  symmetry.
 There are    25 symmetry adapted basis functions of B2  symmetry.
    82 basis functions,   198 primitive gaussians,    82 cartesian basis functions
    61 alpha electrons       61 beta electrons
       nuclear repulsion energy      1026.0352625411 Hartrees.



 Warning!  Cl atom    1 may be hypervalent but has no d functions.



 NAtoms=    4 NActive=    4 NUniq=    3 SFac= 1.78D+00 NAtFMM=   60 NAOKFM=F Big=F
 Integral buffers will be    131072 words long.
 Raffenetti 1 integral format.
 Two-electron integral symmetry is turned on.
 One-electron integrals computed using PRISM.
 NBasis=    82 RedAO= T EigKep=  4.63D-03  NBF=    36     7    14    25
 NBsUse=    82 1.00D-06 EigRej= -1.00D+00 NBFU=    36     7    14    25
 ExpMin= 1.65D-01 ExpMax= 6.10D+03 ExpMxC= 6.10D+03 IAcc=3 IRadAn=         5 AccDes= 0.00D+00
 Harris functional with IExCor=  205 and IRadAn=       5 diagonalized for initial guess.
 HarFok:  IExCor=  205 AccDes= 0.00D+00 IRadAn=         5 IDoV= 1 UseB2=F ITyADJ=14
 ICtDFT=  3500011 ScaDFX=  1.000000  1.000000  1.000000  1.000000
 FoFCou: FMM=F IPFlag=           0 FMFlag=      100000 FMFlg1=           0
         NFxFlg=           0 DoJE=T BraDBF=F KetDBF=T FulRan=T
         wScrn=  0.000000 ICntrl=       500 IOpCl=  0 I1Cent=   200000004 NGrid=           0
         NMat0=    1 NMatS0=      1 NMatT0=    0 NMatD0=    1 NMtDS0=    0 NMtDT0=    0
 Petite list used in FoFCou.
 Initial guess orbital symmetries:
       Occupied  (A1) (A1) (B2) (A1) (A1) (B2) (A1) (A1) (B2) (A1)
                 (B1) (B2) (A1) (B1) (B2) (A2) (A1) (A1) (A1) (B2)
                 (B2) (A1) (B1) (A1) (B2) (A1) (B2) (B1) (A1) (B2)
                 (B1) (A2) (B2) (A1) (A1) (B1) (B2) (A1) (A1) (A2)
                 (B2) (B1) (A2) (A1) (B1) (B2) (A2) (A1) (B2) (A1)
                 (A1) (B2) (A1) (B1) (B2) (A2) (B1) (A1) (B2) (A1)
                 (B1)
       Virtual   (A1) (B2) (A1) (B2) (A1) (B1) (B2) (A1) (A2) (A1)
                 (B2) (B1) (B1) (A1) (A1) (B2) (A1) (B2) (A1) (B2)
                 (A1)
 The electronic state of the initial guess is 1-A1.
 Keep R1 ints in memory in symmetry-blocked form, NReq=7345167.
 Requested convergence on RMS density matrix=1.00D-08 within 128 cycles.
 Requested convergence on MAX density matrix=1.00D-06.
 Requested convergence on             energy=1.00D-06.
 No special actions if energy rises.
 SCF Done:  E(RHF) =  -8137.12177194     A.U. after   14 cycles
            NFock= 14  Conv=0.57D-08     -V/T= 1.9966
 ExpMin= 1.65D-01 ExpMax= 6.10D+03 ExpMxC= 6.10D+03 IAcc=3 IRadAn=         5 AccDes= 0.00D+00
 HarFok:  IExCor=  205 AccDes= 0.00D+00 IRadAn=         5 IDoV=-2 UseB2=F ITyADJ=14
 ICtDFT= 12500011 ScaDFX=  1.000000  1.000000  1.000000  1.000000
 GSVD:  LWork=       -1280 too small for GESVD, short by        5600 words or        5600 for optimal perf.
 Range of M.O.s used for correlation:    33    82
 NBasis=    82 NAE=    61 NBE=    61 NFC=    32 NFV=     0
 NROrb=     50 NOA=    29 NOB=    29 NVA=    21 NVB=    21
 Fully direct method using O(ONN) memory.
 JobTyp=1 Pass  1:  I=  33 to  61 NPSUse=  1 ParTrn=F ParDer=F DoDerP=T.
 Spin components of T(2) and E(2):
     alpha-alpha T2 =       0.9120863018D-02 E2=     -0.1993775161D-01
     alpha-beta  T2 =       0.7925876213D-01 E2=     -0.1378788804D+00
     beta-beta   T2 =       0.9120863018D-02 E2=     -0.1993775161D-01
 ANorm=    0.1047616575D+01
 E2 =    -0.1777543836D+00 EUMP2 =    -0.81372995263264D+04
          IDoAtm=1111
          Differentiating once with respect to electric field.
                with respect to dipole field.
          Differentiating once with respect to nuclear coordinates.
 Keep R1 ints in memory in symmetry-blocked form, NReq=7345933.
          There are     1 degrees of freedom in the 1st order CPHF.  IDoFFX=0 NUNeed=     1.
 LinEq1:  Iter=  0 NonCon=     1 RMS=4.85D-03 Max=1.11D-01 NDo=     1
 AX will form     1 AO Fock derivatives at one time.
 LinEq1:  Iter=  1 NonCon=     1 RMS=1.13D-03 Max=2.91D-02 NDo=     1
 LinEq1:  Iter=  2 NonCon=     1 RMS=3.10D-04 Max=4.59D-03 NDo=     1
 LinEq1:  Iter=  3 NonCon=     1 RMS=1.22D-04 Max=2.21D-03 NDo=     1
 LinEq1:  Iter=  4 NonCon=     1 RMS=2.86D-05 Max=5.35D-04 NDo=     1
 LinEq1:  Iter=  5 NonCon=     1 RMS=1.18D-05 Max=2.71D-04 NDo=     1
 LinEq1:  Iter=  6 NonCon=     1 RMS=2.34D-06 Max=2.85D-05 NDo=     1
 LinEq1:  Iter=  7 NonCon=     1 RMS=2.71D-07 Max=2.87D-06 NDo=     1
 LinEq1:  Iter=  8 NonCon=     1 RMS=4.42D-08 Max=7.08D-07 NDo=     1
 LinEq1:  Iter=  9 NonCon=     1 RMS=8.82D-09 Max=1.63D-07 NDo=     1
 LinEq1:  Iter= 10 NonCon=     1 RMS=1.44D-09 Max=2.36D-08 NDo=     1
 LinEq1:  Iter= 11 NonCon=     1 RMS=1.72D-10 Max=2.15D-09 NDo=     1
 LinEq1:  Iter= 12 NonCon=     0 RMS=1.32D-11 Max=1.36D-10 NDo=     1
 Linear equations converged to 1.000D-10 1.000D-09 after    12 iterations.
 End of Minotr F.D. properties file   721 does not exist.
 End of Minotr F.D. properties file   722 does not exist.
 End of Minotr F.D. properties file   788 does not exist.

 **********************************************************************

            Population analysis using the SCF Density.

 **********************************************************************

 Orbital symmetries:
       Occupied  (A1) (A1) (B2) (A1) (A1) (B2) (A1) (A1) (B2) (B1)
                 (A1) (B2) (A1) (B2) (B1) (A2) (A1) (A1) (A1) (B2)
                 (B2) (A1) (B1) (A1) (B1) (B2) (A1) (B2) (A1) (B2)
                 (B1) (A2) (A1) (B1) (B2) (A1) (A2) (B2) (A1) (A1)
                 (B2) (B1) (A2) (A1) (B1) (B2) (A2) (A1) (A1) (B2)
                 (A1) (B1) (A1) (B2) (B2) (B1) (A2) (A1) (B2) (B1)
                 (A1)
       Virtual   (A1) (B2) (A1) (A1) (B1) (B2) (A1) (B1) (B2) (A1)
                 (A2) (B2) (A1) (B1) (A1) (B2) (B2) (A1) (A1) (B2)
                 (A1)
 The electronic state is 1-A1.
 Alpha  occ. eigenvalues -- -486.90527-486.74374-486.74373-104.30706 -64.92008
 Alpha  occ. eigenvalues --  -64.76108 -64.76108 -58.10706 -58.10378 -58.10369
 Alpha  occ. eigenvalues --  -57.94726 -57.94713 -57.94523 -57.94522 -57.94515
 Alpha  occ. eigenvalues --  -57.94508 -10.70641  -9.91535  -9.75968  -9.75967
 Alpha  occ. eigenvalues --   -8.16693  -8.16384  -8.15870  -7.50152  -7.48148
 Alpha  occ. eigenvalues --   -7.48144  -7.34145  -7.34145  -7.32984  -7.32984
 Alpha  occ. eigenvalues --   -7.32924  -7.32924  -3.23179  -3.22387  -3.22370
 Alpha  occ. eigenvalues --   -3.20132  -3.20130  -3.07126  -3.06867  -3.06556
 Alpha  occ. eigenvalues --   -3.06521  -3.06505  -3.06468  -3.05310  -3.05308
 Alpha  occ. eigenvalues --   -3.05308  -3.05308  -1.36918  -1.08681  -1.05619
 Alpha  occ. eigenvalues --   -0.93301  -0.68880  -0.68393  -0.67057  -0.54222
 Alpha  occ. eigenvalues --   -0.51039  -0.42033  -0.40173  -0.39523  -0.38670
 Alpha  occ. eigenvalues --   -0.31485
 Alpha virt. eigenvalues --   -0.08511   0.04200   0.64313   0.67536   0.67788
 Alpha virt. eigenvalues --    0.73422   0.73809   0.76656   0.78593   0.81326
 Alpha virt. eigenvalues --    0.84026   0.86233   0.89768   0.89988   0.92123
 Alpha virt. eigenvalues --    0.98374   1.08999   1.09148  23.78560  24.32289
 Alpha virt. eigenvalues --   24.89213
          Condensed to atoms (all electrons):
               1          2          3          4
     1  Cl  17.709843  -0.383088  -0.383088   0.000021
     2  Br  -0.383088  35.676474   0.031499  -0.107974
     3  Br  -0.383088   0.031499  35.676474  -0.107974
     4  Br   0.000021  -0.107974  -0.107974  34.838419
 Mulliken charges:
               1
     1  Cl   0.056313
     2  Br  -0.216910
     3  Br  -0.216910
     4  Br   0.377508
 Sum of Mulliken charges =   0.00000
 Mulliken charges with hydrogens summed into heavy atoms:
               1
     1  Cl   0.056313
     2  Br  -0.216910
     3  Br  -0.216910
     4  Br   0.377508
 Electronic spatial extent (au):  <R**2>=           1699.0040
 Charge=              0.0000 electrons
 Dipole moment (field-independent basis, Debye):
    X=              0.0000    Y=              0.0000    Z=              3.2417  Tot=              3.2417
 Quadrupole moment (field-independent basis, Debye-Ang):
   XX=            -68.6067   YY=            -83.9627   ZZ=            -63.3348
   XY=              0.0000   XZ=              0.0000   YZ=              0.0000
 Traceless Quadrupole moment (field-independent basis, Debye-Ang):
   XX=              3.3614   YY=            -11.9947   ZZ=              8.6333
   XY=              0.0000   XZ=              0.0000   YZ=              0.0000
 Octapole moment (field-independent basis, Debye-Ang**2):
  XXX=             -0.0000  YYY=              0.0000  ZZZ=             27.8234  XYY=             -0.0000
  XXY=              0.0000  XXZ=              3.8762  XZZ=             -0.0000  YZZ=              0.0000
  YYZ=             13.6626  XYZ=             -0.0000
 Hexadecapole moment (field-independent basis, Debye-Ang**3):
 XXXX=            -75.4789 YYYY=          -1148.3215 ZZZZ=           -377.7101 XXXY=              0.0000
 XXXZ=             -0.0000 YYYX=              0.0000 YYYZ=             -0.0000 ZZZX=             -0.0000
 ZZZY=             -0.0000 XXYY=           -202.4291 XXZZ=            -84.7798 YYZZ=           -266.8158
 XXYZ=             -0.0000 YYXZ=             -0.0000 ZZXY=              0.0000
 N-N= 1.026035262541D+03 E-N=-2.155481981856D+04  KE= 8.165270569214D+03
 Symmetry A1   KE= 4.411477764694D+03
 Symmetry A2   KE= 4.223405627716D+02
 Symmetry B1   KE= 7.624263103664D+02
 Symmetry B2   KE= 2.569025931382D+03
 Calling FoFJK, ICntrl=  10002127 FMM=F ISym2X=1 I1Cent= 0 IOpClX= 0 NMat=1 NMatS=1 NMatT=0.
 ***** Axes restored to original set *****
 -------------------------------------------------------------------
 Center     Atomic                   Forces (Hartrees/Bohr)
 Number     Number              X              Y              Z
 -------------------------------------------------------------------
      1       17           0.039464388   -0.068354326   -0.000000000
      2       35           0.013743101   -0.023803750   -0.209283942
      3       35           0.013743101   -0.023803750    0.209283942
      4       35          -0.066950591    0.115961826   -0.000000000
 -------------------------------------------------------------------
 Cartesian Forces:  Max     0.209283942 RMS     0.097155287

 GradGradGradGradGradGradGradGradGradGradGradGradGradGradGradGradGradGrad
 Berny optimization.
 FormGI is forming the generalized inverse of G from B-inverse, IUseBI=4.
 Internal  Forces:  Max     0.209283942 RMS     0.119210506
 Search for a local minimum.
 Step number   1 out of a maximum of   20
 All quantities printed in internal units (Hartrees-Bohrs-Radians)
 Mixed Optimization -- RFO/linear search
 Second derivative matrix not updated -- first step.
 The second derivative matrix:
                          R1        R2        R3        A1        A2
           R1           0.16256
           R2           0.00000   0.16256
           R3           0.00000   0.00000   0.16256
           A1           0.00000   0.00000   0.00000   0.25000
           A2           0.00000   0.00000   0.00000   0.00000   0.25000
           A3           0.00000   0.00000   0.00000   0.00000   0.00000
           A4           0.00000   0.00000   0.00000   0.00000   0.00000
           D1           0.00000   0.00000   0.00000   0.00000   0.00000
                          A3        A4        D1
           A3           0.00230
           A4           0.00000   0.00230
           D1           0.00000   0.00000   0.00230
 ITU=  0
     Eigenvalues ---    0.00230   0.08487   0.16256   0.16256   0.16256
     Eigenvalues ---    0.25000
 RFO step:  Lambda=-2.68137624D-01 EMin= 2.30000000D-03
 Linear search not attempted -- first point.
 Maximum step size (   0.300) exceeded in Quadratic search.
    -- Step size scaled by   0.377
 Iteration  1 RMS(Cart)=  0.12197446 RMS(Int)=  0.00192370
 Iteration  2 RMS(Cart)=  0.00327121 RMS(Int)=  0.00000431
 Iteration  3 RMS(Cart)=  0.00000436 RMS(Int)=  0.00000000
 Iteration  4 RMS(Cart)=  0.00000000 RMS(Int)=  0.00000001
 ClnCor:  largest displacement from symmetrization is 1.80D-08 for atom     1.
 Variable       Old X    -DE/DX   Delta X   Delta X   Delta X     New X
                                 (Linear)    (Quad)   (Total)
    R1        4.02512   0.20928   0.00000   0.18303   0.18303   4.20814
    R2        4.02512   0.20928   0.00000   0.18303   0.18303   4.20814
    R3        4.02512   0.13390   0.00000   0.11710   0.11710   4.14222
    A1        1.57080   0.03688   0.00000   0.03935   0.03935   1.61015
    A2        1.57080   0.03688   0.00000   0.03935   0.03935   1.61015
    A3        3.14159   0.07376   0.00000   0.07870   0.07870   3.22029
    A4        3.14159   0.00000   0.00000   0.00000  -0.00000   3.14159
    D1       -0.00000   0.00000   0.00000   0.00000   0.00000   0.00000
         Item               Value     Threshold  Converged?
 Maximum Force            0.209284     0.000450     NO 
 RMS     Force            0.119211     0.000300     NO 
 Maximum Displacement     0.179769     0.001800     NO 
 RMS     Displacement     0.123343     0.001200     NO 
 Predicted change in Energy=-9.404155D-02
 GradGradGradGradGradGradGradGradGradGradGradGradGradGradGradGradGradGrad

                          Input orientation:                          
 ---------------------------------------------------------------------
 Center     Atomic      Atomic             Coordinates (Angstroms)
 Number     Number       Type             X           Y           Z
 ---------------------------------------------------------------------
      1         17           0        0.637284    1.268171    0.000000
      2         35           0        0.681085    1.192305   -2.225129
      3         35           0        0.681085    1.192305    2.225129
      4         35           0       -0.458700    3.166471   -0.000000
 ---------------------------------------------------------------------
                    Distance matrix (angstroms):
                    1          2          3          4
     1  Cl   0.000000
     2  Br   2.226853   0.000000
     3  Br   2.226853   4.450259   0.000000
     4  Br   2.191967   3.185536   3.185536   0.000000
 Stoichiometry    Br3Cl
 Framework group  C2V[C2(ClBr),SGV(Br2)]
 Deg. of freedom     3
 Full point group                 C2V     NOp   4
 Largest Abelian subgroup         C2V     NOp   4
 Largest concise Abelian subgroup C2      NOp   2
                         Standard orientation:                         
 ---------------------------------------------------------------------
 Center     Atomic      Atomic             Coordinates (Angstroms)
 Number     Number       Type             X           Y           Z
 ---------------------------------------------------------------------
      1         17           0       -0.000000   -0.000000   -0.578579
      2         35           0        0.000000    2.225129   -0.666182
      3         35           0       -0.000000   -2.225129   -0.666182
      4         35           0        0.000000    0.000000    1.613388
 ---------------------------------------------------------------------
 Rotational constants (GHZ):           1.7598862           0.6466938           0.4729149
 Standard basis: 3-21G (6D, 7F)
 There are    36 symmetry adapted cartesian basis functions of A1  symmetry.
 There are     7 symmetry adapted cartesian basis functions of A2  symmetry.
 There are    14 symmetry adapted cartesian basis functions of B1  symmetry.
 There are    25 symmetry adapted cartesian basis functions of B2  symmetry.
 There are    36 symmetry adapted basis functions of A1  symmetry.
 There are     7 symmetry adapted basis functions of A2  symmetry.
 There are    14 symmetry adapted basis functions of B1  symmetry.
 There are    25 symmetry adapted basis functions of B2  symmetry.
    82 basis functions,   198 primitive gaussians,    82 cartesian basis functions
    61 alpha electrons       61 beta electrons
       nuclear repulsion energy       979.0827426761 Hartrees.



 Warning!  Cl atom    1 may be hypervalent but has no d functions.



 NAtoms=    4 NActive=    4 NUniq=    3 SFac= 1.78D+00 NAtFMM=   60 NAOKFM=F Big=F
 Integral buffers will be    131072 words long.
 Raffenetti 1 integral format.
 Two-electron integral symmetry is turned on.
 One-electron integrals computed using PRISM.
 NBasis=    82 RedAO= T EigKep=  4.69D-03  NBF=    36     7    14    25
 NBsUse=    82 1.00D-06 EigRej= -1.00D+00 NBFU=    36     7    14    25
 Initial guess from the checkpoint file:  "clbr3.chk"
 B after Tr=    -0.000000    0.000000   -0.000000
         Rot=    1.000000    0.000000    0.000000    0.000000 Ang=   0.00 deg.
 Initial guess orbital symmetries:
       Occupied  (A1) (A1) (B2) (A1) (A1) (B2) (A1) (A1) (B2) (B1)
                 (A1) (B2) (A1) (B2) (B1) (A2) (A1) (A1) (A1) (B2)
                 (B2) (A1) (B1) (A1) (B1) (B2) (A1) (B2) (A1) (B2)
                 (B1) (A2) (A1) (B1) (B2) (A1) (A2) (B2) (A1) (A1)
                 (B2) (B1) (A2) (A1) (B1) (B2) (A2) (A1) (A1) (B2)
                 (A1) (B1) (A1) (B2) (B2) (B1) (A2) (A1) (B2) (B1)
                 (A1)
       Virtual   (A1) (B2) (A1) (A1) (B1) (B2) (A1) (B1) (B2) (A1)
                 (A2) (B2) (A1) (B1) (A1) (B2) (B2) (A1) (A1) (B2)
                 (A1)
 ExpMin= 1.65D-01 ExpMax= 6.10D+03 ExpMxC= 6.10D+03 IAcc=3 IRadAn=         5 AccDes= 0.00D+00
 Harris functional with IExCor=  205 and IRadAn=       5 diagonalized for initial guess.
 HarFok:  IExCor=  205 AccDes= 0.00D+00 IRadAn=         5 IDoV= 1 UseB2=F ITyADJ=14
 ICtDFT=  3500011 ScaDFX=  1.000000  1.000000  1.000000  1.000000
 FoFCou: FMM=F IPFlag=           0 FMFlag=      100000 FMFlg1=           0
         NFxFlg=           0 DoJE=T BraDBF=F KetDBF=T FulRan=T
         wScrn=  0.000000 ICntrl=       500 IOpCl=  0 I1Cent=   200000004 NGrid=           0
         NMat0=    1 NMatS0=      1 NMatT0=    0 NMatD0=    1 NMtDS0=    0 NMtDT0=    0
 Petite list used in FoFCou.
 Keep R1 ints in memory in symmetry-blocked form, NReq=7345167.
 Requested convergence on RMS density matrix=1.00D-08 within 128 cycles.
 Requested convergence on MAX density matrix=1.00D-06.
 Requested convergence on             energy=1.00D-06.
 No special actions if energy rises.
 SCF Done:  E(RHF) =  -8137.19729496     A.U. after   13 cycles
            NFock= 13  Conv=0.10D-07     -V/T= 1.9967
 ExpMin= 1.65D-01 ExpMax= 6.10D+03 ExpMxC= 6.10D+03 IAcc=3 IRadAn=         5 AccDes= 0.00D+00
 HarFok:  IExCor=  205 AccDes= 0.00D+00 IRadAn=         5 IDoV=-2 UseB2=F ITyADJ=14
 ICtDFT= 12500011 ScaDFX=  1.000000  1.000000  1.000000  1.000000
 GSVD:  LWork=       -1280 too small for GESVD, short by        5600 words or        5600 for optimal perf.
 Range of M.O.s used for correlation:    33    82
 NBasis=    82 NAE=    61 NBE=    61 NFC=    32 NFV=     0
 NROrb=     50 NOA=    29 NOB=    29 NVA=    21 NVB=    21
 Fully direct method using O(ONN) memory.
 JobTyp=1 Pass  1:  I=  33 to  61 NPSUse=  1 ParTrn=F ParDer=F DoDerP=T.
 Spin components of T(2) and E(2):
     alpha-alpha T2 =       0.9906159089D-02 E2=     -0.2065490940D-01
     alpha-beta  T2 =       0.9116238078D-01 E2=     -0.1447010655D+00
     beta-beta   T2 =       0.9906159089D-02 E2=     -0.2065490940D-01
 ANorm=    0.1054027845D+01
 E2 =    -0.1860108842D+00 EUMP2 =    -0.81373833058473D+04
          IDoAtm=1111
          Differentiating once with respect to electric field.
                with respect to dipole field.
          Differentiating once with respect to nuclear coordinates.
 Keep R1 ints in memory in symmetry-blocked form, NReq=7345933.
          There are     1 degrees of freedom in the 1st order CPHF.  IDoFFX=0 NUNeed=     1.
 LinEq1:  Iter=  0 NonCon=     1 RMS=6.05D-03 Max=1.40D-01 NDo=     1
 AX will form     1 AO Fock derivatives at one time.
 LinEq1:  Iter=  1 NonCon=     1 RMS=1.21D-03 Max=2.73D-02 NDo=     1
 LinEq1:  Iter=  2 NonCon=     1 RMS=4.14D-04 Max=8.05D-03 NDo=     1
 LinEq1:  Iter=  3 NonCon=     1 RMS=1.43D-04 Max=2.65D-03 NDo=     1
 LinEq1:  Iter=  4 NonCon=     1 RMS=3.16D-05 Max=6.35D-04 NDo=     1
 LinEq1:  Iter=  5 NonCon=     1 RMS=1.33D-05 Max=3.19D-04 NDo=     1
 LinEq1:  Iter=  6 NonCon=     1 RMS=2.91D-06 Max=4.27D-05 NDo=     1
 LinEq1:  Iter=  7 NonCon=     1 RMS=4.08D-07 Max=5.23D-06 NDo=     1
 LinEq1:  Iter=  8 NonCon=     1 RMS=6.55D-08 Max=9.15D-07 NDo=     1
 LinEq1:  Iter=  9 NonCon=     1 RMS=9.06D-09 Max=1.01D-07 NDo=     1
 LinEq1:  Iter= 10 NonCon=     1 RMS=6.77D-10 Max=1.02D-08 NDo=     1
 LinEq1:  Iter= 11 NonCon=     1 RMS=7.34D-11 Max=1.53D-09 NDo=     1
 LinEq1:  Iter= 12 NonCon=     0 RMS=1.09D-11 Max=2.71D-10 NDo=     1
 Linear equations converged to 1.000D-10 1.000D-09 after    12 iterations.
 End of Minotr F.D. properties file   721 does not exist.
 End of Minotr F.D. properties file   722 does not exist.
 End of Minotr F.D. properties file   788 does not exist.
 Calling FoFJK, ICntrl=  10002127 FMM=F ISym2X=1 I1Cent= 0 IOpClX= 0 NMat=1 NMatS=1 NMatT=0.
 ***** Axes restored to original set *****
 -------------------------------------------------------------------
 Center     Atomic                   Forces (Hartrees/Bohr)
 Number     Number              X              Y              Z
 -------------------------------------------------------------------
      1       17           0.021931798   -0.037986989    0.000000000
      2       35           0.012172048   -0.021082606   -0.138321951
      3       35           0.012172048   -0.021082606    0.138321951
      4       35          -0.046275895    0.080152201    0.000000000
 -------------------------------------------------------------------
 Cartesian Forces:  Max     0.138321951 RMS     0.064511655

 GradGradGradGradGradGradGradGradGradGradGradGradGradGradGradGradGradGrad
 Berny optimization.
 Using GEDIIS/GDIIS optimizer.
 FormGI is forming the generalized inverse of G from B-inverse, IUseBI=4.
 Internal  Forces:  Max     0.139172554 RMS     0.080244700
 Search for a local minimum.
 Step number   2 out of a maximum of   20
 All quantities printed in internal units (Hartrees-Bohrs-Radians)
 Mixed Optimization -- RFO/linear search
 Update second derivatives using D2CorX and points    1    2
 DE= -8.38D-02 DEPred=-9.40D-02 R= 8.91D-01
 TightC=F SS=  1.41D+00  RLast= 3.00D-01 DXNew= 5.0454D-01 9.0000D-01
 Trust test= 8.91D-01 RLast= 3.00D-01 DXMaxT set to 5.05D-01
 The second derivative matrix:
                          R1        R2        R3        A1        A2
           R1           0.24805
           R2           0.08550   0.24805
           R3           0.04724   0.04724   0.18838
           A1           0.00106   0.00106  -0.00043   0.24632
           A2           0.00106   0.00106  -0.00043  -0.00368   0.24632
           A3           0.04382   0.04382   0.02582   0.00642   0.00642
           A4           0.00000   0.00000   0.00000   0.00000   0.00000
           D1          -0.00000  -0.00000  -0.00000  -0.00000  -0.00000
                          A3        A4        D1
           A3           0.01540
           A4           0.00000   0.00230
           D1          -0.00000   0.00000   0.00230
 ITU=  1  0
 Use linear search instead of GDIIS.
 Linear search step of   0.600 exceeds DXMaxT=   0.505 but not scaled.
 Quartic linear search produced a step of  2.00000.
 Iteration  1 RMS(Cart)=  0.18372804 RMS(Int)=  0.08057503
 Iteration  2 RMS(Cart)=  0.08090193 RMS(Int)=  0.00016002
 Iteration  3 RMS(Cart)=  0.00030292 RMS(Int)=  0.00000004
 Iteration  4 RMS(Cart)=  0.00000004 RMS(Int)=  0.00000001
 ClnCor:  largest displacement from symmetrization is 3.41D-08 for atom     1.
 Variable       Old X    -DE/DX   Delta X   Delta X   Delta X     New X
                                 (Linear)    (Quad)   (Total)
    R1        4.20814   0.13917   0.36605   0.00000   0.36605   4.57419
    R2        4.20814   0.13917   0.36605   0.00000   0.36605   4.57419
    R3        4.14222   0.09255   0.23420   0.00000   0.23420   4.37642
    A1        1.61015   0.02649   0.07870   0.00000   0.07870   1.68884
    A2        1.61015   0.02649   0.07870   0.00000   0.07870   1.68884
    A3        3.22029   0.05298   0.15740   0.00000   0.15740   3.37769
    A4        3.14159   0.00000  -0.00000   0.00000   0.00000   3.14159
    D1       -0.00000   0.00000   0.00000   0.00000   0.00000   0.00000
         Item               Value     Threshold  Converged?
 Maximum Force            0.139173     0.000450     NO 
 RMS     Force            0.080245     0.000300     NO 
 Maximum Displacement     0.337475     0.001800     NO 
 RMS     Displacement     0.248892     0.001200     NO 
 Predicted change in Energy=-7.015339D-02
 GradGradGradGradGradGradGradGradGradGradGradGradGradGradGradGradGradGrad

                          Input orientation:                          
 ---------------------------------------------------------------------
 Center     Atomic      Atomic             Coordinates (Angstroms)
 Number     Number       Type             X           Y           Z
 ---------------------------------------------------------------------
      1         17           0        0.603406    1.326849    0.000000
      2         35           0        0.745946    1.079963   -2.403714
      3         35           0        0.745946    1.079963    2.403714
      4         35           0       -0.554545    3.332478   -0.000000
 ---------------------------------------------------------------------
                    Distance matrix (angstroms):
                    1          2          3          4
     1  Cl   0.000000
     2  Br   2.420560   0.000000
     3  Br   2.420560   4.807427   0.000000
     4  Br   2.315902   3.541601   3.541601   0.000000
 Stoichiometry    Br3Cl
 Framework group  C2V[C2(ClBr),SGV(Br2)]
 Deg. of freedom     3
 Full point group                 C2V     NOp   4
 Largest Abelian subgroup         C2V     NOp   4
 Largest concise Abelian subgroup C2      NOp   2
                         Standard orientation:                         
 ---------------------------------------------------------------------
 Center     Atomic      Atomic             Coordinates (Angstroms)
 Number     Number       Type             X           Y           Z
 ---------------------------------------------------------------------
      1         17           0       -0.000000   -0.000000   -0.500828
      2         35           0       -0.000000    2.403714   -0.785907
      3         35           0       -0.000000   -2.403714   -0.785907
      4         35           0        0.000000    0.000000    1.815074
 ---------------------------------------------------------------------
 Rotational constants (GHZ):           1.3798955           0.5541710           0.3953836
 Standard basis: 3-21G (6D, 7F)
 There are    36 symmetry adapted cartesian basis functions of A1  symmetry.
 There are     7 symmetry adapted cartesian basis functions of A2  symmetry.
 There are    14 symmetry adapted cartesian basis functions of B1  symmetry.
 There are    25 symmetry adapted cartesian basis functions of B2  symmetry.
 There are    36 symmetry adapted basis functions of A1  symmetry.
 There are     7 symmetry adapted basis functions of A2  symmetry.
 There are    14 symmetry adapted basis functions of B1  symmetry.
 There are    25 symmetry adapted basis functions of B2  symmetry.
    82 basis functions,   198 primitive gaussians,    82 cartesian basis functions
    61 alpha electrons       61 beta electrons
       nuclear repulsion energy       897.0255890304 Hartrees.
 NAtoms=    4 NActive=    4 NUniq=    3 SFac= 1.78D+00 NAtFMM=   60 NAOKFM=F Big=F
 Integral buffers will be    131072 words long.
 Raffenetti 1 integral format.
 Two-electron integral symmetry is turned on.
 One-electron integrals computed using PRISM.
 NBasis=    82 RedAO= T EigKep=  4.80D-03  NBF=    36     7    14    25
 NBsUse=    82 1.00D-06 EigRej= -1.00D+00 NBFU=    36     7    14    25
 Initial guess from the checkpoint file:  "clbr3.chk"
 B after Tr=     0.000000   -0.000000   -0.000000
         Rot=    1.000000    0.000000   -0.000000   -0.000000 Ang=   0.00 deg.
 Initial guess orbital symmetries:
       Occupied  (A1) (A1) (B2) (A1) (A1) (B2) (A1) (A1) (B2) (B1)
                 (A1) (B2) (A1) (B2) (B1) (A2) (A1) (A1) (A1) (B2)
                 (B2) (A1) (B1) (A1) (B1) (B2) (A1) (B2) (A1) (B2)
                 (B1) (A2) (A1) (B1) (B2) (A1) (A2) (B2) (A1) (A1)
                 (B2) (B1) (A2) (A1) (B1) (A2) (B2) (A1) (A1) (B2)
                 (A1) (B1) (A1) (B2) (B2) (B1) (A2) (A1) (B2) (B1)
                 (A1)
       Virtual   (A1) (B2) (A1) (A1) (B1) (B2) (A1) (B1) (B2) (A1)
                 (A2) (B2) (A1) (B1) (A1) (B2) (B2) (A1) (A1) (B2)
                 (A1)
 ExpMin= 1.65D-01 ExpMax= 6.10D+03 ExpMxC= 6.10D+03 IAcc=3 IRadAn=         5 AccDes= 0.00D+00
 Harris functional with IExCor=  205 and IRadAn=       5 diagonalized for initial guess.
 HarFok:  IExCor=  205 AccDes= 0.00D+00 IRadAn=         5 IDoV= 1 UseB2=F ITyADJ=14
 ICtDFT=  3500011 ScaDFX=  1.000000  1.000000  1.000000  1.000000
 FoFCou: FMM=F IPFlag=           0 FMFlag=      100000 FMFlg1=           0
         NFxFlg=           0 DoJE=T BraDBF=F KetDBF=T FulRan=T
         wScrn=  0.000000 ICntrl=       500 IOpCl=  0 I1Cent=   200000004 NGrid=           0
         NMat0=    1 NMatS0=      1 NMatT0=    0 NMatD0=    1 NMtDS0=    0 NMtDT0=    0
 Petite list used in FoFCou.
 Keep R1 ints in memory in symmetry-blocked form, NReq=7345167.
 Requested convergence on RMS density matrix=1.00D-08 within 128 cycles.
 Requested convergence on MAX density matrix=1.00D-06.
 Requested convergence on             energy=1.00D-06.
 No special actions if energy rises.
 SCF Done:  E(RHF) =  -8137.27039555     A.U. after   15 cycles
            NFock= 15  Conv=0.51D-08     -V/T= 1.9968
 ExpMin= 1.65D-01 ExpMax= 6.10D+03 ExpMxC= 6.10D+03 IAcc=3 IRadAn=         5 AccDes= 0.00D+00
 HarFok:  IExCor=  205 AccDes= 0.00D+00 IRadAn=         5 IDoV=-2 UseB2=F ITyADJ=14
 ICtDFT= 12500011 ScaDFX=  1.000000  1.000000  1.000000  1.000000
 GSVD:  LWork=       -1280 too small for GESVD, short by        5600 words or        5600 for optimal perf.
 Range of M.O.s used for correlation:    33    82
 NBasis=    82 NAE=    61 NBE=    61 NFC=    32 NFV=     0
 NROrb=     50 NOA=    29 NOB=    29 NVA=    21 NVB=    21
 Fully direct method using O(ONN) memory.
 JobTyp=1 Pass  1:  I=  33 to  61 NPSUse=  1 ParTrn=F ParDer=F DoDerP=T.
 Spin components of T(2) and E(2):
     alpha-alpha T2 =       0.1131197287D-01 E2=     -0.2195360818D-01
     alpha-beta  T2 =       0.1187826091D+00 E2=     -0.1580624479D+00
     beta-beta   T2 =       0.1131197287D-01 E2=     -0.2195360818D-01
 ANorm=    0.1068366302D+01
 E2 =    -0.2019696643D+00 EUMP2 =    -0.81374723652118D+04
          IDoAtm=1111
          Differentiating once with respect to electric field.
                with respect to dipole field.
          Differentiating once with respect to nuclear coordinates.
 Keep R1 ints in memory in symmetry-blocked form, NReq=7345933.
          There are     1 degrees of freedom in the 1st order CPHF.  IDoFFX=0 NUNeed=     1.
 LinEq1:  Iter=  0 NonCon=     1 RMS=7.05D-03 Max=1.70D-01 NDo=     1
 AX will form     1 AO Fock derivatives at one time.
 LinEq1:  Iter=  1 NonCon=     1 RMS=1.07D-03 Max=1.33D-02 NDo=     1
 LinEq1:  Iter=  2 NonCon=     1 RMS=3.54D-04 Max=4.48D-03 NDo=     1
 LinEq1:  Iter=  3 NonCon=     1 RMS=7.68D-05 Max=1.93D-03 NDo=     1
 LinEq1:  Iter=  4 NonCon=     1 RMS=2.41D-05 Max=4.43D-04 NDo=     1
 LinEq1:  Iter=  5 NonCon=     1 RMS=1.11D-05 Max=1.88D-04 NDo=     1
 LinEq1:  Iter=  6 NonCon=     1 RMS=3.48D-06 Max=6.91D-05 NDo=     1
 LinEq1:  Iter=  7 NonCon=     1 RMS=8.85D-07 Max=9.31D-06 NDo=     1
 LinEq1:  Iter=  8 NonCon=     1 RMS=1.53D-07 Max=2.18D-06 NDo=     1
 LinEq1:  Iter=  9 NonCon=     1 RMS=2.66D-08 Max=3.69D-07 NDo=     1
 LinEq1:  Iter= 10 NonCon=     1 RMS=4.30D-09 Max=6.39D-08 NDo=     1
 LinEq1:  Iter= 11 NonCon=     1 RMS=4.16D-10 Max=4.68D-09 NDo=     1
 LinEq1:  Iter= 12 NonCon=     1 RMS=4.54D-11 Max=1.09D-09 NDo=     1
 LinEq1:  Iter= 13 NonCon=     0 RMS=4.91D-12 Max=8.40D-11 NDo=     1
 Linear equations converged to 1.000D-10 1.000D-09 after    13 iterations.
 End of Minotr F.D. properties file   721 does not exist.
 End of Minotr F.D. properties file   722 does not exist.
 End of Minotr F.D. properties file   788 does not exist.
 Calling FoFJK, ICntrl=  10002127 FMM=F ISym2X=1 I1Cent= 0 IOpClX= 0 NMat=1 NMatS=1 NMatT=0.
 ***** Axes restored to original set *****
 -------------------------------------------------------------------
 Center     Atomic                   Forces (Hartrees/Bohr)
 Number     Number              X              Y              Z
 -------------------------------------------------------------------
      1       17           0.006773443   -0.011731948   -0.000000000
      2       35           0.006719586   -0.011638665   -0.048705663
      3       35           0.006719586   -0.011638665    0.048705663
      4       35          -0.020212616    0.035009278    0.000000000
 -------------------------------------------------------------------
 Cartesian Forces:  Max     0.048705663 RMS     0.024019824

 GradGradGradGradGradGradGradGradGradGradGradGradGradGradGradGradGradGrad
 Berny optimization.
 Using GEDIIS/GDIIS optimizer.
 FormGI is forming the generalized inverse of G from B-inverse, IUseBI=4.
 Internal  Forces:  Max     0.049949477 RMS     0.030479042
 Search for a local minimum.
 Step number   3 out of a maximum of   20
 All quantities printed in internal units (Hartrees-Bohrs-Radians)
 Mixed Optimization -- RFO/linear search
 Update second derivatives using D2CorX and points    2    3
 The second derivative matrix:
                          R1        R2        R3        A1        A2
           R1           0.19306
           R2           0.03050   0.19306
           R3           0.01428   0.01428   0.16864
           A1          -0.00534  -0.00534  -0.00429   0.24566
           A2          -0.00534  -0.00534  -0.00429  -0.00434   0.24566
           A3           0.03103   0.03103   0.01811   0.00511   0.00511
           A4          -0.00000  -0.00000  -0.00000   0.00000   0.00000
           D1           0.00000   0.00000   0.00000   0.00000   0.00000
                          A3        A4        D1
           A3           0.01278
           A4          -0.00000   0.00230
           D1           0.00000   0.00000   0.00230
 ITU=  0  1  0
 Use linear search instead of GDIIS.
 Linear search step of   1.200 exceeds DXMaxT=   0.505 scaled by   0.841
 Quartic linear search produced a step of  1.68179.
 Iteration  1 RMS(Cart)=  0.22740590 RMS(Int)=  0.21388521
 Iteration  2 RMS(Cart)=  0.13895363 RMS(Int)=  0.09922294
 Iteration  3 RMS(Cart)=  0.09742758 RMS(Int)=  0.00004627
 Iteration  4 RMS(Cart)=  0.00010110 RMS(Int)=  0.00000001
 Iteration  5 RMS(Cart)=  0.00000001 RMS(Int)=  0.00000002
 ClnCor:  largest displacement from symmetrization is 4.44D-09 for atom     1.
 Variable       Old X    -DE/DX   Delta X   Delta X   Delta X     New X
                                 (Linear)    (Quad)   (Total)
    R1        4.57419   0.04995   0.61562   0.00000   0.61562   5.18982
    R2        4.57419   0.04995   0.61562   0.00000   0.61562   5.18982
    R3        4.37642   0.04043   0.39388   0.00000   0.39388   4.77030
    A1        1.68884   0.01160   0.13235   0.00000   0.13235   1.82120
    A2        1.68884   0.01160   0.13235   0.00000   0.13235   1.82120
    A3        3.37769   0.02320   0.26471   0.00000   0.26471   3.64240
    A4        3.14159   0.00000   0.00000   0.00000   0.00000   3.14159
    D1       -0.00000   0.00000  -0.00000   0.00000   0.00000   0.00000
         Item               Value     Threshold  Converged?
 Maximum Force            0.049949     0.000450     NO 
 RMS     Force            0.030479     0.000300     NO 
 Maximum Displacement     0.579417     0.001800     NO 
 RMS     Displacement     0.424375     0.001200     NO 
 Predicted change in Energy=-3.294643D-02
 GradGradGradGradGradGradGradGradGradGradGradGradGradGradGradGradGradGrad

                          Input orientation:                          
 ---------------------------------------------------------------------
 Center     Atomic      Atomic             Coordinates (Angstroms)
 Number     Number       Type             X           Y           Z
 ---------------------------------------------------------------------
      1         17           0        0.530599    1.452955    0.000000
      2         35           0        0.870861    0.863603   -2.660683
      3         35           0        0.870861    0.863603    2.660683
      4         35           0       -0.731568    3.639093    0.000000
 ---------------------------------------------------------------------
                    Distance matrix (angstroms):
                    1          2          3          4
     1  Cl   0.000000
     2  Br   2.746334   0.000000
     3  Br   2.746334   5.321366   0.000000
     4  Br   2.524334   4.165376   4.165376   0.000000
 Stoichiometry    Br3Cl
 Framework group  C2V[C2(ClBr),SGV(Br2)]
 Deg. of freedom     3
 Full point group                 C2V     NOp   4
 Largest Abelian subgroup         C2V     NOp   4
 Largest concise Abelian subgroup C2      NOp   2
                         Standard orientation:                         
 ---------------------------------------------------------------------
 Center     Atomic      Atomic             Coordinates (Angstroms)
 Number     Number       Type             X           Y           Z
 ---------------------------------------------------------------------
      1         17           0        0.000000    0.000000   -0.333729
      2         35           0       -0.000000    2.660683   -1.014254
      3         35           0        0.000000   -2.660683   -1.014254
      4         35           0       -0.000000   -0.000000    2.190605
 ---------------------------------------------------------------------
 Rotational constants (GHZ):           0.9273556           0.4522962           0.3040183
 Standard basis: 3-21G (6D, 7F)
 There are    36 symmetry adapted cartesian basis functions of A1  symmetry.
 There are     7 symmetry adapted cartesian basis functions of A2  symmetry.
 There are    14 symmetry adapted cartesian basis functions of B1  symmetry.
 There are    25 symmetry adapted cartesian basis functions of B2  symmetry.
 There are    36 symmetry adapted basis functions of A1  symmetry.
 There are     7 symmetry adapted basis functions of A2  symmetry.
 There are    14 symmetry adapted basis functions of B1  symmetry.
 There are    25 symmetry adapted basis functions of B2  symmetry.
    82 basis functions,   198 primitive gaussians,    82 cartesian basis functions
    61 alpha electrons       61 beta electrons
       nuclear repulsion energy       787.0965085732 Hartrees.
 NAtoms=    4 NActive=    4 NUniq=    3 SFac= 1.78D+00 NAtFMM=   60 NAOKFM=F Big=F
 Integral buffers will be    131072 words long.
 Raffenetti 1 integral format.
 Two-electron integral symmetry is turned on.
 One-electron integrals computed using PRISM.
 NBasis=    82 RedAO= T EigKep=  4.89D-03  NBF=    36     7    14    25
 NBsUse=    82 1.00D-06 EigRej= -1.00D+00 NBFU=    36     7    14    25
 Initial guess from the checkpoint file:  "clbr3.chk"
 B after Tr=    -0.000000    0.000000   -0.000000
         Rot=    1.000000    0.000000    0.000000   -0.000000 Ang=   0.00 deg.
 Initial guess orbital symmetries:
       Occupied  (A1) (A1) (B2) (A1) (A1) (B2) (A1) (A1) (B2) (B1)
                 (A1) (B2) (A1) (B2) (B1) (A2) (A1) (A1) (A1) (B2)
                 (A1) (B2) (B1) (A1) (B1) (B2) (A1) (B2) (A1) (B2)
                 (B1) (A2) (A1) (B1) (B2) (A1) (A2) (B2) (A1) (A1)
                 (B2) (B1) (A2) (B1) (A2) (B2) (A1) (A1) (A1) (B2)
                 (A1) (B2) (A1) (B1) (B2) (B1) (A2) (B2) (A1) (B1)
                 (A1)
       Virtual   (A1) (B2) (A1) (B1) (A1) (B2) (B2) (A1) (B1) (A1)
                 (A2) (B2) (A1) (B1) (A1) (B2) (A1) (B2) (A1) (B2)
                 (A1)
 ExpMin= 1.65D-01 ExpMax= 6.10D+03 ExpMxC= 6.10D+03 IAcc=3 IRadAn=         5 AccDes= 0.00D+00
 Harris functional with IExCor=  205 and IRadAn=       5 diagonalized for initial guess.
 HarFok:  IExCor=  205 AccDes= 0.00D+00 IRadAn=         5 IDoV= 1 UseB2=F ITyADJ=14
 ICtDFT=  3500011 ScaDFX=  1.000000  1.000000  1.000000  1.000000
 FoFCou: FMM=F IPFlag=           0 FMFlag=      100000 FMFlg1=           0
         NFxFlg=           0 DoJE=T BraDBF=F KetDBF=T FulRan=T
         wScrn=  0.000000 ICntrl=       500 IOpCl=  0 I1Cent=   200000004 NGrid=           0
         NMat0=    1 NMatS0=      1 NMatT0=    0 NMatD0=    1 NMtDS0=    0 NMtDT0=    0
 Petite list used in FoFCou.
 Keep R1 ints in memory in symmetry-blocked form, NReq=7345167.
 Requested convergence on RMS density matrix=1.00D-08 within 128 cycles.
 Requested convergence on MAX density matrix=1.00D-06.
 Requested convergence on             energy=1.00D-06.
 No special actions if energy rises.
 SCF Done:  E(RHF) =  -8137.27648550     A.U. after   15 cycles
            NFock= 15  Conv=0.37D-08     -V/T= 1.9969
 ExpMin= 1.65D-01 ExpMax= 6.10D+03 ExpMxC= 6.10D+03 IAcc=3 IRadAn=         5 AccDes= 0.00D+00
 HarFok:  IExCor=  205 AccDes= 0.00D+00 IRadAn=         5 IDoV=-2 UseB2=F ITyADJ=14
 ICtDFT= 12500011 ScaDFX=  1.000000  1.000000  1.000000  1.000000
 GSVD:  LWork=       -1280 too small for GESVD, short by        5600 words or        5600 for optimal perf.
 Range of M.O.s used for correlation:    33    82
 NBasis=    82 NAE=    61 NBE=    61 NFC=    32 NFV=     0
 NROrb=     50 NOA=    29 NOB=    29 NVA=    21 NVB=    21
 Fully direct method using O(ONN) memory.
 JobTyp=1 Pass  1:  I=  33 to  61 NPSUse=  1 ParTrn=F ParDer=F DoDerP=T.
 Spin components of T(2) and E(2):
     alpha-alpha T2 =       0.1265937950D-01 E2=     -0.2304615868D-01
     alpha-beta  T2 =       0.1837527419D+00 E2=     -0.1807217015D+00
     beta-beta   T2 =       0.1265937950D-01 E2=     -0.2304615868D-01
 ANorm=    0.1099577874D+01
 E2 =    -0.2268140188D+00 EUMP2 =    -0.81375032995180D+04
          IDoAtm=1111
          Differentiating once with respect to electric field.
                with respect to dipole field.
          Differentiating once with respect to nuclear coordinates.
 Keep R1 ints in memory in symmetry-blocked form, NReq=7345933.
          There are     1 degrees of freedom in the 1st order CPHF.  IDoFFX=0 NUNeed=     1.
 LinEq1:  Iter=  0 NonCon=     1 RMS=6.85D-03 Max=1.55D-01 NDo=     1
 AX will form     1 AO Fock derivatives at one time.
 LinEq1:  Iter=  1 NonCon=     1 RMS=1.87D-03 Max=5.41D-02 NDo=     1
 LinEq1:  Iter=  2 NonCon=     1 RMS=7.27D-04 Max=1.81D-02 NDo=     1
 LinEq1:  Iter=  3 NonCon=     1 RMS=2.44D-04 Max=3.75D-03 NDo=     1
 LinEq1:  Iter=  4 NonCon=     1 RMS=1.36D-04 Max=2.21D-03 NDo=     1
 LinEq1:  Iter=  5 NonCon=     1 RMS=1.98D-05 Max=2.59D-04 NDo=     1
 LinEq1:  Iter=  6 NonCon=     1 RMS=4.04D-06 Max=7.48D-05 NDo=     1
 LinEq1:  Iter=  7 NonCon=     1 RMS=1.16D-06 Max=2.96D-05 NDo=     1
 LinEq1:  Iter=  8 NonCon=     1 RMS=2.47D-07 Max=3.86D-06 NDo=     1
 LinEq1:  Iter=  9 NonCon=     1 RMS=4.22D-08 Max=5.80D-07 NDo=     1
 LinEq1:  Iter= 10 NonCon=     1 RMS=5.94D-09 Max=8.32D-08 NDo=     1
 LinEq1:  Iter= 11 NonCon=     1 RMS=7.53D-10 Max=9.17D-09 NDo=     1
 LinEq1:  Iter= 12 NonCon=     1 RMS=7.58D-11 Max=1.49D-09 NDo=     1
 LinEq1:  Iter= 13 NonCon=     0 RMS=9.55D-12 Max=1.60D-10 NDo=     1
 Linear equations converged to 1.000D-10 1.000D-09 after    13 iterations.
 End of Minotr F.D. properties file   721 does not exist.
 End of Minotr F.D. properties file   722 does not exist.
 End of Minotr F.D. properties file   788 does not exist.
 Calling FoFJK, ICntrl=  10002127 FMM=F ISym2X=1 I1Cent= 0 IOpClX= 0 NMat=1 NMatS=1 NMatT=0.
 ***** Axes restored to original set *****
 -------------------------------------------------------------------
 Center     Atomic                   Forces (Hartrees/Bohr)
 Number     Number              X              Y              Z
 -------------------------------------------------------------------
      1       17          -0.006484728    0.011231878    0.000000000
      2       35           0.000636931   -0.001103197    0.002814457
      3       35           0.000636931   -0.001103197   -0.002814457
      4       35           0.005210866   -0.009025484    0.000000000
 -------------------------------------------------------------------
 Cartesian Forces:  Max     0.011231878 RMS     0.004965775

 GradGradGradGradGradGradGradGradGradGradGradGradGradGradGradGradGradGrad
 Berny optimization.
 Using GEDIIS/GDIIS optimizer.
 FormGI is forming the generalized inverse of G from B-inverse, IUseBI=4.
 Internal  Forces:  Max     0.010421731 RMS     0.004837745
 Search for a local minimum.
 Step number   4 out of a maximum of   20
 All quantities printed in internal units (Hartrees-Bohrs-Radians)
 Mixed Optimization -- RFO/linear search
 Update second derivatives using D2CorX and points    3    4
 The second derivative matrix:
                          R1        R2        R3        A1        A2
           R1           0.12902
           R2          -0.03353   0.12902
           R3          -0.01148  -0.01148   0.16490
           A1          -0.01629  -0.01629  -0.00885   0.24379
           A2          -0.01629  -0.01629  -0.00885  -0.00621   0.24379
           A3           0.00911   0.00911   0.00898   0.00137   0.00137
           A4           0.00000   0.00000   0.00000   0.00000   0.00000
           D1          -0.00000  -0.00000  -0.00000  -0.00000  -0.00000
                          A3        A4        D1
           A3           0.00530
           A4          -0.00000   0.00230
           D1          -0.00000   0.00000   0.00230
 ITU=  0  0  1  0
 Use linear search instead of GDIIS.
     Eigenvalues ---    0.00230   0.07932   0.09706   0.16256   0.16855
     Eigenvalues ---    0.25000
 RFO step:  Lambda=-1.17487500D-03 EMin= 2.30000000D-03
 Quartic linear search produced a step of -0.10649.
 Iteration  1 RMS(Cart)=  0.06002625 RMS(Int)=  0.00101539
 Iteration  2 RMS(Cart)=  0.00104373 RMS(Int)=  0.00000018
 Iteration  3 RMS(Cart)=  0.00000030 RMS(Int)=  0.00000001
 ClnCor:  largest displacement from symmetrization is 1.52D-08 for atom     1.
 Variable       Old X    -DE/DX   Delta X   Delta X   Delta X     New X
                                 (Linear)    (Quad)   (Total)
    R1        5.18982  -0.00241  -0.06556   0.00084  -0.06472   5.12510
    R2        5.18982  -0.00241  -0.06556   0.00084  -0.06472   5.12510
    R3        4.77030  -0.01042  -0.04195  -0.04239  -0.08433   4.68597
    A1        1.82120   0.00334  -0.01410   0.04131   0.02721   1.84841
    A2        1.82120   0.00334  -0.01410   0.04131   0.02721   1.84841
    A3        3.64240   0.00668  -0.02819   0.08261   0.05442   3.69682
    A4        3.14159   0.00000   0.00000  -0.00000  -0.00000   3.14159
    D1       -0.00000   0.00000  -0.00000  -0.00000   0.00000   0.00000
         Item               Value     Threshold  Converged?
 Maximum Force            0.010422     0.000450     NO 
 RMS     Force            0.004838     0.000300     NO 
 Maximum Displacement     0.099094     0.001800     NO 
 RMS     Displacement     0.060245     0.001200     NO 
 Predicted change in Energy=-6.376926D-04
 GradGradGradGradGradGradGradGradGradGradGradGradGradGradGradGradGradGrad

                          Input orientation:                          
 ---------------------------------------------------------------------
 Center     Atomic      Atomic             Coordinates (Angstroms)
 Number     Number       Type             X           Y           Z
 ---------------------------------------------------------------------
      1         17           0        0.509332    1.489790    0.000000
      2         35           0        0.880971    0.846092   -2.608245
      3         35           0        0.880971    0.846092    2.608245
      4         35           0       -0.730521    3.637279    0.000000
 ---------------------------------------------------------------------
                    Distance matrix (angstroms):
                    1          2          3          4
     1  Cl   0.000000
     2  Br   2.712085   0.000000
     3  Br   2.712085   5.216490   0.000000
     4  Br   2.479707   4.146151   4.146151   0.000000
 Stoichiometry    Br3Cl
 Framework group  C2V[C2(ClBr),SGV(Br2)]
 Deg. of freedom     3
 Full point group                 C2V     NOp   4
 Largest Abelian subgroup         C2V     NOp   4
 Largest concise Abelian subgroup C2      NOp   2
                         Standard orientation:                         
 ---------------------------------------------------------------------
 Center     Atomic      Atomic             Coordinates (Angstroms)
 Number     Number       Type             X           Y           Z
 ---------------------------------------------------------------------
      1         17           0        0.000000   -0.000000   -0.284920
      2         35           0        0.000000    2.608245   -1.028198
      3         35           0       -0.000000   -2.608245   -1.028198
      4         35           0       -0.000000    0.000000    2.194786
 ---------------------------------------------------------------------
 Rotational constants (GHZ):           0.9191124           0.4706657           0.3112689
 Standard basis: 3-21G (6D, 7F)
 There are    36 symmetry adapted cartesian basis functions of A1  symmetry.
 There are     7 symmetry adapted cartesian basis functions of A2  symmetry.
 There are    14 symmetry adapted cartesian basis functions of B1  symmetry.
 There are    25 symmetry adapted cartesian basis functions of B2  symmetry.
 There are    36 symmetry adapted basis functions of A1  symmetry.
 There are     7 symmetry adapted basis functions of A2  symmetry.
 There are    14 symmetry adapted basis functions of B1  symmetry.
 There are    25 symmetry adapted basis functions of B2  symmetry.
    82 basis functions,   198 primitive gaussians,    82 cartesian basis functions
    61 alpha electrons       61 beta electrons
       nuclear repulsion energy       796.1292895451 Hartrees.
 NAtoms=    4 NActive=    4 NUniq=    3 SFac= 1.78D+00 NAtFMM=   60 NAOKFM=F Big=F
 Integral buffers will be    131072 words long.
 Raffenetti 1 integral format.
 Two-electron integral symmetry is turned on.
 One-electron integrals computed using PRISM.
 NBasis=    82 RedAO= T EigKep=  4.89D-03  NBF=    36     7    14    25
 NBsUse=    82 1.00D-06 EigRej= -1.00D+00 NBFU=    36     7    14    25
 Initial guess from the checkpoint file:  "clbr3.chk"
 B after Tr=     0.000000   -0.000000    0.000000
         Rot=    1.000000   -0.000000    0.000000    0.000000 Ang=   0.00 deg.
 Initial guess orbital symmetries:
       Occupied  (A1) (B2) (A1) (A1) (A1) (B2) (A1) (A1) (B2) (B1)
                 (B2) (A1) (A1) (B2) (B1) (A2) (A1) (A1) (B2) (A1)
                 (A1) (B2) (B1) (A1) (B2) (B1) (A1) (B2) (A1) (B2)
                 (B1) (A2) (A1) (B2) (B1) (A2) (A1) (B2) (A1) (A1)
                 (B2) (B1) (A2) (B1) (A2) (B2) (A1) (A1) (A1) (B2)
                 (A1) (B1) (A1) (B2) (B2) (B1) (A2) (B2) (A1) (B1)
                 (A1)
       Virtual   (A1) (B2) (A1) (B1) (A1) (B2) (B2) (A1) (B1) (A1)
                 (A2) (B2) (B1) (B2) (A1) (A1) (A1) (B2) (A1) (A1)
                 (B2)
 ExpMin= 1.65D-01 ExpMax= 6.10D+03 ExpMxC= 6.10D+03 IAcc=3 IRadAn=         5 AccDes= 0.00D+00
 Harris functional with IExCor=  205 and IRadAn=       5 diagonalized for initial guess.
 HarFok:  IExCor=  205 AccDes= 0.00D+00 IRadAn=         5 IDoV= 1 UseB2=F ITyADJ=14
 ICtDFT=  3500011 ScaDFX=  1.000000  1.000000  1.000000  1.000000
 FoFCou: FMM=F IPFlag=           0 FMFlag=      100000 FMFlg1=           0
         NFxFlg=           0 DoJE=T BraDBF=F KetDBF=T FulRan=T
         wScrn=  0.000000 ICntrl=       500 IOpCl=  0 I1Cent=   200000004 NGrid=           0
         NMat0=    1 NMatS0=      1 NMatT0=    0 NMatD0=    1 NMtDS0=    0 NMtDT0=    0
 Petite list used in FoFCou.
 Keep R1 ints in memory in symmetry-blocked form, NReq=7345167.
 Requested convergence on RMS density matrix=1.00D-08 within 128 cycles.
 Requested convergence on MAX density matrix=1.00D-06.
 Requested convergence on             energy=1.00D-06.
 No special actions if energy rises.
 SCF Done:  E(RHF) =  -8137.28010888     A.U. after   13 cycles
            NFock= 13  Conv=0.28D-08     -V/T= 1.9969
 ExpMin= 1.65D-01 ExpMax= 6.10D+03 ExpMxC= 6.10D+03 IAcc=3 IRadAn=         5 AccDes= 0.00D+00
 HarFok:  IExCor=  205 AccDes= 0.00D+00 IRadAn=         5 IDoV=-2 UseB2=F ITyADJ=14
 ICtDFT= 12500011 ScaDFX=  1.000000  1.000000  1.000000  1.000000
 GSVD:  LWork=       -1280 too small for GESVD, short by        5600 words or        5600 for optimal perf.
 Range of M.O.s used for correlation:    33    82
 NBasis=    82 NAE=    61 NBE=    61 NFC=    32 NFV=     0
 NROrb=     50 NOA=    29 NOB=    29 NVA=    21 NVB=    21
 Fully direct method using O(ONN) memory.
 JobTyp=1 Pass  1:  I=  33 to  61 NPSUse=  1 ParTrn=F ParDer=F DoDerP=T.
 Spin components of T(2) and E(2):
     alpha-alpha T2 =       0.1254471529D-01 E2=     -0.2299131388D-01
     alpha-beta  T2 =       0.1764148046D+00 E2=     -0.1784486449D+00
     beta-beta   T2 =       0.1254471529D-01 E2=     -0.2299131388D-01
 ANorm=    0.1096131486D+01
 E2 =    -0.2244312727D+00 EUMP2 =    -0.81375045401577D+04
          IDoAtm=1111
          Differentiating once with respect to electric field.
                with respect to dipole field.
          Differentiating once with respect to nuclear coordinates.
 Keep R1 ints in memory in symmetry-blocked form, NReq=7345933.
          There are     1 degrees of freedom in the 1st order CPHF.  IDoFFX=0 NUNeed=     1.
 LinEq1:  Iter=  0 NonCon=     1 RMS=6.67D-03 Max=1.55D-01 NDo=     1
 AX will form     1 AO Fock derivatives at one time.
 LinEq1:  Iter=  1 NonCon=     1 RMS=1.68D-03 Max=4.90D-02 NDo=     1
 LinEq1:  Iter=  2 NonCon=     1 RMS=5.87D-04 Max=1.42D-02 NDo=     1
 LinEq1:  Iter=  3 NonCon=     1 RMS=2.03D-04 Max=3.08D-03 NDo=     1
 LinEq1:  Iter=  4 NonCon=     1 RMS=1.09D-04 Max=1.81D-03 NDo=     1
 LinEq1:  Iter=  5 NonCon=     1 RMS=1.83D-05 Max=2.26D-04 NDo=     1
 LinEq1:  Iter=  6 NonCon=     1 RMS=4.23D-06 Max=9.97D-05 NDo=     1
 LinEq1:  Iter=  7 NonCon=     1 RMS=1.33D-06 Max=2.97D-05 NDo=     1
 LinEq1:  Iter=  8 NonCon=     1 RMS=2.40D-07 Max=3.74D-06 NDo=     1
 LinEq1:  Iter=  9 NonCon=     1 RMS=3.56D-08 Max=4.15D-07 NDo=     1
 LinEq1:  Iter= 10 NonCon=     1 RMS=4.63D-09 Max=6.77D-08 NDo=     1
 LinEq1:  Iter= 11 NonCon=     1 RMS=6.62D-10 Max=7.28D-09 NDo=     1
 LinEq1:  Iter= 12 NonCon=     1 RMS=6.99D-11 Max=1.27D-09 NDo=     1
 LinEq1:  Iter= 13 NonCon=     0 RMS=8.45D-12 Max=1.27D-10 NDo=     1
 Linear equations converged to 1.000D-10 1.000D-09 after    13 iterations.
 End of Minotr F.D. properties file   721 does not exist.
 End of Minotr F.D. properties file   722 does not exist.
 End of Minotr F.D. properties file   788 does not exist.
 Calling FoFJK, ICntrl=  10002127 FMM=F ISym2X=1 I1Cent= 0 IOpClX= 0 NMat=1 NMatS=1 NMatT=0.
 ***** Axes restored to original set *****
 -------------------------------------------------------------------
 Center     Atomic                   Forces (Hartrees/Bohr)
 Number     Number              X              Y              Z
 -------------------------------------------------------------------
      1       17          -0.002652304    0.004593925   -0.000000000
      2       35           0.000761339   -0.001318678    0.000850726
      3       35           0.000761339   -0.001318678   -0.000850726
      4       35           0.001129626   -0.001956569   -0.000000000
 -------------------------------------------------------------------
 Cartesian Forces:  Max     0.004593925 RMS     0.001810332

 GradGradGradGradGradGradGradGradGradGradGradGradGradGradGradGradGradGrad
 Berny optimization.
 Using GEDIIS/GDIIS optimizer.
 FormGI is forming the generalized inverse of G from B-inverse, IUseBI=4.
 Internal  Forces:  Max     0.005800001 RMS     0.002643047
 Search for a local minimum.
 Step number   5 out of a maximum of   20
 All quantities printed in internal units (Hartrees-Bohrs-Radians)
 Mixed Optimization -- RFO/linear search
 Update second derivatives using D2CorX and points    4    5
 DE= -1.24D-03 DEPred=-6.38D-04 R= 1.95D+00
 TightC=F SS=  1.41D+00  RLast= 1.41D-01 DXNew= 8.4853D-01 4.2355D-01
 Trust test= 1.95D+00 RLast= 1.41D-01 DXMaxT set to 5.05D-01
 The second derivative matrix:
                          R1        R2        R3        A1        A2
           R1           0.11870
           R2          -0.04386   0.11870
           R3          -0.02705  -0.02705   0.16006
           A1           0.00679   0.00679   0.04068   0.20382
           A2           0.00679   0.00679   0.04068  -0.04618   0.20382
           A3           0.00336   0.00336  -0.00697   0.00848   0.00848
           A4          -0.00000  -0.00000  -0.00000   0.00000   0.00000
           D1          -0.00000  -0.00000   0.00000  -0.00000  -0.00000
                          A3        A4        D1
           A3           0.00493
           A4          -0.00000   0.00230
           D1          -0.00000   0.00000   0.00230
 ITU=  1  0  0  1  0
 Use linear search instead of GDIIS.
     Eigenvalues ---    0.00230   0.04107   0.08198   0.16256   0.17899
     Eigenvalues ---    0.25000
 RFO step:  Lambda=-5.68150766D-04 EMin= 2.30000000D-03
 Quartic linear search produced a step of  0.61461.
 Iteration  1 RMS(Cart)=  0.09509169 RMS(Int)=  0.00344938
 Iteration  2 RMS(Cart)=  0.00327956 RMS(Int)=  0.00000033
 Iteration  3 RMS(Cart)=  0.00000073 RMS(Int)=  0.00000001
 ClnCor:  largest displacement from symmetrization is 1.19D-08 for atom     1.
 Variable       Old X    -DE/DX   Delta X   Delta X   Delta X     New X
                                 (Linear)    (Quad)   (Total)
    R1        5.12510  -0.00040  -0.03978   0.00819  -0.03158   5.09351
    R2        5.12510  -0.00040  -0.03978   0.00819  -0.03158   5.09351
    R3        4.68597  -0.00226  -0.05183   0.00759  -0.04425   4.64172
    A1        1.84841   0.00290   0.01672   0.03496   0.05168   1.90009
    A2        1.84841   0.00290   0.01672   0.03496   0.05168   1.90009
    A3        3.69682   0.00580   0.03345   0.06992   0.10336   3.80018
    A4        3.14159   0.00000   0.00000   0.00000   0.00000   3.14159
    D1       -0.00000   0.00000   0.00000   0.00000   0.00000   0.00000
         Item               Value     Threshold  Converged?
 Maximum Force            0.005800     0.000450     NO 
 RMS     Force            0.002643     0.000300     NO 
 Maximum Displacement     0.114599     0.001800     NO 
 RMS     Displacement     0.095743     0.001200     NO 
 Predicted change in Energy=-5.512417D-04
 GradGradGradGradGradGradGradGradGradGradGradGradGradGradGradGradGradGrad

                          Input orientation:                          
 ---------------------------------------------------------------------
 Center     Atomic      Atomic             Coordinates (Angstroms)
 Number     Number       Type             X           Y           Z
 ---------------------------------------------------------------------
      1         17           0        0.474320    1.550433    0.000000
      2         35           0        0.910130    0.795588   -2.550549
      3         35           0        0.910130    0.795588    2.550549
      4         35           0       -0.753827    3.677645    0.000000
 ---------------------------------------------------------------------
                    Distance matrix (angstroms):
                    1          2          3          4
     1  Cl   0.000000
     2  Br   2.695371   0.000000
     3  Br   2.695371   5.101099   0.000000
     4  Br   2.456293   4.192888   4.192888   0.000000
 Stoichiometry    Br3Cl
 Framework group  C2V[C2(ClBr),SGV(Br2)]
 Deg. of freedom     3
 Full point group                 C2V     NOp   4
 Largest Abelian subgroup         C2V     NOp   4
 Largest concise Abelian subgroup C2      NOp   2
                         Standard orientation:                         
 ---------------------------------------------------------------------
 Center     Atomic      Atomic             Coordinates (Angstroms)
 Number     Number       Type             X           Y           Z
 ---------------------------------------------------------------------
      1         17           0        0.000000   -0.000000   -0.204564
      2         35           0        0.000000    2.550549   -1.076184
      3         35           0       -0.000000   -2.550549   -1.076184
      4         35           0       -0.000000    0.000000    2.251729
 ---------------------------------------------------------------------
 Rotational constants (GHZ):           0.8647797           0.4922002           0.3136706
 Standard basis: 3-21G (6D, 7F)
 There are    36 symmetry adapted cartesian basis functions of A1  symmetry.
 There are     7 symmetry adapted cartesian basis functions of A2  symmetry.
 There are    14 symmetry adapted cartesian basis functions of B1  symmetry.
 There are    25 symmetry adapted cartesian basis functions of B2  symmetry.
 There are    36 symmetry adapted basis functions of A1  symmetry.
 There are     7 symmetry adapted basis functions of A2  symmetry.
 There are    14 symmetry adapted basis functions of B1  symmetry.
 There are    25 symmetry adapted basis functions of B2  symmetry.
    82 basis functions,   198 primitive gaussians,    82 cartesian basis functions
    61 alpha electrons       61 beta electrons
       nuclear repulsion energy       798.1049431654 Hartrees.
 NAtoms=    4 NActive=    4 NUniq=    3 SFac= 1.78D+00 NAtFMM=   60 NAOKFM=F Big=F
 Integral buffers will be    131072 words long.
 Raffenetti 1 integral format.
 Two-electron integral symmetry is turned on.
 One-electron integrals computed using PRISM.
 NBasis=    82 RedAO= T EigKep=  4.89D-03  NBF=    36     7    14    25
 NBsUse=    82 1.00D-06 EigRej= -1.00D+00 NBFU=    36     7    14    25
 Initial guess from the checkpoint file:  "clbr3.chk"
 B after Tr=    -0.000000    0.000000   -0.000000
         Rot=    1.000000    0.000000    0.000000    0.000000 Ang=   0.00 deg.
 Initial guess orbital symmetries:
       Occupied  (A1) (B2) (A1) (A1) (A1) (B2) (A1) (A1) (B2) (B1)
                 (B2) (A1) (A1) (B2) (B1) (A2) (A1) (A1) (B2) (A1)
                 (A1) (B2) (B1) (A1) (B2) (B1) (A1) (B2) (A1) (B2)
                 (B1) (A2) (A1) (B2) (B1) (A2) (A1) (B2) (A1) (A1)
                 (B2) (B1) (A2) (B1) (A2) (B2) (A1) (A1) (A1) (B2)
                 (A1) (B1) (A1) (B2) (B2) (B1) (A2) (B2) (A1) (B1)
                 (A1)
       Virtual   (A1) (B2) (A1) (B1) (A1) (B2) (B2) (A1) (B1) (A1)
                 (A2) (B2) (B1) (A1) (B2) (A1) (A1) (B2) (A1) (A1)
                 (B2)
 ExpMin= 1.65D-01 ExpMax= 6.10D+03 ExpMxC= 6.10D+03 IAcc=3 IRadAn=         5 AccDes= 0.00D+00
 Harris functional with IExCor=  205 and IRadAn=       5 diagonalized for initial guess.
 HarFok:  IExCor=  205 AccDes= 0.00D+00 IRadAn=         5 IDoV= 1 UseB2=F ITyADJ=14
 ICtDFT=  3500011 ScaDFX=  1.000000  1.000000  1.000000  1.000000
 FoFCou: FMM=F IPFlag=           0 FMFlag=      100000 FMFlg1=           0
         NFxFlg=           0 DoJE=T BraDBF=F KetDBF=T FulRan=T
         wScrn=  0.000000 ICntrl=       500 IOpCl=  0 I1Cent=   200000004 NGrid=           0
         NMat0=    1 NMatS0=      1 NMatT0=    0 NMatD0=    1 NMtDS0=    0 NMtDT0=    0
 Petite list used in FoFCou.
 Keep R1 ints in memory in symmetry-blocked form, NReq=7345167.
 Requested convergence on RMS density matrix=1.00D-08 within 128 cycles.
 Requested convergence on MAX density matrix=1.00D-06.
 Requested convergence on             energy=1.00D-06.
 No special actions if energy rises.
 SCF Done:  E(RHF) =  -8137.28154452     A.U. after   13 cycles
            NFock= 13  Conv=0.26D-08     -V/T= 1.9969
 ExpMin= 1.65D-01 ExpMax= 6.10D+03 ExpMxC= 6.10D+03 IAcc=3 IRadAn=         5 AccDes= 0.00D+00
 HarFok:  IExCor=  205 AccDes= 0.00D+00 IRadAn=         5 IDoV=-2 UseB2=F ITyADJ=14
 ICtDFT= 12500011 ScaDFX=  1.000000  1.000000  1.000000  1.000000
 GSVD:  LWork=       -1280 too small for GESVD, short by        5600 words or        5600 for optimal perf.
 Range of M.O.s used for correlation:    33    82
 NBasis=    82 NAE=    61 NBE=    61 NFC=    32 NFV=     0
 NROrb=     50 NOA=    29 NOB=    29 NVA=    21 NVB=    21
 Fully direct method using O(ONN) memory.
 JobTyp=1 Pass  1:  I=  33 to  61 NPSUse=  1 ParTrn=F ParDer=F DoDerP=T.
 Spin components of T(2) and E(2):
     alpha-alpha T2 =       0.1254736640D-01 E2=     -0.2303546846D-01
     alpha-beta  T2 =       0.1737602083D+00 E2=     -0.1776945950D+00
     beta-beta   T2 =       0.1254736640D-01 E2=     -0.2303546846D-01
 ANorm=    0.1094922345D+01
 E2 =    -0.2237655319D+00 EUMP2 =    -0.81375053100509D+04
          IDoAtm=1111
          Differentiating once with respect to electric field.
                with respect to dipole field.
          Differentiating once with respect to nuclear coordinates.
 Keep R1 ints in memory in symmetry-blocked form, NReq=7345933.
          There are     1 degrees of freedom in the 1st order CPHF.  IDoFFX=0 NUNeed=     1.
 LinEq1:  Iter=  0 NonCon=     1 RMS=6.40D-03 Max=1.51D-01 NDo=     1
 AX will form     1 AO Fock derivatives at one time.
 LinEq1:  Iter=  1 NonCon=     1 RMS=1.51D-03 Max=4.41D-02 NDo=     1
 LinEq1:  Iter=  2 NonCon=     1 RMS=4.99D-04 Max=1.16D-02 NDo=     1
 LinEq1:  Iter=  3 NonCon=     1 RMS=1.67D-04 Max=2.58D-03 NDo=     1
 LinEq1:  Iter=  4 NonCon=     1 RMS=8.01D-05 Max=1.41D-03 NDo=     1
 LinEq1:  Iter=  5 NonCon=     1 RMS=1.78D-05 Max=2.52D-04 NDo=     1
 LinEq1:  Iter=  6 NonCon=     1 RMS=4.51D-06 Max=1.13D-04 NDo=     1
 LinEq1:  Iter=  7 NonCon=     1 RMS=1.40D-06 Max=2.78D-05 NDo=     1
 LinEq1:  Iter=  8 NonCon=     1 RMS=2.32D-07 Max=3.58D-06 NDo=     1
 LinEq1:  Iter=  9 NonCon=     1 RMS=3.03D-08 Max=3.69D-07 NDo=     1
 LinEq1:  Iter= 10 NonCon=     1 RMS=2.25D-09 Max=2.77D-08 NDo=     1
 LinEq1:  Iter= 11 NonCon=     1 RMS=3.25D-10 Max=5.33D-09 NDo=     1
 LinEq1:  Iter= 12 NonCon=     0 RMS=4.59D-11 Max=4.03D-10 NDo=     1
 Linear equations converged to 1.000D-10 1.000D-09 after    12 iterations.
 End of Minotr F.D. properties file   721 does not exist.
 End of Minotr F.D. properties file   722 does not exist.
 End of Minotr F.D. properties file   788 does not exist.
 Calling FoFJK, ICntrl=  10002127 FMM=F ISym2X=1 I1Cent= 0 IOpClX= 0 NMat=1 NMatS=1 NMatT=0.
 ***** Axes restored to original set *****
 -------------------------------------------------------------------
 Center     Atomic                   Forces (Hartrees/Bohr)
 Number     Number              X              Y              Z
 -------------------------------------------------------------------
      1       17           0.000979228   -0.001696073   -0.000000000
      2       35           0.000595133   -0.001030801    0.000581246
      3       35           0.000595133   -0.001030801   -0.000581246
      4       35          -0.002169494    0.003757675   -0.000000000
 -------------------------------------------------------------------
 Cartesian Forces:  Max     0.003757675 RMS     0.001476808

 GradGradGradGradGradGradGradGradGradGradGradGradGradGradGradGradGradGrad
 Berny optimization.
 Using GEDIIS/GDIIS optimizer.
 FormGI is forming the generalized inverse of G from B-inverse, IUseBI=4.
 Internal  Forces:  Max     0.004462852 RMS     0.002468727
 Search for a local minimum.
 Step number   6 out of a maximum of   20
 All quantities printed in internal units (Hartrees-Bohrs-Radians)
 Mixed Optimization -- RFO/linear search
 Update second derivatives using D2CorX and points    4    5    6
 DE= -7.70D-04 DEPred=-5.51D-04 R= 1.40D+00
 TightC=F SS=  1.41D+00  RLast= 1.41D-01 DXNew= 8.4853D-01 4.2404D-01
 Trust test= 1.40D+00 RLast= 1.41D-01 DXMaxT set to 5.05D-01
 The second derivative matrix:
                          R1        R2        R3        A1        A2
           R1           0.11916
           R2          -0.04339   0.11916
           R3          -0.01895  -0.01895   0.27665
           A1           0.01024   0.01024   0.06574   0.16719
           A2           0.01024   0.01024   0.06574  -0.08281   0.16719
           A3           0.00252   0.00252  -0.02273  -0.00133  -0.00133
           A4          -0.00000  -0.00000  -0.00000   0.00000   0.00000
           D1          -0.00000  -0.00000  -0.00000  -0.00000  -0.00000
                          A3        A4        D1
           A3           0.00607
           A4          -0.00000   0.00230
           D1          -0.00000   0.00000   0.00230
 ITU=  1  1  0  0  1  0
 Use linear search instead of GDIIS.
     Eigenvalues ---    0.00230   0.01931   0.07906   0.16256   0.25000
     Eigenvalues ---    0.28445
 RFO step:  Lambda=-6.28201397D-04 EMin= 2.30000000D-03
 Quartic linear search produced a step of  0.94049.
 Iteration  1 RMS(Cart)=  0.16827176 RMS(Int)=  0.00987653
 Iteration  2 RMS(Cart)=  0.00929645 RMS(Int)=  0.00000131
 Iteration  3 RMS(Cart)=  0.00000293 RMS(Int)=  0.00000001
 Iteration  4 RMS(Cart)=  0.00000000 RMS(Int)=  0.00000001
 ClnCor:  largest displacement from symmetrization is 6.32D-09 for atom     1.
 Variable       Old X    -DE/DX   Delta X   Delta X   Delta X     New X
                                 (Linear)    (Quad)   (Total)
    R1        5.09351  -0.00017  -0.02970  -0.00553  -0.03523   5.05828
    R2        5.09351  -0.00017  -0.02970  -0.00553  -0.03523   5.05828
    R3        4.64172   0.00434  -0.04161   0.02532  -0.01629   4.62543
    A1        1.90009   0.00223   0.04861   0.03922   0.08782   1.98792
    A2        1.90009   0.00223   0.04861   0.03922   0.08782   1.98792
    A3        3.80018   0.00446   0.09721   0.07844   0.17565   3.97583
    A4        3.14159   0.00000   0.00000   0.00000  -0.00000   3.14159
    D1       -0.00000   0.00000   0.00000   0.00000   0.00000   0.00000
         Item               Value     Threshold  Converged?
 Maximum Force            0.004463     0.000450     NO 
 RMS     Force            0.002469     0.000300     NO 
 Maximum Displacement     0.195258     0.001800     NO 
 RMS     Displacement     0.170152     0.001200     NO 
 Predicted change in Energy=-5.851566D-04
 GradGradGradGradGradGradGradGradGradGradGradGradGradGradGradGradGradGrad

                          Input orientation:                          
 ---------------------------------------------------------------------
 Center     Atomic      Atomic             Coordinates (Angstroms)
 Number     Number       Type             X           Y           Z
 ---------------------------------------------------------------------
      1         17           0        0.420042    1.644445    0.000000
      2         35           0        0.962253    0.705308   -2.447223
      3         35           0        0.962253    0.705308    2.447223
      4         35           0       -0.803794    3.764192   -0.000000
 ---------------------------------------------------------------------
                    Distance matrix (angstroms):
                    1          2          3          4
     1  Cl   0.000000
     2  Br   2.676728   0.000000
     3  Br   2.676728   4.894446   0.000000
     4  Br   2.447673   4.297045   4.297045   0.000000
 Stoichiometry    Br3Cl
 Framework group  C2V[C2(ClBr),SGV(Br2)]
 Deg. of freedom     3
 Full point group                 C2V     NOp   4
 Largest Abelian subgroup         C2V     NOp   4
 Largest concise Abelian subgroup C2      NOp   2
                         Standard orientation:                         
 ---------------------------------------------------------------------
 Center     Atomic      Atomic             Coordinates (Angstroms)
 Number     Number       Type             X           Y           Z
 ---------------------------------------------------------------------
      1         17           0       -0.000000    0.000000   -0.079992
      2         35           0       -0.000000    2.447223   -1.164414
      3         35           0       -0.000000   -2.447223   -1.164414
      4         35           0        0.000000   -0.000000    2.367681
 ---------------------------------------------------------------------
 Rotational constants (GHZ):           0.7696474           0.5346408           0.3154862
 Standard basis: 3-21G (6D, 7F)
 There are    36 symmetry adapted cartesian basis functions of A1  symmetry.
 There are     7 symmetry adapted cartesian basis functions of A2  symmetry.
 There are    14 symmetry adapted cartesian basis functions of B1  symmetry.
 There are    25 symmetry adapted cartesian basis functions of B2  symmetry.
 There are    36 symmetry adapted basis functions of A1  symmetry.
 There are     7 symmetry adapted basis functions of A2  symmetry.
 There are    14 symmetry adapted basis functions of B1  symmetry.
 There are    25 symmetry adapted basis functions of B2  symmetry.
    82 basis functions,   198 primitive gaussians,    82 cartesian basis functions
    61 alpha electrons       61 beta electrons
       nuclear repulsion energy       798.0541058381 Hartrees.
 NAtoms=    4 NActive=    4 NUniq=    3 SFac= 1.78D+00 NAtFMM=   60 NAOKFM=F Big=F
 Integral buffers will be    131072 words long.
 Raffenetti 1 integral format.
 Two-electron integral symmetry is turned on.
 One-electron integrals computed using PRISM.
 NBasis=    82 RedAO= T EigKep=  4.89D-03  NBF=    36     7    14    25
 NBsUse=    82 1.00D-06 EigRej= -1.00D+00 NBFU=    36     7    14    25
 Initial guess from the checkpoint file:  "clbr3.chk"
 B after Tr=    -0.000000   -0.000000   -0.000000
         Rot=    1.000000   -0.000000    0.000000   -0.000000 Ang=   0.00 deg.
 Initial guess orbital symmetries:
       Occupied  (A1) (B2) (A1) (A1) (A1) (B2) (A1) (A1) (B2) (B1)
                 (B2) (A1) (A1) (B2) (B1) (A2) (A1) (A1) (A1) (B2)
                 (A1) (B2) (B1) (A1) (B2) (B1) (A1) (B2) (A1) (B2)
                 (B1) (A2) (A1) (B2) (B1) (A2) (A1) (B2) (A1) (A1)
                 (B2) (B1) (A2) (A2) (B1) (B2) (A1) (A1) (A1) (B2)
                 (A1) (B1) (A1) (B2) (B2) (B1) (A2) (B2) (A1) (B1)
                 (A1)
       Virtual   (B2) (A1) (A1) (B1) (A1) (B2) (B2) (A1) (B1) (A1)
                 (A2) (B2) (B1) (A1) (B2) (A1) (A1) (B2) (A1) (A1)
                 (B2)
 ExpMin= 1.65D-01 ExpMax= 6.10D+03 ExpMxC= 6.10D+03 IAcc=3 IRadAn=         5 AccDes= 0.00D+00
 Harris functional with IExCor=  205 and IRadAn=       5 diagonalized for initial guess.
 HarFok:  IExCor=  205 AccDes= 0.00D+00 IRadAn=         5 IDoV= 1 UseB2=F ITyADJ=14
 ICtDFT=  3500011 ScaDFX=  1.000000  1.000000  1.000000  1.000000
 FoFCou: FMM=F IPFlag=           0 FMFlag=      100000 FMFlg1=           0
         NFxFlg=           0 DoJE=T BraDBF=F KetDBF=T FulRan=T
         wScrn=  0.000000 ICntrl=       500 IOpCl=  0 I1Cent=   200000004 NGrid=           0
         NMat0=    1 NMatS0=      1 NMatT0=    0 NMatD0=    1 NMtDS0=    0 NMtDT0=    0
 Petite list used in FoFCou.
 Keep R1 ints in memory in symmetry-blocked form, NReq=7345167.
 Requested convergence on RMS density matrix=1.00D-08 within 128 cycles.
 Requested convergence on MAX density matrix=1.00D-06.
 Requested convergence on             energy=1.00D-06.
 No special actions if energy rises.
 SCF Done:  E(RHF) =  -8137.28255928     A.U. after   13 cycles
            NFock= 13  Conv=0.46D-08     -V/T= 1.9969
 ExpMin= 1.65D-01 ExpMax= 6.10D+03 ExpMxC= 6.10D+03 IAcc=3 IRadAn=         5 AccDes= 0.00D+00
 HarFok:  IExCor=  205 AccDes= 0.00D+00 IRadAn=         5 IDoV=-2 UseB2=F ITyADJ=14
 ICtDFT= 12500011 ScaDFX=  1.000000  1.000000  1.000000  1.000000
 GSVD:  LWork=       -1280 too small for GESVD, short by        5600 words or        5600 for optimal perf.
 Range of M.O.s used for correlation:    33    82
 NBasis=    82 NAE=    61 NBE=    61 NFC=    32 NFV=     0
 NROrb=     50 NOA=    29 NOB=    29 NVA=    21 NVB=    21
 Fully direct method using O(ONN) memory.
 JobTyp=1 Pass  1:  I=  33 to  61 NPSUse=  1 ParTrn=F ParDer=F DoDerP=T.
 Spin components of T(2) and E(2):
     alpha-alpha T2 =       0.1263743569D-01 E2=     -0.2316839503D-01
     alpha-beta  T2 =       0.1714609525D+00 E2=     -0.1772655591D+00
     beta-beta   T2 =       0.1263743569D-01 E2=     -0.2316839503D-01
 ANorm=    0.1093954215D+01
 E2 =    -0.2236023491D+00 EUMP2 =    -0.81375061616263D+04
          IDoAtm=1111
          Differentiating once with respect to electric field.
                with respect to dipole field.
          Differentiating once with respect to nuclear coordinates.
 Keep R1 ints in memory in symmetry-blocked form, NReq=7345933.
          There are     1 degrees of freedom in the 1st order CPHF.  IDoFFX=0 NUNeed=     1.
 LinEq1:  Iter=  0 NonCon=     1 RMS=5.99D-03 Max=1.42D-01 NDo=     1
 AX will form     1 AO Fock derivatives at one time.
 LinEq1:  Iter=  1 NonCon=     1 RMS=1.23D-03 Max=3.43D-02 NDo=     1
 LinEq1:  Iter=  2 NonCon=     1 RMS=4.06D-04 Max=8.81D-03 NDo=     1
 LinEq1:  Iter=  3 NonCon=     1 RMS=1.28D-04 Max=2.04D-03 NDo=     1
 LinEq1:  Iter=  4 NonCon=     1 RMS=4.62D-05 Max=8.65D-04 NDo=     1
 LinEq1:  Iter=  5 NonCon=     1 RMS=1.79D-05 Max=2.50D-04 NDo=     1
 LinEq1:  Iter=  6 NonCon=     1 RMS=5.54D-06 Max=1.39D-04 NDo=     1
 LinEq1:  Iter=  7 NonCon=     1 RMS=1.57D-06 Max=2.42D-05 NDo=     1
 LinEq1:  Iter=  8 NonCon=     1 RMS=2.48D-07 Max=4.10D-06 NDo=     1
 LinEq1:  Iter=  9 NonCon=     1 RMS=3.01D-08 Max=3.67D-07 NDo=     1
 LinEq1:  Iter= 10 NonCon=     1 RMS=2.17D-09 Max=2.04D-08 NDo=     1
 LinEq1:  Iter= 11 NonCon=     1 RMS=3.73D-10 Max=4.56D-09 NDo=     1
 LinEq1:  Iter= 12 NonCon=     0 RMS=5.14D-11 Max=5.95D-10 NDo=     1
 Linear equations converged to 1.000D-10 1.000D-09 after    12 iterations.
 End of Minotr F.D. properties file   721 does not exist.
 End of Minotr F.D. properties file   722 does not exist.
 End of Minotr F.D. properties file   788 does not exist.
 Calling FoFJK, ICntrl=  10002127 FMM=F ISym2X=1 I1Cent= 0 IOpClX= 0 NMat=1 NMatS=1 NMatT=0.
 ***** Axes restored to original set *****
 -------------------------------------------------------------------
 Center     Atomic                   Forces (Hartrees/Bohr)
 Number     Number              X              Y              Z
 -------------------------------------------------------------------
      1       17           0.004833840   -0.008372457   -0.000000000
      2       35           0.000195766   -0.000339077    0.000997232
      3       35           0.000195766   -0.000339077   -0.000997232
      4       35          -0.005225372    0.009050610   -0.000000000
 -------------------------------------------------------------------
 Cartesian Forces:  Max     0.009050610 RMS     0.004132973

 GradGradGradGradGradGradGradGradGradGradGradGradGradGradGradGradGradGrad
 Berny optimization.
 Using GEDIIS/GDIIS optimizer.
 FormGI is forming the generalized inverse of G from B-inverse, IUseBI=4.
 Internal  Forces:  Max     0.010450744 RMS     0.003877111
 Search for a local minimum.
 Step number   7 out of a maximum of   20
 All quantities printed in internal units (Hartrees-Bohrs-Radians)
 Mixed Optimization -- RFO/linear search
 Update second derivatives using D2CorX and points    4    5    6    7
 DE= -8.52D-04 DEPred=-5.85D-04 R= 1.46D+00
 TightC=F SS=  1.41D+00  RLast= 2.21D-01 DXNew= 8.4853D-01 6.6426D-01
 Trust test= 1.46D+00 RLast= 2.21D-01 DXMaxT set to 6.64D-01
 The second derivative matrix:
                          R1        R2        R3        A1        A2
           R1           0.11869
           R2          -0.04387   0.11869
           R3          -0.03163  -0.03163   0.42139
           A1           0.01005   0.01005   0.05154   0.14486
           A2           0.01005   0.01005   0.05154  -0.10514   0.14486
           A3           0.00537   0.00537  -0.05994  -0.00566  -0.00566
           A4          -0.00000  -0.00000  -0.00000   0.00000   0.00000
           D1          -0.00000  -0.00000  -0.00000  -0.00000  -0.00000
                          A3        A4        D1
           A3           0.01303
           A4          -0.00000   0.00230
           D1          -0.00000   0.00000   0.00230
 ITU=  1  1  1  0  0  1  0
 Use linear search instead of GDIIS.
     Eigenvalues ---    0.00230   0.00946   0.07387   0.16256   0.25000
     Eigenvalues ---    0.42727
 RFO step:  Lambda=-6.54971021D-04 EMin= 2.30000000D-03
 Quartic linear search produced a step of  0.79041.
 Iteration  1 RMS(Cart)=  0.20798441 RMS(Int)=  0.01415682
 Iteration  2 RMS(Cart)=  0.01833963 RMS(Int)=  0.00004061
 Iteration  3 RMS(Cart)=  0.00005393 RMS(Int)=  0.00000000
 Iteration  4 RMS(Cart)=  0.00000000 RMS(Int)=  0.00000000
 ClnCor:  largest displacement from symmetrization is 4.87D-09 for atom     1.
 Variable       Old X    -DE/DX   Delta X   Delta X   Delta X     New X
                                 (Linear)    (Quad)   (Total)
    R1        5.05828  -0.00075  -0.02785  -0.01609  -0.04394   5.01434
    R2        5.05828  -0.00075  -0.02785  -0.01609  -0.04394   5.01434
    R3        4.62543   0.01045  -0.01288   0.03544   0.02257   4.64800
    A1        1.98792   0.00128   0.06942   0.03903   0.10845   2.09637
    A2        1.98792   0.00128   0.06942   0.03903   0.10845   2.09637
    A3        3.97583   0.00257   0.13883   0.07807   0.21690   4.19274
    A4        3.14159   0.00000   0.00000   0.00000   0.00000   3.14159
    D1       -0.00000   0.00000   0.00000   0.00000   0.00000   0.00000
         Item               Value     Threshold  Converged?
 Maximum Force            0.010451     0.000450     NO 
 RMS     Force            0.003877     0.000300     NO 
 Maximum Displacement     0.286989     0.001800     NO 
 RMS     Displacement     0.221708     0.001200     NO 
 Predicted change in Energy=-6.510866D-04
 GradGradGradGradGradGradGradGradGradGradGradGradGradGradGradGradGradGrad

                          Input orientation:                          
 ---------------------------------------------------------------------
 Center     Atomic      Atomic             Coordinates (Angstroms)
 Number     Number       Type             X           Y           Z
 ---------------------------------------------------------------------
      1         17           0        0.359822    1.748748    0.000000
      2         35           0        1.025458    0.595834   -2.295355
      3         35           0        1.025458    0.595834    2.295355
      4         35           0       -0.869985    3.878838    0.000000
 ---------------------------------------------------------------------
                    Distance matrix (angstroms):
                    1          2          3          4
     1  Cl   0.000000
     2  Br   2.653476   0.000000
     3  Br   2.653476   4.590710   0.000000
     4  Br   2.459616   4.431645   4.431645   0.000000
 Stoichiometry    Br3Cl
 Framework group  C2V[C2(ClBr),SGV(Br2)]
 Deg. of freedom     3
 Full point group                 C2V     NOp   4
 Largest Abelian subgroup         C2V     NOp   4
 Largest concise Abelian subgroup C2      NOp   2
                         Standard orientation:                         
 ---------------------------------------------------------------------
 Center     Atomic      Atomic             Coordinates (Angstroms)
 Number     Number       Type             X           Y           Z
 ---------------------------------------------------------------------
      1         17           0       -0.000000   -0.000000    0.058216
      2         35           0       -0.000000    2.295355   -1.273054
      3         35           0        0.000000   -2.295355   -1.273054
      4         35           0       -0.000000   -0.000000    2.517832
 ---------------------------------------------------------------------
 Rotational constants (GHZ):           0.6682961           0.6077284           0.3182874
 Standard basis: 3-21G (6D, 7F)
 There are    36 symmetry adapted cartesian basis functions of A1  symmetry.
 There are     7 symmetry adapted cartesian basis functions of A2  symmetry.
 There are    14 symmetry adapted cartesian basis functions of B1  symmetry.
 There are    25 symmetry adapted cartesian basis functions of B2  symmetry.
 There are    36 symmetry adapted basis functions of A1  symmetry.
 There are     7 symmetry adapted basis functions of A2  symmetry.
 There are    14 symmetry adapted basis functions of B1  symmetry.
 There are    25 symmetry adapted basis functions of B2  symmetry.
    82 basis functions,   198 primitive gaussians,    82 cartesian basis functions
    61 alpha electrons       61 beta electrons
       nuclear repulsion energy       799.0901015627 Hartrees.
 NAtoms=    4 NActive=    4 NUniq=    3 SFac= 1.78D+00 NAtFMM=   60 NAOKFM=F Big=F
 Integral buffers will be    131072 words long.
 Raffenetti 1 integral format.
 Two-electron integral symmetry is turned on.
 One-electron integrals computed using PRISM.
 NBasis=    82 RedAO= T EigKep=  4.89D-03  NBF=    36     7    14    25
 NBsUse=    82 1.00D-06 EigRej= -1.00D+00 NBFU=    36     7    14    25
 Initial guess from the checkpoint file:  "clbr3.chk"
 B after Tr=     0.000000    0.000000   -0.000000
         Rot=    1.000000    0.000000   -0.000000   -0.000000 Ang=   0.00 deg.
 Initial guess orbital symmetries:
       Occupied  (A1) (A1) (B2) (A1) (A1) (B2) (A1) (A1) (B2) (B1)
                 (A1) (B2) (A1) (B2) (B1) (A2) (A1) (A1) (A1) (B2)
                 (A1) (B2) (B1) (A1) (B2) (B1) (A1) (B2) (A1) (B2)
                 (B1) (A2) (A1) (B2) (B1) (A2) (A1) (B2) (A1) (A1)
                 (B2) (B1) (A2) (A2) (B1) (B2) (A1) (A1) (A1) (B2)
                 (A1) (A1) (B1) (B2) (B1) (B2) (A2) (B2) (A1) (B1)
                 (A1)
       Virtual   (B2) (A1) (A1) (B1) (A1) (B2) (B2) (A1) (B1) (A1)
                 (A2) (B2) (B1) (B2) (A1) (A1) (B2) (A1) (A1) (A1)
                 (B2)
 ExpMin= 1.65D-01 ExpMax= 6.10D+03 ExpMxC= 6.10D+03 IAcc=3 IRadAn=         5 AccDes= 0.00D+00
 Harris functional with IExCor=  205 and IRadAn=       5 diagonalized for initial guess.
 HarFok:  IExCor=  205 AccDes= 0.00D+00 IRadAn=         5 IDoV= 1 UseB2=F ITyADJ=14
 ICtDFT=  3500011 ScaDFX=  1.000000  1.000000  1.000000  1.000000
 FoFCou: FMM=F IPFlag=           0 FMFlag=      100000 FMFlg1=           0
         NFxFlg=           0 DoJE=T BraDBF=F KetDBF=T FulRan=T
         wScrn=  0.000000 ICntrl=       500 IOpCl=  0 I1Cent=   200000004 NGrid=           0
         NMat0=    1 NMatS0=      1 NMatT0=    0 NMatD0=    1 NMtDS0=    0 NMtDT0=    0
 Petite list used in FoFCou.
 Keep R1 ints in memory in symmetry-blocked form, NReq=7345167.
 Requested convergence on RMS density matrix=1.00D-08 within 128 cycles.
 Requested convergence on MAX density matrix=1.00D-06.
 Requested convergence on             energy=1.00D-06.
 No special actions if energy rises.
 SCF Done:  E(RHF) =  -8137.28364136     A.U. after   13 cycles
            NFock= 13  Conv=0.16D-08     -V/T= 1.9969
 ExpMin= 1.65D-01 ExpMax= 6.10D+03 ExpMxC= 6.10D+03 IAcc=3 IRadAn=         5 AccDes= 0.00D+00
 HarFok:  IExCor=  205 AccDes= 0.00D+00 IRadAn=         5 IDoV=-2 UseB2=F ITyADJ=14
 ICtDFT= 12500011 ScaDFX=  1.000000  1.000000  1.000000  1.000000
 GSVD:  LWork=       -1280 too small for GESVD, short by        5600 words or        5600 for optimal perf.
 Range of M.O.s used for correlation:    33    82
 NBasis=    82 NAE=    61 NBE=    61 NFC=    32 NFV=     0
 NROrb=     50 NOA=    29 NOB=    29 NVA=    21 NVB=    21

 **** Warning!!: The largest alpha MO coefficient is  0.10778354D+02

 Fully direct method using O(ONN) memory.
 JobTyp=1 Pass  1:  I=  33 to  61 NPSUse=  1 ParTrn=F ParDer=F DoDerP=T.
 Spin components of T(2) and E(2):
     alpha-alpha T2 =       0.1274003494D-01 E2=     -0.2330112695D-01
     alpha-beta  T2 =       0.1684693483D+00 E2=     -0.1766974564D+00
     beta-beta   T2 =       0.1274003494D-01 E2=     -0.2330112695D-01
 ANorm=    0.1092679925D+01
 E2 =    -0.2232997103D+00 EUMP2 =    -0.81375069410703D+04
          IDoAtm=1111
          Differentiating once with respect to electric field.
                with respect to dipole field.
          Differentiating once with respect to nuclear coordinates.
 Keep R1 ints in memory in symmetry-blocked form, NReq=7345933.
          There are     1 degrees of freedom in the 1st order CPHF.  IDoFFX=0 NUNeed=     1.
 LinEq1:  Iter=  0 NonCon=     1 RMS=5.65D-03 Max=1.22D-01 NDo=     1
 AX will form     1 AO Fock derivatives at one time.
 LinEq1:  Iter=  1 NonCon=     1 RMS=7.93D-04 Max=1.35D-02 NDo=     1
 LinEq1:  Iter=  2 NonCon=     1 RMS=2.64D-04 Max=5.51D-03 NDo=     1
 LinEq1:  Iter=  3 NonCon=     1 RMS=9.72D-05 Max=1.71D-03 NDo=     1
 LinEq1:  Iter=  4 NonCon=     1 RMS=3.42D-05 Max=5.13D-04 NDo=     1
 LinEq1:  Iter=  5 NonCon=     1 RMS=1.47D-05 Max=2.41D-04 NDo=     1
 LinEq1:  Iter=  6 NonCon=     1 RMS=4.77D-06 Max=7.19D-05 NDo=     1
 LinEq1:  Iter=  7 NonCon=     1 RMS=1.33D-06 Max=1.73D-05 NDo=     1
 LinEq1:  Iter=  8 NonCon=     1 RMS=2.39D-07 Max=3.57D-06 NDo=     1
 LinEq1:  Iter=  9 NonCon=     1 RMS=3.22D-08 Max=3.64D-07 NDo=     1
 LinEq1:  Iter= 10 NonCon=     1 RMS=3.22D-09 Max=4.80D-08 NDo=     1
 LinEq1:  Iter= 11 NonCon=     1 RMS=5.23D-10 Max=5.73D-09 NDo=     1
 LinEq1:  Iter= 12 NonCon=     0 RMS=4.85D-11 Max=6.17D-10 NDo=     1
 Linear equations converged to 1.000D-10 1.000D-09 after    12 iterations.
 End of Minotr F.D. properties file   721 does not exist.
 End of Minotr F.D. properties file   722 does not exist.
 End of Minotr F.D. properties file   788 does not exist.
 Calling FoFJK, ICntrl=  10002127 FMM=F ISym2X=1 I1Cent= 0 IOpClX= 0 NMat=1 NMatS=1 NMatT=0.
 ***** Axes restored to original set *****
 -------------------------------------------------------------------
 Center     Atomic                   Forces (Hartrees/Bohr)
 Number     Number              X              Y              Z
 -------------------------------------------------------------------
      1       17           0.006939794   -0.012020077    0.000000000
      2       35          -0.000269552    0.000466878    0.000841046
      3       35          -0.000269552    0.000466878   -0.000841046
      4       35          -0.006400690    0.011086321    0.000000000
 -------------------------------------------------------------------
 Cartesian Forces:  Max     0.012020077 RMS     0.005465912

 GradGradGradGradGradGradGradGradGradGradGradGradGradGradGradGradGradGrad
 Berny optimization.
 Using GEDIIS/GDIIS optimizer.
 FormGI is forming the generalized inverse of G from B-inverse, IUseBI=4.
 Internal  Forces:  Max     0.012801381 RMS     0.004553850
 Search for a local minimum.
 Step number   8 out of a maximum of   20
 All quantities printed in internal units (Hartrees-Bohrs-Radians)
 Mixed Optimization -- RFO/linear search
 Update second derivatives using D2CorX and points    6    7    8
 DE= -7.79D-04 DEPred=-6.51D-04 R= 1.20D+00
 TightC=F SS=  1.41D+00  RLast= 2.74D-01 DXNew= 1.1171D+00 8.2126D-01
 Trust test= 1.20D+00 RLast= 2.74D-01 DXMaxT set to 8.21D-01
 The second derivative matrix:
                          R1        R2        R3        A1        A2
           R1           0.11898
           R2          -0.04358   0.11898
           R3          -0.03396  -0.03396   0.42969
           A1           0.01188   0.01188   0.02223   0.13639
           A2           0.01188   0.01188   0.02223  -0.11361   0.13639
           A3           0.00805   0.00805  -0.09154  -0.00262  -0.00262
           A4           0.00000   0.00000  -0.00000  -0.00000  -0.00000
           D1          -0.00000  -0.00000   0.00000   0.00000   0.00000
                          A3        A4        D1
           A3           0.02794
           A4          -0.00000   0.00230
           D1           0.00000   0.00000   0.00230
 ITU=  1  1  1  1  0  0  1  0
 Use linear search instead of GDIIS.
     Eigenvalues ---    0.00230   0.01048   0.07294   0.16256   0.25000
     Eigenvalues ---    0.44439
 RFO step:  Lambda=-4.24930855D-04 EMin= 2.30000000D-03
 Quartic linear search produced a step of  0.27474.
 Iteration  1 RMS(Cart)=  0.08619452 RMS(Int)=  0.00194739
 Iteration  2 RMS(Cart)=  0.00175037 RMS(Int)=  0.00000007
 Iteration  3 RMS(Cart)=  0.00000016 RMS(Int)=  0.00000001
 ClnCor:  largest displacement from symmetrization is 2.48D-09 for atom     1.
 Variable       Old X    -DE/DX   Delta X   Delta X   Delta X     New X
                                 (Linear)    (Quad)   (Total)
    R1        5.01434  -0.00100  -0.01207  -0.00313  -0.01520   4.99915
    R2        5.01434  -0.00100  -0.01207  -0.00313  -0.01520   4.99915
    R3        4.64800   0.01280   0.00620   0.03377   0.03997   4.68797
    A1        2.09637  -0.00007   0.02980   0.00955   0.03934   2.13571
    A2        2.09637  -0.00007   0.02980   0.00955   0.03934   2.13571
    A3        4.19274  -0.00015   0.05959   0.01909   0.07869   4.27142
    A4        3.14159   0.00000   0.00000  -0.00000  -0.00000   3.14159
    D1       -0.00000   0.00000  -0.00000  -0.00000   0.00000   0.00000
         Item               Value     Threshold  Converged?
 Maximum Force            0.012801     0.000450     NO 
 RMS     Force            0.004554     0.000300     NO 
 Maximum Displacement     0.115143     0.001800     NO 
 RMS     Displacement     0.086530     0.001200     NO 
 Predicted change in Energy=-2.827194D-04
 GradGradGradGradGradGradGradGradGradGradGradGradGradGradGradGradGradGrad

                          Input orientation:                          
 ---------------------------------------------------------------------
 Center     Atomic      Atomic             Coordinates (Angstroms)
 Number     Number       Type             X           Y           Z
 ---------------------------------------------------------------------
      1         17           0        0.341230    1.780951    0.000000
      2         35           0        1.049339    0.554471   -2.234424
      3         35           0        1.049339    0.554471    2.234424
      4         35           0       -0.899154    3.929360    0.000000
 ---------------------------------------------------------------------
                    Distance matrix (angstroms):
                    1          2          3          4
     1  Cl   0.000000
     2  Br   2.645434   0.000000
     3  Br   2.645434   4.468847   0.000000
     4  Br   2.480769   4.492120   4.492120   0.000000
 Stoichiometry    Br3Cl
 Framework group  C2V[C2(ClBr),SGV(Br2)]
 Deg. of freedom     3
 Full point group                 C2V     NOp   4
 Largest Abelian subgroup         C2V     NOp   4
 Largest concise Abelian subgroup C2      NOp   2
                         Standard orientation:                         
 ---------------------------------------------------------------------
 Center     Atomic      Atomic             Coordinates (Angstroms)
 Number     Number       Type             X           Y           Z
 ---------------------------------------------------------------------
      1         17           0        0.000000   -0.000000    0.100888
      2         35           0       -0.000000    2.234424   -1.315329
      3         35           0       -0.000000   -2.234424   -1.315329
      4         35           0        0.000000   -0.000000    2.581656
 ---------------------------------------------------------------------
 Rotational constants (GHZ):           0.6413251           0.6321868           0.3183616
 Standard basis: 3-21G (6D, 7F)
 There are    36 symmetry adapted cartesian basis functions of A1  symmetry.
 There are     7 symmetry adapted cartesian basis functions of A2  symmetry.
 There are    14 symmetry adapted cartesian basis functions of B1  symmetry.
 There are    25 symmetry adapted cartesian basis functions of B2  symmetry.
 There are    36 symmetry adapted basis functions of A1  symmetry.
 There are     7 symmetry adapted basis functions of A2  symmetry.
 There are    14 symmetry adapted basis functions of B1  symmetry.
 There are    25 symmetry adapted basis functions of B2  symmetry.
    82 basis functions,   198 primitive gaussians,    82 cartesian basis functions
    61 alpha electrons       61 beta electrons
       nuclear repulsion energy       798.6321672222 Hartrees.
 NAtoms=    4 NActive=    4 NUniq=    3 SFac= 1.78D+00 NAtFMM=   60 NAOKFM=F Big=F
 Integral buffers will be    131072 words long.
 Raffenetti 1 integral format.
 Two-electron integral symmetry is turned on.
 One-electron integrals computed using PRISM.
 NBasis=    82 RedAO= T EigKep=  4.89D-03  NBF=    36     7    14    25
 NBsUse=    82 1.00D-06 EigRej= -1.00D+00 NBFU=    36     7    14    25
 Initial guess from the checkpoint file:  "clbr3.chk"
 B after Tr=    -0.000000   -0.000000   -0.000000
         Rot=    1.000000   -0.000000   -0.000000    0.000000 Ang=   0.00 deg.
 Initial guess orbital symmetries:
       Occupied  (A1) (A1) (B2) (A1) (A1) (A1) (B2) (A1) (B2) (B1)
                 (A1) (B2) (B2) (A1) (B1) (A2) (A1) (A1) (A1) (B2)
                 (A1) (B2) (B1) (A1) (B2) (B1) (B2) (A1) (B2) (A1)
                 (B1) (A2) (A1) (B2) (B1) (A2) (A1) (B2) (A1) (A1)
                 (B2) (B1) (A2) (A2) (B1) (B2) (A1) (A1) (A1) (B2)
                 (A1) (A1) (B1) (B2) (B1) (B2) (A2) (A1) (B2) (B1)
                 (A1)
       Virtual   (B2) (A1) (A1) (B1) (A1) (B2) (B2) (A1) (A1) (B1)
                 (A2) (B2) (B1) (B2) (A1) (A1) (B2) (A1) (B2) (A1)
                 (A1)
 ExpMin= 1.65D-01 ExpMax= 6.10D+03 ExpMxC= 6.10D+03 IAcc=3 IRadAn=         5 AccDes= 0.00D+00
 Harris functional with IExCor=  205 and IRadAn=       5 diagonalized for initial guess.
 HarFok:  IExCor=  205 AccDes= 0.00D+00 IRadAn=         5 IDoV= 1 UseB2=F ITyADJ=14
 ICtDFT=  3500011 ScaDFX=  1.000000  1.000000  1.000000  1.000000
 FoFCou: FMM=F IPFlag=           0 FMFlag=      100000 FMFlg1=           0
         NFxFlg=           0 DoJE=T BraDBF=F KetDBF=T FulRan=T
         wScrn=  0.000000 ICntrl=       500 IOpCl=  0 I1Cent=   200000004 NGrid=           0
         NMat0=    1 NMatS0=      1 NMatT0=    0 NMatD0=    1 NMtDS0=    0 NMtDT0=    0
 Petite list used in FoFCou.
 Keep R1 ints in memory in symmetry-blocked form, NReq=7345167.
 Requested convergence on RMS density matrix=1.00D-08 within 128 cycles.
 Requested convergence on MAX density matrix=1.00D-06.
 Requested convergence on             energy=1.00D-06.
 No special actions if energy rises.
 SCF Done:  E(RHF) =  -8137.28407355     A.U. after   12 cycles
            NFock= 12  Conv=0.52D-08     -V/T= 1.9969
 ExpMin= 1.65D-01 ExpMax= 6.10D+03 ExpMxC= 6.10D+03 IAcc=3 IRadAn=         5 AccDes= 0.00D+00
 HarFok:  IExCor=  205 AccDes= 0.00D+00 IRadAn=         5 IDoV=-2 UseB2=F ITyADJ=14
 ICtDFT= 12500011 ScaDFX=  1.000000  1.000000  1.000000  1.000000
 GSVD:  LWork=       -1280 too small for GESVD, short by        5600 words or        5600 for optimal perf.
 Range of M.O.s used for correlation:    33    82
 NBasis=    82 NAE=    61 NBE=    61 NFC=    32 NFV=     0
 NROrb=     50 NOA=    29 NOB=    29 NVA=    21 NVB=    21

 **** Warning!!: The largest alpha MO coefficient is  0.10773768D+02

 Fully direct method using O(ONN) memory.
 JobTyp=1 Pass  1:  I=  33 to  61 NPSUse=  1 ParTrn=F ParDer=F DoDerP=T.
 Spin components of T(2) and E(2):
     alpha-alpha T2 =       0.1277855343D-01 E2=     -0.2333798971D-01
     alpha-beta  T2 =       0.1676469025D+00 E2=     -0.1766097884D+00
     beta-beta   T2 =       0.1277855343D-01 E2=     -0.2333798971D-01
 ANorm=    0.1092338780D+01
 E2 =    -0.2232857678D+00 EUMP2 =    -0.81375073593129D+04
          IDoAtm=1111
          Differentiating once with respect to electric field.
                with respect to dipole field.
          Differentiating once with respect to nuclear coordinates.
 Keep R1 ints in memory in symmetry-blocked form, NReq=7345933.
          There are     1 degrees of freedom in the 1st order CPHF.  IDoFFX=0 NUNeed=     1.
 LinEq1:  Iter=  0 NonCon=     1 RMS=5.62D-03 Max=1.12D-01 NDo=     1
 AX will form     1 AO Fock derivatives at one time.
 LinEq1:  Iter=  1 NonCon=     1 RMS=6.92D-04 Max=9.80D-03 NDo=     1
 LinEq1:  Iter=  2 NonCon=     1 RMS=1.90D-04 Max=4.19D-03 NDo=     1
 LinEq1:  Iter=  3 NonCon=     1 RMS=9.48D-05 Max=1.90D-03 NDo=     1
 LinEq1:  Iter=  4 NonCon=     1 RMS=3.59D-05 Max=5.30D-04 NDo=     1
 LinEq1:  Iter=  5 NonCon=     1 RMS=8.20D-06 Max=9.65D-05 NDo=     1
 LinEq1:  Iter=  6 NonCon=     1 RMS=2.98D-06 Max=7.63D-05 NDo=     1
 LinEq1:  Iter=  7 NonCon=     1 RMS=8.88D-07 Max=1.08D-05 NDo=     1
 LinEq1:  Iter=  8 NonCon=     1 RMS=1.27D-07 Max=1.91D-06 NDo=     1
 LinEq1:  Iter=  9 NonCon=     1 RMS=2.11D-08 Max=2.80D-07 NDo=     1
 LinEq1:  Iter= 10 NonCon=     1 RMS=1.93D-09 Max=2.54D-08 NDo=     1
 LinEq1:  Iter= 11 NonCon=     1 RMS=4.31D-10 Max=5.28D-09 NDo=     1
 LinEq1:  Iter= 12 NonCon=     0 RMS=4.94D-11 Max=6.46D-10 NDo=     1
 Linear equations converged to 1.000D-10 1.000D-09 after    12 iterations.
 End of Minotr F.D. properties file   721 does not exist.
 End of Minotr F.D. properties file   722 does not exist.
 End of Minotr F.D. properties file   788 does not exist.
 Calling FoFJK, ICntrl=  10002127 FMM=F ISym2X=1 I1Cent= 0 IOpClX= 0 NMat=1 NMatS=1 NMatT=0.
 ***** Axes restored to original set *****
 -------------------------------------------------------------------
 Center     Atomic                   Forces (Hartrees/Bohr)
 Number     Number              X              Y              Z
 -------------------------------------------------------------------
      1       17           0.006312463   -0.010933507    0.000000000
      2       35          -0.000499893    0.000865840    0.000823887
      3       35          -0.000499893    0.000865840   -0.000823887
      4       35          -0.005312677    0.009201827    0.000000000
 -------------------------------------------------------------------
 Cartesian Forces:  Max     0.010933507 RMS     0.004792734

 GradGradGradGradGradGradGradGradGradGradGradGradGradGradGradGradGradGrad
 Berny optimization.
 Using GEDIIS/GDIIS optimizer.
 FormGI is forming the generalized inverse of G from B-inverse, IUseBI=4.
 Internal  Forces:  Max     0.010625355 RMS     0.003850983
 Search for a local minimum.
 Step number   9 out of a maximum of   20
 All quantities printed in internal units (Hartrees-Bohrs-Radians)
 Mixed Optimization -- RFO/linear search
 Update second derivatives using D2CorX and points    6    7    8    9
 DE= -4.18D-04 DEPred=-2.83D-04 R= 1.48D+00
 TightC=F SS=  1.41D+00  RLast= 1.07D-01 DXNew= 1.3812D+00 3.1957D-01
 Trust test= 1.48D+00 RLast= 1.07D-01 DXMaxT set to 8.21D-01
 The second derivative matrix:
                          R1        R2        R3        A1        A2
           R1           0.11836
           R2          -0.04419   0.11836
           R3          -0.01402  -0.01402   0.15922
           A1           0.01536   0.01536  -0.00647   0.13503
           A2           0.01536   0.01536  -0.00647  -0.11497   0.13503
           A3           0.00905   0.00905  -0.05218   0.00679   0.00679
           A4          -0.00000  -0.00000   0.00000   0.00000   0.00000
           D1           0.00000   0.00000  -0.00000  -0.00000  -0.00000
                          A3        A4        D1
           A3           0.03841
           A4          -0.00000   0.00230
           D1           0.00000   0.00000   0.00230
 ITU=  1  1  1  1  1  0  0  1  0
 Use linear search instead of GDIIS.
     Eigenvalues ---    0.00230   0.01677   0.07436   0.16256   0.18361
     Eigenvalues ---    0.25000
 RFO step:  Lambda=-4.71776279D-04 EMin= 2.30000000D-03
 Quartic linear search produced a step of  1.09342.
 Iteration  1 RMS(Cart)=  0.05999445 RMS(Int)=  0.00060906
 Iteration  2 RMS(Cart)=  0.00053267 RMS(Int)=  0.00000002
 Iteration  3 RMS(Cart)=  0.00000003 RMS(Int)=  0.00000001
 ClnCor:  largest displacement from symmetrization is 1.63D-08 for atom     1.
 Variable       Old X    -DE/DX   Delta X   Delta X   Delta X     New X
                                 (Linear)    (Quad)   (Total)
    R1        4.99915  -0.00123  -0.01662   0.00154  -0.01508   4.98407
    R2        4.99915  -0.00123  -0.01662   0.00154  -0.01508   4.98407
    R3        4.68797   0.01063   0.04371   0.03511   0.07882   4.76679
    A1        2.13571  -0.00067   0.04302  -0.02102   0.02200   2.15771
    A2        2.13571  -0.00067   0.04302  -0.02102   0.02200   2.15771
    A3        4.27142  -0.00134   0.08604  -0.04204   0.04400   4.31542
    A4        3.14159   0.00000  -0.00000  -0.00000  -0.00000   3.14159
    D1        0.00000   0.00000   0.00000  -0.00000  -0.00000   0.00000
         Item               Value     Threshold  Converged?
 Maximum Force            0.010625     0.000450     NO 
 RMS     Force            0.003851     0.000300     NO 
 Maximum Displacement     0.087517     0.001800     NO 
 RMS     Displacement     0.060005     0.001200     NO 
 Predicted change in Energy=-4.168636D-04
 GradGradGradGradGradGradGradGradGradGradGradGradGradGradGradGradGradGrad

                          Input orientation:                          
 ---------------------------------------------------------------------
 Center     Atomic      Atomic             Coordinates (Angstroms)
 Number     Number       Type             X           Y           Z
 ---------------------------------------------------------------------
      1         17           0        0.335346    1.791143    0.000000
      2         35           0        1.065650    0.526219   -2.196087
      3         35           0        1.065650    0.526219    2.196087
      4         35           0       -0.925892    3.975672    0.000000
 ---------------------------------------------------------------------
                    Distance matrix (angstroms):
                    1          2          3          4
     1  Cl   0.000000
     2  Br   2.637456   0.000000
     3  Br   2.637456   4.392174   0.000000
     4  Br   2.522476   4.548380   4.548380   0.000000
 Stoichiometry    Br3Cl
 Framework group  C2V[C2(ClBr),SGV(Br2)]
 Deg. of freedom     3
 Full point group                 C2V     NOp   4
 Largest Abelian subgroup         C2V     NOp   4
 Largest concise Abelian subgroup C2      NOp   2
                         Standard orientation:                         
 ---------------------------------------------------------------------
 Center     Atomic      Atomic             Coordinates (Angstroms)
 Number     Number       Type             X           Y           Z
 ---------------------------------------------------------------------
      1         17           0       -0.000000   -0.000000    0.114393
      2         35           0       -0.000000    2.196087   -1.346216
      3         35           0        0.000000   -2.196087   -1.346216
      4         35           0       -0.000000   -0.000000    2.636869
 ---------------------------------------------------------------------
 Rotational constants (GHZ):           0.6639116           0.6050782           0.3165655
 Standard basis: 3-21G (6D, 7F)
 There are    36 symmetry adapted cartesian basis functions of A1  symmetry.
 There are     7 symmetry adapted cartesian basis functions of A2  symmetry.
 There are    14 symmetry adapted cartesian basis functions of B1  symmetry.
 There are    25 symmetry adapted cartesian basis functions of B2  symmetry.
 There are    36 symmetry adapted basis functions of A1  symmetry.
 There are     7 symmetry adapted basis functions of A2  symmetry.
 There are    14 symmetry adapted basis functions of B1  symmetry.
 There are    25 symmetry adapted basis functions of B2  symmetry.
    82 basis functions,   198 primitive gaussians,    82 cartesian basis functions
    61 alpha electrons       61 beta electrons
       nuclear repulsion energy       796.2160133795 Hartrees.
 NAtoms=    4 NActive=    4 NUniq=    3 SFac= 1.78D+00 NAtFMM=   60 NAOKFM=F Big=F
 Integral buffers will be    131072 words long.
 Raffenetti 1 integral format.
 Two-electron integral symmetry is turned on.
 One-electron integrals computed using PRISM.
 NBasis=    82 RedAO= T EigKep=  4.89D-03  NBF=    36     7    14    25
 NBsUse=    82 1.00D-06 EigRej= -1.00D+00 NBFU=    36     7    14    25
 Initial guess from the checkpoint file:  "clbr3.chk"
 B after Tr=    -0.000000    0.000000    0.000000
         Rot=    1.000000   -0.000000    0.000000   -0.000000 Ang=   0.00 deg.
 Initial guess orbital symmetries:
       Occupied  (A1) (A1) (B2) (A1) (A1) (A1) (B2) (A1) (B2) (B1)
                 (B2) (A1) (B2) (A1) (B1) (A2) (A1) (A1) (A1) (B2)
                 (A1) (B2) (B1) (A1) (B2) (B1) (B2) (A1) (B2) (A1)
                 (B1) (A2) (A1) (B2) (B1) (B2) (A1) (A2) (A1) (A1)
                 (B2) (B1) (A2) (A2) (B1) (B2) (A1) (A1) (A1) (B2)
                 (A1) (A1) (B1) (B2) (B1) (B2) (A2) (A1) (B2) (B1)
                 (A1)
       Virtual   (B2) (A1) (A1) (B1) (A1) (B2) (A1) (B2) (A1) (B1)
                 (A2) (B2) (B1) (B2) (A1) (A1) (B2) (A1) (B2) (A1)
                 (A1)
 ExpMin= 1.65D-01 ExpMax= 6.10D+03 ExpMxC= 6.10D+03 IAcc=3 IRadAn=         5 AccDes= 0.00D+00
 Harris functional with IExCor=  205 and IRadAn=       5 diagonalized for initial guess.
 HarFok:  IExCor=  205 AccDes= 0.00D+00 IRadAn=         5 IDoV= 1 UseB2=F ITyADJ=14
 ICtDFT=  3500011 ScaDFX=  1.000000  1.000000  1.000000  1.000000
 FoFCou: FMM=F IPFlag=           0 FMFlag=      100000 FMFlg1=           0
         NFxFlg=           0 DoJE=T BraDBF=F KetDBF=T FulRan=T
         wScrn=  0.000000 ICntrl=       500 IOpCl=  0 I1Cent=   200000004 NGrid=           0
         NMat0=    1 NMatS0=      1 NMatT0=    0 NMatD0=    1 NMtDS0=    0 NMtDT0=    0
 Petite list used in FoFCou.
 Keep R1 ints in memory in symmetry-blocked form, NReq=7345167.
 Requested convergence on RMS density matrix=1.00D-08 within 128 cycles.
 Requested convergence on MAX density matrix=1.00D-06.
 Requested convergence on             energy=1.00D-06.
 No special actions if energy rises.
 SCF Done:  E(RHF) =  -8137.28429443     A.U. after   12 cycles
            NFock= 12  Conv=0.52D-08     -V/T= 1.9969
 ExpMin= 1.65D-01 ExpMax= 6.10D+03 ExpMxC= 6.10D+03 IAcc=3 IRadAn=         5 AccDes= 0.00D+00
 HarFok:  IExCor=  205 AccDes= 0.00D+00 IRadAn=         5 IDoV=-2 UseB2=F ITyADJ=14
 ICtDFT= 12500011 ScaDFX=  1.000000  1.000000  1.000000  1.000000
 GSVD:  LWork=       -1280 too small for GESVD, short by        5600 words or        5600 for optimal perf.
 Range of M.O.s used for correlation:    33    82
 NBasis=    82 NAE=    61 NBE=    61 NFC=    32 NFV=     0
 NROrb=     50 NOA=    29 NOB=    29 NVA=    21 NVB=    21

 **** Warning!!: The largest alpha MO coefficient is  0.10773785D+02

 Fully direct method using O(ONN) memory.
 JobTyp=1 Pass  1:  I=  33 to  61 NPSUse=  1 ParTrn=F ParDer=F DoDerP=T.
 Spin components of T(2) and E(2):
     alpha-alpha T2 =       0.1282962122D-01 E2=     -0.2337468693D-01
     alpha-beta  T2 =       0.1677174155D+00 E2=     -0.1768873557D+00
     beta-beta   T2 =       0.1282962122D-01 E2=     -0.2337468693D-01
 ANorm=    0.1092417804D+01
 E2 =    -0.2236367296D+00 EUMP2 =    -0.81375079311633D+04
          IDoAtm=1111
          Differentiating once with respect to electric field.
                with respect to dipole field.
          Differentiating once with respect to nuclear coordinates.
 Keep R1 ints in memory in symmetry-blocked form, NReq=7345933.
          There are     1 degrees of freedom in the 1st order CPHF.  IDoFFX=0 NUNeed=     1.
 LinEq1:  Iter=  0 NonCon=     1 RMS=5.66D-03 Max=1.05D-01 NDo=     1
 AX will form     1 AO Fock derivatives at one time.
 LinEq1:  Iter=  1 NonCon=     1 RMS=7.41D-04 Max=9.97D-03 NDo=     1
 LinEq1:  Iter=  2 NonCon=     1 RMS=2.81D-04 Max=4.93D-03 NDo=     1
 LinEq1:  Iter=  3 NonCon=     1 RMS=1.10D-04 Max=2.23D-03 NDo=     1
 LinEq1:  Iter=  4 NonCon=     1 RMS=3.69D-05 Max=5.19D-04 NDo=     1
 LinEq1:  Iter=  5 NonCon=     1 RMS=1.29D-05 Max=2.75D-04 NDo=     1
 LinEq1:  Iter=  6 NonCon=     1 RMS=4.15D-06 Max=6.40D-05 NDo=     1
 LinEq1:  Iter=  7 NonCon=     1 RMS=1.36D-06 Max=1.98D-05 NDo=     1
 LinEq1:  Iter=  8 NonCon=     1 RMS=2.22D-07 Max=4.27D-06 NDo=     1
 LinEq1:  Iter=  9 NonCon=     1 RMS=3.44D-08 Max=4.35D-07 NDo=     1
 LinEq1:  Iter= 10 NonCon=     1 RMS=5.03D-09 Max=9.69D-08 NDo=     1
 LinEq1:  Iter= 11 NonCon=     1 RMS=6.27D-10 Max=8.20D-09 NDo=     1
 LinEq1:  Iter= 12 NonCon=     0 RMS=5.30D-11 Max=7.34D-10 NDo=     1
 Linear equations converged to 1.000D-10 1.000D-09 after    12 iterations.
 End of Minotr F.D. properties file   721 does not exist.
 End of Minotr F.D. properties file   722 does not exist.
 End of Minotr F.D. properties file   788 does not exist.
 Calling FoFJK, ICntrl=  10002127 FMM=F ISym2X=1 I1Cent= 0 IOpClX= 0 NMat=1 NMatS=1 NMatT=0.
 ***** Axes restored to original set *****
 -------------------------------------------------------------------
 Center     Atomic                   Forces (Hartrees/Bohr)
 Number     Number              X              Y              Z
 -------------------------------------------------------------------
      1       17           0.004363563   -0.007557914    0.000000000
      2       35          -0.000750429    0.001299781    0.001074414
      3       35          -0.000750429    0.001299781   -0.001074414
      4       35          -0.002862705    0.004958351   -0.000000000
 -------------------------------------------------------------------
 Cartesian Forces:  Max     0.007557914 RMS     0.003105867

 GradGradGradGradGradGradGradGradGradGradGradGradGradGradGradGradGradGrad
 Berny optimization.
 Using GEDIIS/GDIIS optimizer.
 FormGI is forming the generalized inverse of G from B-inverse, IUseBI=4.
 Internal  Forces:  Max     0.005725410 RMS     0.002393616
 Search for a local minimum.
 Step number  10 out of a maximum of   20
 All quantities printed in internal units (Hartrees-Bohrs-Radians)
 Mixed Optimization -- RFO/linear search
 Update second derivatives using D2CorX and points    7    8    9   10
 DE= -5.72D-04 DEPred=-4.17D-04 R= 1.37D+00
 TightC=F SS=  1.41D+00  RLast= 9.78D-02 DXNew= 1.3812D+00 2.9349D-01
 Trust test= 1.37D+00 RLast= 9.78D-02 DXMaxT set to 8.21D-01
 The second derivative matrix:
                          R1        R2        R3        A1        A2
           R1           0.11902
           R2          -0.04354   0.11902
           R3           0.00558   0.00558   0.07025
           A1           0.01695   0.01695   0.00030   0.13637
           A2           0.01695   0.01695   0.00030  -0.11363   0.13637
           A3           0.01017   0.01017  -0.01095   0.00916   0.00916
           A4          -0.00000  -0.00000   0.00000  -0.00000  -0.00000
           D1           0.00000   0.00000   0.00000   0.00000   0.00000
                          A3        A4        D1
           A3           0.03631
           A4          -0.00000   0.00230
           D1           0.00000   0.00000   0.00230
 ITU=  1  1  1  1  1  1  0  0  1
 Use linear search instead of GDIIS.
     Eigenvalues ---    0.00230   0.02193   0.07281   0.09499   0.16256
     Eigenvalues ---    0.25000
 RFO step:  Lambda=-2.98528749D-04 EMin= 2.30000000D-03
 Quartic linear search produced a step of  0.86526.
 Iteration  1 RMS(Cart)=  0.02101960 RMS(Int)=  0.00007713
 Iteration  2 RMS(Cart)=  0.00011077 RMS(Int)=  0.00000001
 Iteration  3 RMS(Cart)=  0.00000000 RMS(Int)=  0.00000001
 ClnCor:  largest displacement from symmetrization is 1.13D-08 for atom     1.
 Variable       Old X    -DE/DX   Delta X   Delta X   Delta X     New X
                                 (Linear)    (Quad)   (Total)
    R1        4.98407  -0.00173  -0.01304  -0.01077  -0.02382   4.96025
    R2        4.98407  -0.00173  -0.01304  -0.01077  -0.02382   4.96025
    R3        4.76679   0.00573   0.06820   0.01580   0.08399   4.85078
    A1        2.15771  -0.00109   0.01904  -0.02654  -0.00751   2.15020
    A2        2.15771  -0.00109   0.01904  -0.02654  -0.00751   2.15020
    A3        4.31542  -0.00218   0.03807  -0.05309  -0.01502   4.30040
    A4        3.14159   0.00000   0.00000  -0.00000   0.00000   3.14159
    D1        0.00000   0.00000  -0.00000  -0.00000   0.00000   0.00000
         Item               Value     Threshold  Converged?
 Maximum Force            0.005725     0.000450     NO 
 RMS     Force            0.002394     0.000300     NO 
 Maximum Displacement     0.037358     0.001800     NO 
 RMS     Displacement     0.021017     0.001200     NO 
 Predicted change in Energy=-3.035266D-04
 GradGradGradGradGradGradGradGradGradGradGradGradGradGradGradGradGradGrad

                          Input orientation:                          
 ---------------------------------------------------------------------
 Center     Atomic      Atomic             Coordinates (Angstroms)
 Number     Number       Type             X           Y           Z
 ---------------------------------------------------------------------
      1         17           0        0.346759    1.771374    0.000000
      2         35           0        1.065348    0.526742   -2.196445
      3         35           0        1.065348    0.526742    2.196445
      4         35           0       -0.936703    3.994395    0.000000
 ---------------------------------------------------------------------
                    Distance matrix (angstroms):
                    1          2          3          4
     1  Cl   0.000000
     2  Br   2.624852   0.000000
     3  Br   2.624852   4.392890   0.000000
     4  Br   2.566924   4.566968   4.566968   0.000000
 Stoichiometry    Br3Cl
 Framework group  C2V[C2(ClBr),SGV(Br2)]
 Deg. of freedom     3
 Full point group                 C2V     NOp   4
 Largest Abelian subgroup         C2V     NOp   4
 Largest concise Abelian subgroup C2      NOp   2
                         Standard orientation:                         
 ---------------------------------------------------------------------
 Center     Atomic      Atomic             Coordinates (Angstroms)
 Number     Number       Type             X           Y           Z
 ---------------------------------------------------------------------
      1         17           0        0.000000   -0.000000    0.088197
      2         35           0        0.000000    2.196445   -1.348980
      3         35           0       -0.000000   -2.196445   -1.348980
      4         35           0        0.000000   -0.000000    2.655121
 ---------------------------------------------------------------------
 Rotational constants (GHZ):           0.6636950           0.5989020           0.3148180
 Standard basis: 3-21G (6D, 7F)
 There are    36 symmetry adapted cartesian basis functions of A1  symmetry.
 There are     7 symmetry adapted cartesian basis functions of A2  symmetry.
 There are    14 symmetry adapted cartesian basis functions of B1  symmetry.
 There are    25 symmetry adapted cartesian basis functions of B2  symmetry.
 There are    36 symmetry adapted basis functions of A1  symmetry.
 There are     7 symmetry adapted basis functions of A2  symmetry.
 There are    14 symmetry adapted basis functions of B1  symmetry.
 There are    25 symmetry adapted basis functions of B2  symmetry.
    82 basis functions,   198 primitive gaussians,    82 cartesian basis functions
    61 alpha electrons       61 beta electrons
       nuclear repulsion energy       794.0168530261 Hartrees.
 NAtoms=    4 NActive=    4 NUniq=    3 SFac= 1.78D+00 NAtFMM=   60 NAOKFM=F Big=F
 Integral buffers will be    131072 words long.
 Raffenetti 1 integral format.
 Two-electron integral symmetry is turned on.
 One-electron integrals computed using PRISM.
 NBasis=    82 RedAO= T EigKep=  4.90D-03  NBF=    36     7    14    25
 NBsUse=    82 1.00D-06 EigRej= -1.00D+00 NBFU=    36     7    14    25
 Initial guess from the checkpoint file:  "clbr3.chk"
 B after Tr=    -0.000000   -0.000000    0.000000
         Rot=    1.000000    0.000000    0.000000    0.000000 Ang=   0.00 deg.
 Initial guess orbital symmetries:
       Occupied  (A1) (B2) (A1) (A1) (A1) (A1) (B2) (A1) (B2) (B1)
                 (B2) (A1) (B2) (A1) (B1) (A2) (A1) (A1) (A1) (B2)
                 (A1) (B2) (B1) (A1) (B2) (A1) (B2) (B1) (B2) (A1)
                 (B1) (A2) (A1) (B2) (B1) (B2) (A1) (A1) (B2) (B1)
                 (A2) (A2) (A1) (A2) (B1) (B2) (A1) (A1) (A1) (B2)
                 (A1) (A1) (B1) (B2) (B1) (B2) (A2) (A1) (B2) (B1)
                 (A1)
       Virtual   (B2) (A1) (A1) (B1) (B2) (A1) (A1) (B2) (A1) (B1)
                 (A2) (B2) (B1) (B2) (A1) (B2) (A1) (A1) (B2) (A1)
                 (A1)
 ExpMin= 1.65D-01 ExpMax= 6.10D+03 ExpMxC= 6.10D+03 IAcc=3 IRadAn=         5 AccDes= 0.00D+00
 Harris functional with IExCor=  205 and IRadAn=       5 diagonalized for initial guess.
 HarFok:  IExCor=  205 AccDes= 0.00D+00 IRadAn=         5 IDoV= 1 UseB2=F ITyADJ=14
 ICtDFT=  3500011 ScaDFX=  1.000000  1.000000  1.000000  1.000000
 FoFCou: FMM=F IPFlag=           0 FMFlag=      100000 FMFlg1=           0
         NFxFlg=           0 DoJE=T BraDBF=F KetDBF=T FulRan=T
         wScrn=  0.000000 ICntrl=       500 IOpCl=  0 I1Cent=   200000004 NGrid=           0
         NMat0=    1 NMatS0=      1 NMatT0=    0 NMatD0=    1 NMtDS0=    0 NMtDT0=    0
 Petite list used in FoFCou.
 Keep R1 ints in memory in symmetry-blocked form, NReq=7345167.
 Requested convergence on RMS density matrix=1.00D-08 within 128 cycles.
 Requested convergence on MAX density matrix=1.00D-06.
 Requested convergence on             energy=1.00D-06.
 No special actions if energy rises.
 SCF Done:  E(RHF) =  -8137.28433376     A.U. after   12 cycles
            NFock= 12  Conv=0.22D-08     -V/T= 1.9969
 ExpMin= 1.65D-01 ExpMax= 6.10D+03 ExpMxC= 6.10D+03 IAcc=3 IRadAn=         5 AccDes= 0.00D+00
 HarFok:  IExCor=  205 AccDes= 0.00D+00 IRadAn=         5 IDoV=-2 UseB2=F ITyADJ=14
 ICtDFT= 12500011 ScaDFX=  1.000000  1.000000  1.000000  1.000000
 GSVD:  LWork=       -1280 too small for GESVD, short by        5600 words or        5600 for optimal perf.
 Range of M.O.s used for correlation:    33    82
 NBasis=    82 NAE=    61 NBE=    61 NFC=    32 NFV=     0
 NROrb=     50 NOA=    29 NOB=    29 NVA=    21 NVB=    21

 **** Warning!!: The largest alpha MO coefficient is  0.10764970D+02

 Fully direct method using O(ONN) memory.
 JobTyp=1 Pass  1:  I=  33 to  61 NPSUse=  1 ParTrn=F ParDer=F DoDerP=T.
 Spin components of T(2) and E(2):
     alpha-alpha T2 =       0.1287031899D-01 E2=     -0.2340471613D-01
     alpha-beta  T2 =       0.1679783954D+00 E2=     -0.1772155248D+00
     beta-beta   T2 =       0.1287031899D-01 E2=     -0.2340471613D-01
 ANorm=    0.1092574498D+01
 E2 =    -0.2240249571D+00 EUMP2 =    -0.81375083587171D+04
          IDoAtm=1111
          Differentiating once with respect to electric field.
                with respect to dipole field.
          Differentiating once with respect to nuclear coordinates.
 Keep R1 ints in memory in symmetry-blocked form, NReq=7345933.
          There are     1 degrees of freedom in the 1st order CPHF.  IDoFFX=0 NUNeed=     1.
 LinEq1:  Iter=  0 NonCon=     1 RMS=5.71D-03 Max=1.20D-01 NDo=     1
 AX will form     1 AO Fock derivatives at one time.
 LinEq1:  Iter=  1 NonCon=     1 RMS=7.87D-04 Max=1.22D-02 NDo=     1
 LinEq1:  Iter=  2 NonCon=     1 RMS=3.30D-04 Max=5.70D-03 NDo=     1
 LinEq1:  Iter=  3 NonCon=     1 RMS=9.94D-05 Max=1.46D-03 NDo=     1
 LinEq1:  Iter=  4 NonCon=     1 RMS=3.33D-05 Max=4.94D-04 NDo=     1
 LinEq1:  Iter=  5 NonCon=     1 RMS=1.23D-05 Max=2.18D-04 NDo=     1
 LinEq1:  Iter=  6 NonCon=     1 RMS=4.22D-06 Max=6.33D-05 NDo=     1
 LinEq1:  Iter=  7 NonCon=     1 RMS=1.41D-06 Max=1.88D-05 NDo=     1
 LinEq1:  Iter=  8 NonCon=     1 RMS=2.35D-07 Max=4.59D-06 NDo=     1
 LinEq1:  Iter=  9 NonCon=     1 RMS=3.52D-08 Max=4.28D-07 NDo=     1
 LinEq1:  Iter= 10 NonCon=     1 RMS=4.71D-09 Max=8.33D-08 NDo=     1
 LinEq1:  Iter= 11 NonCon=     1 RMS=6.40D-10 Max=8.42D-09 NDo=     1
 LinEq1:  Iter= 12 NonCon=     0 RMS=5.47D-11 Max=7.77D-10 NDo=     1
 Linear equations converged to 1.000D-10 1.000D-09 after    12 iterations.
 End of Minotr F.D. properties file   721 does not exist.
 End of Minotr F.D. properties file   722 does not exist.
 End of Minotr F.D. properties file   788 does not exist.
 Calling FoFJK, ICntrl=  10002127 FMM=F ISym2X=1 I1Cent= 0 IOpClX= 0 NMat=1 NMatS=1 NMatT=0.
 ***** Axes restored to original set *****
 -------------------------------------------------------------------
 Center     Atomic                   Forces (Hartrees/Bohr)
 Number     Number              X              Y              Z
 -------------------------------------------------------------------
      1       17           0.002191100   -0.003795097   -0.000000000
      2       35          -0.000723256    0.001252715    0.001053345
      3       35          -0.000723256    0.001252715   -0.001053345
      4       35          -0.000744589    0.001289666   -0.000000000
 -------------------------------------------------------------------
 Cartesian Forces:  Max     0.003795097 RMS     0.001522749

 GradGradGradGradGradGradGradGradGradGradGradGradGradGradGradGradGradGrad
 Berny optimization.
 Using GEDIIS/GDIIS optimizer.
 FormGI is forming the generalized inverse of G from B-inverse, IUseBI=4.
 Internal  Forces:  Max     0.002095504 RMS     0.001341878
 Search for a local minimum.
 Step number  11 out of a maximum of   20
 All quantities printed in internal units (Hartrees-Bohrs-Radians)
 Mixed Optimization -- RFO/linear search
 Update second derivatives using D2CorX and points    7    8    9   10   11
 DE= -4.28D-04 DEPred=-3.04D-04 R= 1.41D+00
 TightC=F SS=  1.41D+00  RLast= 9.23D-02 DXNew= 1.3812D+00 2.7704D-01
 Trust test= 1.41D+00 RLast= 9.23D-02 DXMaxT set to 8.21D-01
 The second derivative matrix:
                          R1        R2        R3        A1        A2
           R1           0.11659
           R2          -0.04596   0.11659
           R3           0.02325   0.02325   0.06712
           A1           0.01553   0.01553   0.01142   0.13579
           A2           0.01553   0.01553   0.01142  -0.11421   0.13579
           A3           0.00598   0.00598   0.00815   0.00651   0.00651
           A4          -0.00000  -0.00000  -0.00000   0.00000   0.00000
           D1           0.00000   0.00000   0.00000  -0.00000  -0.00000
                          A3        A4        D1
           A3           0.02539
           A4          -0.00000   0.00230
           D1           0.00000   0.00000   0.00230
 ITU=  1  1  1  1  1  1  1  0  0
 Use linear search instead of GDIIS.
     Eigenvalues ---    0.00230   0.02050   0.03763   0.11243   0.16256
     Eigenvalues ---    0.25000
 RFO step:  Lambda=-2.05442754D-04 EMin= 2.30000000D-03
 Quartic linear search produced a step of  0.80510.
 Iteration  1 RMS(Cart)=  0.05941171 RMS(Int)=  0.00149899
 Iteration  2 RMS(Cart)=  0.00151872 RMS(Int)=  0.00000009
 Iteration  3 RMS(Cart)=  0.00000019 RMS(Int)=  0.00000000
 ClnCor:  largest displacement from symmetrization is 4.99D-09 for atom     1.
 Variable       Old X    -DE/DX   Delta X   Delta X   Delta X     New X
                                 (Linear)    (Quad)   (Total)
    R1        4.96025  -0.00167  -0.01918  -0.00658  -0.02575   4.93450
    R2        4.96025  -0.00167  -0.01918  -0.00658  -0.02575   4.93450
    R3        4.85078   0.00149   0.06762  -0.00185   0.06578   4.91656
    A1        2.15020  -0.00105  -0.00605  -0.02856  -0.03460   2.11560
    A2        2.15020  -0.00105  -0.00605  -0.02856  -0.03460   2.11560
    A3        4.30040  -0.00210  -0.01209  -0.05711  -0.06920   4.23120
    A4        3.14159   0.00000   0.00000  -0.00000  -0.00000   3.14159
    D1       -0.00000   0.00000   0.00000  -0.00000   0.00000   0.00000
         Item               Value     Threshold  Converged?
 Maximum Force            0.002096     0.000450     NO 
 RMS     Force            0.001342     0.000300     NO 
 Maximum Displacement     0.082902     0.001800     NO 
 RMS     Displacement     0.058741     0.001200     NO 
 Predicted change in Energy=-1.829841D-04
 GradGradGradGradGradGradGradGradGradGradGradGradGradGradGradGradGradGrad

                          Input orientation:                          
 ---------------------------------------------------------------------
 Center     Atomic      Atomic             Coordinates (Angstroms)
 Number     Number       Type             X           Y           Z
 ---------------------------------------------------------------------
      1         17           0        0.372088    1.727504    0.000000
      2         35           0        1.048722    0.555540   -2.233196
      3         35           0        1.048722    0.555540    2.233196
      4         35           0       -0.928778    3.980669    0.000000
 ---------------------------------------------------------------------
                    Distance matrix (angstroms):
                    1          2          3          4
     1  Cl   0.000000
     2  Br   2.611225   0.000000
     3  Br   2.611225   4.466391   0.000000
     4  Br   2.601731   4.541936   4.541936   0.000000
 Stoichiometry    Br3Cl
 Framework group  C2V[C2(ClBr),SGV(Br2)]
 Deg. of freedom     3
 Full point group                 C2V     NOp   4
 Largest Abelian subgroup         C2V     NOp   4
 Largest concise Abelian subgroup C2      NOp   2
                         Standard orientation:                         
 ---------------------------------------------------------------------
 Center     Atomic      Atomic             Coordinates (Angstroms)
 Number     Number       Type             X           Y           Z
 ---------------------------------------------------------------------
      1         17           0        0.000000   -0.000000    0.030067
      2         35           0       -0.000000    2.233196   -1.323201
      3         35           0       -0.000000   -2.233196   -1.323201
      4         35           0        0.000000   -0.000000    2.631798
 ---------------------------------------------------------------------
 Rotational constants (GHZ):           0.6420306           0.6140704           0.3138697
 Standard basis: 3-21G (6D, 7F)
 There are    36 symmetry adapted cartesian basis functions of A1  symmetry.
 There are     7 symmetry adapted cartesian basis functions of A2  symmetry.
 There are    14 symmetry adapted cartesian basis functions of B1  symmetry.
 There are    25 symmetry adapted cartesian basis functions of B2  symmetry.
 There are    36 symmetry adapted basis functions of A1  symmetry.
 There are     7 symmetry adapted basis functions of A2  symmetry.
 There are    14 symmetry adapted basis functions of B1  symmetry.
 There are    25 symmetry adapted basis functions of B2  symmetry.
    82 basis functions,   198 primitive gaussians,    82 cartesian basis functions
    61 alpha electrons       61 beta electrons
       nuclear repulsion energy       792.7640197869 Hartrees.
 NAtoms=    4 NActive=    4 NUniq=    3 SFac= 1.78D+00 NAtFMM=   60 NAOKFM=F Big=F
 Integral buffers will be    131072 words long.
 Raffenetti 1 integral format.
 Two-electron integral symmetry is turned on.
 One-electron integrals computed using PRISM.
 NBasis=    82 RedAO= T EigKep=  4.90D-03  NBF=    36     7    14    25
 NBsUse=    82 1.00D-06 EigRej= -1.00D+00 NBFU=    36     7    14    25
 Initial guess from the checkpoint file:  "clbr3.chk"
 B after Tr=     0.000000    0.000000    0.000000
         Rot=    1.000000   -0.000000   -0.000000   -0.000000 Ang=   0.00 deg.
 Initial guess orbital symmetries:
       Occupied  (B2) (A1) (A1) (A1) (A1) (B2) (A1) (B2) (A1) (A1)
                 (B2) (A1) (B1) (A2) (B2) (B1) (A1) (A1) (B2) (A1)
                 (A1) (B2) (B1) (B2) (A1) (A1) (B2) (A1) (B1) (A2)
                 (B2) (B1) (B2) (A1) (A1) (A1) (B2) (B1) (A2) (B2)
                 (B1) (A2) (B1) (B2) (A1) (A2) (A1) (A1) (A1) (B2)
                 (A1) (B1) (A1) (B2) (B1) (A2) (A1) (B2) (B2) (B1)
                 (A1)
       Virtual   (B2) (A1) (A1) (B1) (B2) (A1) (A1) (B2) (A1) (B1)
                 (A2) (B2) (B1) (A1) (B2) (B2) (A1) (A1) (B2) (A1)
                 (A1)
 ExpMin= 1.65D-01 ExpMax= 6.10D+03 ExpMxC= 6.10D+03 IAcc=3 IRadAn=         5 AccDes= 0.00D+00
 Harris functional with IExCor=  205 and IRadAn=       5 diagonalized for initial guess.
 HarFok:  IExCor=  205 AccDes= 0.00D+00 IRadAn=         5 IDoV= 1 UseB2=F ITyADJ=14
 ICtDFT=  3500011 ScaDFX=  1.000000  1.000000  1.000000  1.000000
 FoFCou: FMM=F IPFlag=           0 FMFlag=      100000 FMFlg1=           0
         NFxFlg=           0 DoJE=T BraDBF=F KetDBF=T FulRan=T
         wScrn=  0.000000 ICntrl=       500 IOpCl=  0 I1Cent=   200000004 NGrid=           0
         NMat0=    1 NMatS0=      1 NMatT0=    0 NMatD0=    1 NMtDS0=    0 NMtDT0=    0
 Petite list used in FoFCou.
 Keep R1 ints in memory in symmetry-blocked form, NReq=7345167.
 Requested convergence on RMS density matrix=1.00D-08 within 128 cycles.
 Requested convergence on MAX density matrix=1.00D-06.
 Requested convergence on             energy=1.00D-06.
 No special actions if energy rises.
 SCF Done:  E(RHF) =  -8137.28432281     A.U. after   11 cycles
            NFock= 11  Conv=0.82D-08     -V/T= 1.9969
 ExpMin= 1.65D-01 ExpMax= 6.10D+03 ExpMxC= 6.10D+03 IAcc=3 IRadAn=         5 AccDes= 0.00D+00
 HarFok:  IExCor=  205 AccDes= 0.00D+00 IRadAn=         5 IDoV=-2 UseB2=F ITyADJ=14
 ICtDFT= 12500011 ScaDFX=  1.000000  1.000000  1.000000  1.000000
 GSVD:  LWork=       -1280 too small for GESVD, short by        5600 words or        5600 for optimal perf.
 Range of M.O.s used for correlation:    33    82
 NBasis=    82 NAE=    61 NBE=    61 NFC=    32 NFV=     0
 NROrb=     50 NOA=    29 NOB=    29 NVA=    21 NVB=    21
 Fully direct method using O(ONN) memory.
 JobTyp=1 Pass  1:  I=  33 to  61 NPSUse=  1 ParTrn=F ParDer=F DoDerP=T.
 Spin components of T(2) and E(2):
     alpha-alpha T2 =       0.1288980576D-01 E2=     -0.2342115731D-01
     alpha-beta  T2 =       0.1682890113D+00 E2=     -0.1774411028D+00
     beta-beta   T2 =       0.1288980576D-01 E2=     -0.2342115731D-01
 ANorm=    0.1092734470D+01
 E2 =    -0.2242834174D+00 EUMP2 =    -0.81375086062270D+04
          IDoAtm=1111
          Differentiating once with respect to electric field.
                with respect to dipole field.
          Differentiating once with respect to nuclear coordinates.
 Keep R1 ints in memory in symmetry-blocked form, NReq=7345933.
          There are     1 degrees of freedom in the 1st order CPHF.  IDoFFX=0 NUNeed=     1.
 LinEq1:  Iter=  0 NonCon=     1 RMS=5.72D-03 Max=1.11D-01 NDo=     1
 AX will form     1 AO Fock derivatives at one time.
 LinEq1:  Iter=  1 NonCon=     1 RMS=7.22D-04 Max=1.01D-02 NDo=     1
 LinEq1:  Iter=  2 NonCon=     1 RMS=2.70D-04 Max=5.49D-03 NDo=     1
 LinEq1:  Iter=  3 NonCon=     1 RMS=7.29D-05 Max=1.20D-03 NDo=     1
 LinEq1:  Iter=  4 NonCon=     1 RMS=1.93D-05 Max=3.37D-04 NDo=     1
 LinEq1:  Iter=  5 NonCon=     1 RMS=6.53D-06 Max=1.18D-04 NDo=     1
 LinEq1:  Iter=  6 NonCon=     1 RMS=2.59D-06 Max=4.20D-05 NDo=     1
 LinEq1:  Iter=  7 NonCon=     1 RMS=1.03D-06 Max=1.46D-05 NDo=     1
 LinEq1:  Iter=  8 NonCon=     1 RMS=1.53D-07 Max=2.61D-06 NDo=     1
 LinEq1:  Iter=  9 NonCon=     1 RMS=3.04D-08 Max=3.67D-07 NDo=     1
 LinEq1:  Iter= 10 NonCon=     1 RMS=2.58D-09 Max=3.14D-08 NDo=     1
 LinEq1:  Iter= 11 NonCon=     1 RMS=4.75D-10 Max=6.90D-09 NDo=     1
 LinEq1:  Iter= 12 NonCon=     0 RMS=5.38D-11 Max=7.50D-10 NDo=     1
 Linear equations converged to 1.000D-10 1.000D-09 after    12 iterations.
 End of Minotr F.D. properties file   721 does not exist.
 End of Minotr F.D. properties file   722 does not exist.
 End of Minotr F.D. properties file   788 does not exist.
 Calling FoFJK, ICntrl=  10002127 FMM=F ISym2X=1 I1Cent= 0 IOpClX= 0 NMat=1 NMatS=1 NMatT=0.
 ***** Axes restored to original set *****
 -------------------------------------------------------------------
 Center     Atomic                   Forces (Hartrees/Bohr)
 Number     Number              X              Y              Z
 -------------------------------------------------------------------
      1       17           0.000417487   -0.000723108    0.000000000
      2       35          -0.000434909    0.000753284    0.000913562
      3       35          -0.000434909    0.000753284   -0.000913562
      4       35           0.000452331   -0.000783461   -0.000000000
 -------------------------------------------------------------------
 Cartesian Forces:  Max     0.000913562 RMS     0.000625696

 GradGradGradGradGradGradGradGradGradGradGradGradGradGradGradGradGradGrad
 Berny optimization.
 Using GEDIIS/GDIIS optimizer.
 FormGI is forming the generalized inverse of G from B-inverse, IUseBI=4.
 Internal  Forces:  Max     0.001232088 RMS     0.000793862
 Search for a local minimum.
 Step number  12 out of a maximum of   20
 All quantities printed in internal units (Hartrees-Bohrs-Radians)
 Mixed Optimization -- En-DIIS/RFO-DIIS
 Update second derivatives using D2CorX and points    7    8    9   10   11
                                                     12
 DE= -2.48D-04 DEPred=-1.83D-04 R= 1.35D+00
 TightC=F SS=  1.41D+00  RLast= 1.13D-01 DXNew= 1.3812D+00 3.3990D-01
 Trust test= 1.35D+00 RLast= 1.13D-01 DXMaxT set to 8.21D-01
 The second derivative matrix:
                          R1        R2        R3        A1        A2
           R1           0.11163
           R2          -0.05092   0.11163
           R3           0.02868   0.02868   0.07279
           A1           0.01173   0.01173   0.01131   0.13337
           A2           0.01173   0.01173   0.01131  -0.11663   0.13337
           A3          -0.00068  -0.00068   0.00194   0.00236   0.00236
           A4           0.00000   0.00000  -0.00000   0.00000   0.00000
           D1           0.00000   0.00000   0.00000  -0.00000  -0.00000
                          A3        A4        D1
           A3           0.01741
           A4          -0.00000   0.00230
           D1           0.00000   0.00000   0.00230
 ITU=  1  1  1  1  1  1  1  1  0
 Use linear search instead of GDIIS.
     Eigenvalues ---    0.00230   0.01661   0.02646   0.11077   0.16256
     Eigenvalues ---    0.25000
 RFO step:  Lambda=-5.25663515D-05 EMin= 2.30000000D-03
 Quartic linear search produced a step of  0.32789.
 Iteration  1 RMS(Cart)=  0.03197544 RMS(Int)=  0.00039123
 Iteration  2 RMS(Cart)=  0.00041478 RMS(Int)=  0.00000001
 Iteration  3 RMS(Cart)=  0.00000002 RMS(Int)=  0.00000001
 ClnCor:  largest displacement from symmetrization is 1.37D-08 for atom     1.
 Variable       Old X    -DE/DX   Delta X   Delta X   Delta X     New X
                                 (Linear)    (Quad)   (Total)
    R1        4.93450  -0.00123  -0.00844  -0.00952  -0.01797   4.91653
    R2        4.93450  -0.00123  -0.00844  -0.00952  -0.01797   4.91653
    R3        4.91656  -0.00090   0.02157  -0.01312   0.00845   4.92501
    A1        2.11560  -0.00044  -0.01135  -0.00634  -0.01769   2.09791
    A2        2.11560  -0.00044  -0.01135  -0.00634  -0.01769   2.09791
    A3        4.23120  -0.00089  -0.02269  -0.01269  -0.03538   4.19582
    A4        3.14159   0.00000   0.00000   0.00000   0.00000   3.14159
    D1       -0.00000   0.00000   0.00000   0.00000   0.00000   0.00000
         Item               Value     Threshold  Converged?
 Maximum Force            0.001232     0.000450     NO 
 RMS     Force            0.000794     0.000300     NO 
 Maximum Displacement     0.038241     0.001800     NO 
 RMS     Displacement     0.031823     0.001200     NO 
 Predicted change in Energy=-4.117953D-05
 GradGradGradGradGradGradGradGradGradGradGradGradGradGradGradGradGradGrad

                          Input orientation:                          
 ---------------------------------------------------------------------
 Center     Atomic      Atomic             Coordinates (Angstroms)
 Number     Number       Type             X           Y           Z
 ---------------------------------------------------------------------
      1         17           0        0.383771    1.707268    0.000000
      2         35           0        1.038156    0.573840   -2.248568
      3         35           0        1.038156    0.573840    2.248568
      4         35           0       -0.919330    3.964305    0.000000
 ---------------------------------------------------------------------
                    Distance matrix (angstroms):
                    1          2          3          4
     1  Cl   0.000000
     2  Br   2.601718   0.000000
     3  Br   2.601718   4.497135   0.000000
     4  Br   2.606201   4.514760   4.514760   0.000000
 Stoichiometry    Br3Cl
 Framework group  C2V[C2(ClBr),SGV(Br2)]
 Deg. of freedom     3
 Full point group                 C2V     NOp   4
 Largest Abelian subgroup         C2V     NOp   4
 Largest concise Abelian subgroup C2      NOp   2
                         Standard orientation:                         
 ---------------------------------------------------------------------
 Center     Atomic      Atomic             Coordinates (Angstroms)
 Number     Number       Type             X           Y           Z
 ---------------------------------------------------------------------
      1         17           0        0.000000   -0.000000    0.003253
      2         35           0       -0.000000    2.248568   -1.305517
      3         35           0       -0.000000   -2.248568   -1.305517
      4         35           0        0.000000   -0.000000    2.609454
 ---------------------------------------------------------------------
 Rotational constants (GHZ):           0.6332824           0.6267195           0.3149919
 Standard basis: 3-21G (6D, 7F)
 There are    36 symmetry adapted cartesian basis functions of A1  symmetry.
 There are     7 symmetry adapted cartesian basis functions of A2  symmetry.
 There are    14 symmetry adapted cartesian basis functions of B1  symmetry.
 There are    25 symmetry adapted cartesian basis functions of B2  symmetry.
 There are    36 symmetry adapted basis functions of A1  symmetry.
 There are     7 symmetry adapted basis functions of A2  symmetry.
 There are    14 symmetry adapted basis functions of B1  symmetry.
 There are    25 symmetry adapted basis functions of B2  symmetry.
    82 basis functions,   198 primitive gaussians,    82 cartesian basis functions
    61 alpha electrons       61 beta electrons
       nuclear repulsion energy       794.1637435045 Hartrees.
 NAtoms=    4 NActive=    4 NUniq=    3 SFac= 1.78D+00 NAtFMM=   60 NAOKFM=F Big=F
 Integral buffers will be    131072 words long.
 Raffenetti 1 integral format.
 Two-electron integral symmetry is turned on.
 One-electron integrals computed using PRISM.
 NBasis=    82 RedAO= T EigKep=  4.90D-03  NBF=    36     7    14    25
 NBsUse=    82 1.00D-06 EigRej= -1.00D+00 NBFU=    36     7    14    25
 Initial guess from the checkpoint file:  "clbr3.chk"
 B after Tr=    -0.000000   -0.000000   -0.000000
         Rot=    1.000000    0.000000    0.000000    0.000000 Ang=   0.00 deg.
 Initial guess orbital symmetries:
       Occupied  (A1) (B2) (A1) (A1) (A1) (B2) (A1) (B2) (A1) (B2)
                 (A1) (B1) (A2) (A1) (B2) (B1) (A1) (A1) (B2) (A1)
                 (A1) (B2) (B1) (B2) (A1) (A1) (B2) (A1) (B1) (A2)
                 (B2) (B1) (B2) (A1) (A1) (A1) (B2) (B1) (A2) (B2)
                 (B1) (A2) (B1) (B2) (A1) (A2) (A1) (A1) (B2) (A1)
                 (A1) (B1) (A1) (B2) (A2) (B1) (A1) (B2) (B2) (B1)
                 (A1)
       Virtual   (B2) (A1) (A1) (B1) (B2) (A1) (A1) (B2) (A1) (B1)
                 (A2) (B2) (B1) (A1) (B2) (B2) (A1) (A1) (B2) (A1)
                 (A1)
 ExpMin= 1.65D-01 ExpMax= 6.10D+03 ExpMxC= 6.10D+03 IAcc=3 IRadAn=         5 AccDes= 0.00D+00
 Harris functional with IExCor=  205 and IRadAn=       5 diagonalized for initial guess.
 HarFok:  IExCor=  205 AccDes= 0.00D+00 IRadAn=         5 IDoV= 1 UseB2=F ITyADJ=14
 ICtDFT=  3500011 ScaDFX=  1.000000  1.000000  1.000000  1.000000
 FoFCou: FMM=F IPFlag=           0 FMFlag=      100000 FMFlg1=           0
         NFxFlg=           0 DoJE=T BraDBF=F KetDBF=T FulRan=T
         wScrn=  0.000000 ICntrl=       500 IOpCl=  0 I1Cent=   200000004 NGrid=           0
         NMat0=    1 NMatS0=      1 NMatT0=    0 NMatD0=    1 NMtDS0=    0 NMtDT0=    0
 Petite list used in FoFCou.
 Keep R1 ints in memory in symmetry-blocked form, NReq=7345167.
 Requested convergence on RMS density matrix=1.00D-08 within 128 cycles.
 Requested convergence on MAX density matrix=1.00D-06.
 Requested convergence on             energy=1.00D-06.
 No special actions if energy rises.
 SCF Done:  E(RHF) =  -8137.28465567     A.U. after   11 cycles
            NFock= 11  Conv=0.30D-08     -V/T= 1.9969
 ExpMin= 1.65D-01 ExpMax= 6.10D+03 ExpMxC= 6.10D+03 IAcc=3 IRadAn=         5 AccDes= 0.00D+00
 HarFok:  IExCor=  205 AccDes= 0.00D+00 IRadAn=         5 IDoV=-2 UseB2=F ITyADJ=14
 ICtDFT= 12500011 ScaDFX=  1.000000  1.000000  1.000000  1.000000
 GSVD:  LWork=       -1280 too small for GESVD, short by        5600 words or        5600 for optimal perf.
 Range of M.O.s used for correlation:    33    82
 NBasis=    82 NAE=    61 NBE=    61 NFC=    32 NFV=     0
 NROrb=     50 NOA=    29 NOB=    29 NVA=    21 NVB=    21
 Fully direct method using O(ONN) memory.
 JobTyp=1 Pass  1:  I=  33 to  61 NPSUse=  1 ParTrn=F ParDer=F DoDerP=T.
 Spin components of T(2) and E(2):
     alpha-alpha T2 =       0.1288120721D-01 E2=     -0.2342006553D-01
     alpha-beta  T2 =       0.1673562751D+00 E2=     -0.1771620114D+00
     beta-beta   T2 =       0.1288120721D-01 E2=     -0.2342006553D-01
 ANorm=    0.1092299725D+01
 E2 =    -0.2240021425D+00 EUMP2 =    -0.81375086578166D+04
          IDoAtm=1111
          Differentiating once with respect to electric field.
                with respect to dipole field.
          Differentiating once with respect to nuclear coordinates.
 Keep R1 ints in memory in symmetry-blocked form, NReq=7345933.
          There are     1 degrees of freedom in the 1st order CPHF.  IDoFFX=0 NUNeed=     1.
 LinEq1:  Iter=  0 NonCon=     1 RMS=5.71D-03 Max=1.14D-01 NDo=     1
 AX will form     1 AO Fock derivatives at one time.
 LinEq1:  Iter=  1 NonCon=     1 RMS=6.93D-04 Max=1.01D-02 NDo=     1
 LinEq1:  Iter=  2 NonCon=     1 RMS=2.23D-04 Max=4.72D-03 NDo=     1
 LinEq1:  Iter=  3 NonCon=     1 RMS=6.55D-05 Max=1.21D-03 NDo=     1
 LinEq1:  Iter=  4 NonCon=     1 RMS=1.28D-05 Max=1.53D-04 NDo=     1
 LinEq1:  Iter=  5 NonCon=     1 RMS=2.17D-06 Max=3.37D-05 NDo=     1
 LinEq1:  Iter=  6 NonCon=     1 RMS=8.37D-07 Max=2.36D-05 NDo=     1
 LinEq1:  Iter=  7 NonCon=     1 RMS=4.21D-07 Max=9.38D-06 NDo=     1
 LinEq1:  Iter=  8 NonCon=     1 RMS=7.60D-08 Max=9.78D-07 NDo=     1
 LinEq1:  Iter=  9 NonCon=     1 RMS=1.27D-08 Max=2.15D-07 NDo=     1
 LinEq1:  Iter= 10 NonCon=     1 RMS=1.87D-09 Max=2.03D-08 NDo=     1
 LinEq1:  Iter= 11 NonCon=     1 RMS=1.68D-10 Max=2.12D-09 NDo=     1
 LinEq1:  Iter= 12 NonCon=     0 RMS=2.44D-11 Max=4.35D-10 NDo=     1
 Linear equations converged to 1.000D-10 1.000D-09 after    12 iterations.
 End of Minotr F.D. properties file   721 does not exist.
 End of Minotr F.D. properties file   722 does not exist.
 End of Minotr F.D. properties file   788 does not exist.
 Calling FoFJK, ICntrl=  10002127 FMM=F ISym2X=1 I1Cent= 0 IOpClX= 0 NMat=1 NMatS=1 NMatT=0.
 ***** Axes restored to original set *****
 -------------------------------------------------------------------
 Center     Atomic                   Forces (Hartrees/Bohr)
 Number     Number              X              Y              Z
 -------------------------------------------------------------------
      1       17          -0.000120239    0.000208260   -0.000000000
      2       35          -0.000132861    0.000230121    0.000345333
      3       35          -0.000132861    0.000230121   -0.000345333
      4       35           0.000385960   -0.000668502    0.000000000
 -------------------------------------------------------------------
 Cartesian Forces:  Max     0.000668502 RMS     0.000293459

 GradGradGradGradGradGradGradGradGradGradGradGradGradGradGradGradGradGrad
 Berny optimization.
 Using GEDIIS/GDIIS optimizer.
 FormGI is forming the generalized inverse of G from B-inverse, IUseBI=4.
 Internal  Forces:  Max     0.000771920 RMS     0.000357028
 Search for a local minimum.
 Step number  13 out of a maximum of   20
 All quantities printed in internal units (Hartrees-Bohrs-Radians)
 Mixed Optimization -- En-DIIS/RFO-DIIS
 Swapping is turned off.
 Update second derivatives using D2CorX and points    7    8    9   10   11
                                                     12   13
 DE= -5.16D-05 DEPred=-4.12D-05 R= 1.25D+00
 TightC=F SS=  1.41D+00  RLast= 5.09D-02 DXNew= 1.3812D+00 1.5281D-01
 Trust test= 1.25D+00 RLast= 5.09D-02 DXMaxT set to 8.21D-01
 The second derivative matrix:
                          R1        R2        R3        A1        A2
           R1           0.10446
           R2          -0.05809   0.10446
           R3           0.01804   0.01804   0.06119
           A1           0.00595   0.00595   0.00654   0.12973
           A2           0.00595   0.00595   0.00654  -0.12027   0.12973
           A3          -0.00258  -0.00258  -0.00649   0.00076   0.00076
           A4           0.00000   0.00000   0.00000   0.00000   0.00000
           D1          -0.00000  -0.00000   0.00000  -0.00000  -0.00000
                          A3        A4        D1
           A3           0.02027
           A4          -0.00000   0.00230
           D1           0.00000   0.00000   0.00230
 ITU=  1  1  1  1  1  1  1  1  1
     Eigenvalues ---    0.00230   0.01669   0.02812   0.08043   0.16256
     Eigenvalues ---    0.25000
 En-DIIS/RFO-DIIS/Sim-DIIS IScMMF=       -3 using points:    13   12
 RFO step:  Lambda=-1.42290150D-05.
 DidBck=F Rises=F RFO-DIIS coefs:    1.22212   -0.22212
 Iteration  1 RMS(Cart)=  0.01035984 RMS(Int)=  0.00002583
 Iteration  2 RMS(Cart)=  0.00002772 RMS(Int)=  0.00000001
 Iteration  3 RMS(Cart)=  0.00000000 RMS(Int)=  0.00000000
 ClnCor:  largest displacement from symmetrization is 4.68D-10 for atom     1.
 Variable       Old X    -DE/DX   Delta X   Delta X   Delta X     New X
                                 (Linear)    (Quad)   (Total)
    R1        4.91653  -0.00043  -0.00399  -0.00088  -0.00487   4.91166
    R2        4.91653  -0.00043  -0.00399  -0.00088  -0.00487   4.91166
    R3        4.92501  -0.00077   0.00188  -0.01161  -0.00973   4.91527
    A1        2.09791  -0.00009  -0.00393  -0.00063  -0.00456   2.09335
    A2        2.09791  -0.00009  -0.00393  -0.00063  -0.00456   2.09335
    A3        4.19582  -0.00018  -0.00786  -0.00125  -0.00911   4.18671
    A4        3.14159   0.00000   0.00000   0.00000   0.00000   3.14159
    D1       -0.00000   0.00000   0.00000   0.00000   0.00000   0.00000
         Item               Value     Threshold  Converged?
 Maximum Force            0.000772     0.000450     NO 
 RMS     Force            0.000357     0.000300     NO 
 Maximum Displacement     0.015769     0.001800     NO 
 RMS     Displacement     0.010353     0.001200     NO 
 Predicted change in Energy=-7.115604D-06
 GradGradGradGradGradGradGradGradGradGradGradGradGradGradGradGradGradGrad

                          Input orientation:                          
 ---------------------------------------------------------------------
 Center     Atomic      Atomic             Coordinates (Angstroms)
 Number     Number       Type             X           Y           Z
 ---------------------------------------------------------------------
      1         17           0        0.386013    1.703385    0.000000
      2         35           0        1.034626    0.579954   -2.252273
      3         35           0        1.034626    0.579954    2.252273
      4         35           0       -0.914512    3.955960    0.000000
 ---------------------------------------------------------------------
                    Distance matrix (angstroms):
                    1          2          3          4
     1  Cl   0.000000
     2  Br   2.599141   0.000000
     3  Br   2.599141   4.504547   0.000000
     4  Br   2.601050   4.502143   4.502143   0.000000
 Stoichiometry    Br3Cl
 Framework group  C2V[C2(ClBr),SGV(Br2)]
 Deg. of freedom     3
 Full point group                 C2V     NOp   4
 Largest Abelian subgroup         C2V     NOp   4
 Largest concise Abelian subgroup C2      NOp   2
                         Standard orientation:                         
 ---------------------------------------------------------------------
 Center     Atomic      Atomic             Coordinates (Angstroms)
 Number     Number       Type             X           Y           Z
 ---------------------------------------------------------------------
      1         17           0        0.000000   -0.000000   -0.001893
      2         35           0        0.000000    2.252273   -1.299119
      3         35           0       -0.000000   -2.252273   -1.299119
      4         35           0       -0.000000    0.000000    2.599157
 ---------------------------------------------------------------------
 Rotational constants (GHZ):           0.6320993           0.6312001           0.3158247
 Standard basis: 3-21G (6D, 7F)
 There are    36 symmetry adapted cartesian basis functions of A1  symmetry.
 There are     7 symmetry adapted cartesian basis functions of A2  symmetry.
 There are    14 symmetry adapted cartesian basis functions of B1  symmetry.
 There are    25 symmetry adapted cartesian basis functions of B2  symmetry.
 There are    36 symmetry adapted basis functions of A1  symmetry.
 There are     7 symmetry adapted basis functions of A2  symmetry.
 There are    14 symmetry adapted basis functions of B1  symmetry.
 There are    25 symmetry adapted basis functions of B2  symmetry.
    82 basis functions,   198 primitive gaussians,    82 cartesian basis functions
    61 alpha electrons       61 beta electrons
       nuclear repulsion energy       795.2105682186 Hartrees.
 NAtoms=    4 NActive=    4 NUniq=    3 SFac= 1.78D+00 NAtFMM=   60 NAOKFM=F Big=F
 Integral buffers will be    131072 words long.
 Raffenetti 1 integral format.
 Two-electron integral symmetry is turned on.
 One-electron integrals computed using PRISM.
 NBasis=    82 RedAO= T EigKep=  4.90D-03  NBF=    36     7    14    25
 NBsUse=    82 1.00D-06 EigRej= -1.00D+00 NBFU=    36     7    14    25
 Initial guess from the checkpoint file:  "clbr3.chk"
 B after Tr=    -0.000000    0.000000   -0.000000
         Rot=    1.000000    0.000000   -0.000000    0.000000 Ang=   0.00 deg.
 Initial guess orbital symmetries:
       Occupied  (A1) (B2) (A1) (A1) (A1) (B2) (A1) (B2) (A1) (A1)
                 (B2) (A1) (B1) (A2) (B2) (B1) (A1) (A1) (B2) (A1)
                 (B2) (A1) (B1) (B2) (A1) (A1) (B2) (A1) (B1) (A2)
                 (B2) (B1) (B2) (A1) (A1) (A1) (B2) (B1) (A2) (B2)
                 (B1) (A2) (B1) (B2) (A1) (A2) (A1) (A1) (B2) (A1)
                 (A1) (B1) (A1) (B2) (A2) (B1) (A1) (B2) (B2) (B1)
                 (A1)
       Virtual   (B2) (A1) (A1) (B1) (B2) (A1) (A1) (B2) (A1) (A2)
                 (B1) (B2) (B1) (A1) (B2) (B2) (A1) (A1) (B2) (A1)
                 (A1)
 Keep R1 ints in memory in symmetry-blocked form, NReq=7345167.
 Requested convergence on RMS density matrix=1.00D-08 within 128 cycles.
 Requested convergence on MAX density matrix=1.00D-06.
 Requested convergence on             energy=1.00D-06.
 No special actions if energy rises.
 SCF Done:  E(RHF) =  -8137.28487536     A.U. after   11 cycles
            NFock= 11  Conv=0.21D-08     -V/T= 1.9969
 ExpMin= 1.65D-01 ExpMax= 6.10D+03 ExpMxC= 6.10D+03 IAcc=3 IRadAn=         5 AccDes= 0.00D+00
 HarFok:  IExCor=  205 AccDes= 0.00D+00 IRadAn=         5 IDoV=-2 UseB2=F ITyADJ=14
 ICtDFT= 12500011 ScaDFX=  1.000000  1.000000  1.000000  1.000000
 GSVD:  LWork=       -1280 too small for GESVD, short by        5600 words or        5600 for optimal perf.
 Range of M.O.s used for correlation:    33    82
 NBasis=    82 NAE=    61 NBE=    61 NFC=    32 NFV=     0
 NROrb=     50 NOA=    29 NOB=    29 NVA=    21 NVB=    21
 Fully direct method using O(ONN) memory.
 JobTyp=1 Pass  1:  I=  33 to  61 NPSUse=  1 ParTrn=F ParDer=F DoDerP=T.
 Spin components of T(2) and E(2):
     alpha-alpha T2 =       0.1287438449D-01 E2=     -0.2341839258D-01
     alpha-beta  T2 =       0.1666846350D+00 E2=     -0.1769539323D+00
     beta-beta   T2 =       0.1287438449D-01 E2=     -0.2341839258D-01
 ANorm=    0.1091985991D+01
 E2 =    -0.2237907174D+00 EUMP2 =    -0.81375086660824D+04
          IDoAtm=1111
          Differentiating once with respect to electric field.
                with respect to dipole field.
          Differentiating once with respect to nuclear coordinates.
 Keep R1 ints in memory in symmetry-blocked form, NReq=7345933.
          There are     1 degrees of freedom in the 1st order CPHF.  IDoFFX=0 NUNeed=     1.
 LinEq1:  Iter=  0 NonCon=     1 RMS=5.70D-03 Max=1.15D-01 NDo=     1
 AX will form     1 AO Fock derivatives at one time.
 LinEq1:  Iter=  1 NonCon=     1 RMS=6.88D-04 Max=1.01D-02 NDo=     1
 LinEq1:  Iter=  2 NonCon=     1 RMS=2.08D-04 Max=4.24D-03 NDo=     1
 LinEq1:  Iter=  3 NonCon=     1 RMS=6.41D-05 Max=1.20D-03 NDo=     1
 LinEq1:  Iter=  4 NonCon=     1 RMS=1.26D-05 Max=1.55D-04 NDo=     1
 LinEq1:  Iter=  5 NonCon=     1 RMS=1.99D-06 Max=3.25D-05 NDo=     1
 LinEq1:  Iter=  6 NonCon=     1 RMS=2.98D-07 Max=6.27D-06 NDo=     1
 LinEq1:  Iter=  7 NonCon=     1 RMS=9.77D-08 Max=1.64D-06 NDo=     1
 LinEq1:  Iter=  8 NonCon=     1 RMS=3.71D-08 Max=9.24D-07 NDo=     1
 LinEq1:  Iter=  9 NonCon=     1 RMS=5.43D-09 Max=6.44D-08 NDo=     1
 LinEq1:  Iter= 10 NonCon=     1 RMS=1.02D-09 Max=1.36D-08 NDo=     1
 LinEq1:  Iter= 11 NonCon=     1 RMS=1.48D-10 Max=1.92D-09 NDo=     1
 LinEq1:  Iter= 12 NonCon=     0 RMS=1.67D-11 Max=2.23D-10 NDo=     1
 Linear equations converged to 1.000D-10 1.000D-09 after    12 iterations.
 End of Minotr F.D. properties file   721 does not exist.
 End of Minotr F.D. properties file   722 does not exist.
 End of Minotr F.D. properties file   788 does not exist.
 Calling FoFJK, ICntrl=  10002127 FMM=F ISym2X=1 I1Cent= 0 IOpClX= 0 NMat=1 NMatS=1 NMatT=0.
 ***** Axes restored to original set *****
 -------------------------------------------------------------------
 Center     Atomic                   Forces (Hartrees/Bohr)
 Number     Number              X              Y              Z
 -------------------------------------------------------------------
      1       17          -0.000067386    0.000116716   -0.000000000
      2       35          -0.000016470    0.000028527    0.000079923
      3       35          -0.000016470    0.000028527   -0.000079923
      4       35           0.000100326   -0.000173770    0.000000000
 -------------------------------------------------------------------
 Cartesian Forces:  Max     0.000173770 RMS     0.000078194

 GradGradGradGradGradGradGradGradGradGradGradGradGradGradGradGradGradGrad
 Berny optimization.
 Using GEDIIS/GDIIS optimizer.
 FormGI is forming the generalized inverse of G from B-inverse, IUseBI=4.
 Internal  Forces:  Max     0.000200653 RMS     0.000084424
 Search for a local minimum.
 Step number  14 out of a maximum of   20
 All quantities printed in internal units (Hartrees-Bohrs-Radians)
 Mixed Optimization -- En-DIIS/RFO-DIIS
 Swapping is turned off.
 Update second derivatives using D2CorX and points    7    8    9   10   11
                                                     12   13   14
 DE= -8.27D-06 DEPred=-7.12D-06 R= 1.16D+00
 TightC=F SS=  1.41D+00  RLast= 1.63D-02 DXNew= 1.3812D+00 4.8996D-02
 Trust test= 1.16D+00 RLast= 1.63D-02 DXMaxT set to 8.21D-01
 The second derivative matrix:
                          R1        R2        R3        A1        A2
           R1           0.10222
           R2          -0.06033   0.10222
           R3           0.01063   0.01063   0.04660
           A1           0.00456   0.00456   0.00137   0.12907
           A2           0.00456   0.00456   0.00137  -0.12093   0.12907
           A3          -0.00029  -0.00029   0.00017   0.00170   0.00170
           A4          -0.00000  -0.00000  -0.00000  -0.00000  -0.00000
           D1          -0.00000  -0.00000   0.00000  -0.00000  -0.00000
                          A3        A4        D1
           A3           0.02263
           A4          -0.00000   0.00230
           D1           0.00000   0.00000   0.00230
 ITU=  1  1  1  1  1  1  1  1  1
     Eigenvalues ---    0.00230   0.01880   0.02985   0.05991   0.16256
     Eigenvalues ---    0.25000
 En-DIIS/RFO-DIIS/Sim-DIIS IScMMF=       -3 using points:    14   13   12
 RFO step:  Lambda=-1.12151026D-06.
 DidBck=F Rises=F RFO-DIIS coefs:    1.29935   -0.41898    0.11964
 Iteration  1 RMS(Cart)=  0.00291542 RMS(Int)=  0.00000279
 Iteration  2 RMS(Cart)=  0.00000247 RMS(Int)=  0.00000001
 Iteration  3 RMS(Cart)=  0.00000000 RMS(Int)=  0.00000001
 ClnCor:  largest displacement from symmetrization is 8.74D-09 for atom     1.
 Variable       Old X    -DE/DX   Delta X   Delta X   Delta X     New X
                                 (Linear)    (Quad)   (Total)
    R1        4.91166  -0.00009   0.00069  -0.00198  -0.00128   4.91038
    R2        4.91166  -0.00009   0.00069  -0.00198  -0.00128   4.91038
    R3        4.91527  -0.00020  -0.00392  -0.00012  -0.00405   4.91122
    A1        2.09335   0.00002   0.00075   0.00075   0.00150   2.09486
    A2        2.09335   0.00002   0.00075   0.00075   0.00150   2.09486
    A3        4.18671   0.00004   0.00151   0.00150   0.00300   4.18971
    A4        3.14159   0.00000  -0.00000  -0.00000   0.00000   3.14159
    D1       -0.00000   0.00000   0.00000  -0.00000   0.00000   0.00000
         Item               Value     Threshold  Converged?
 Maximum Force            0.000201     0.000450     YES
 RMS     Force            0.000084     0.000300     YES
 Maximum Displacement     0.004796     0.001800     NO 
 RMS     Displacement     0.002916     0.001200     NO 
 Predicted change in Energy=-5.541751D-07
 GradGradGradGradGradGradGradGradGradGradGradGradGradGradGradGradGradGrad

                          Input orientation:                          
 ---------------------------------------------------------------------
 Center     Atomic      Atomic             Coordinates (Angstroms)
 Number     Number       Type             X           Y           Z
 ---------------------------------------------------------------------
      1         17           0        0.384985    1.705165    0.000000
      2         35           0        1.035118    0.579102   -2.249735
      3         35           0        1.035118    0.579102    2.249735
      4         35           0       -0.914468    3.955884    0.000000
 ---------------------------------------------------------------------
                    Distance matrix (angstroms):
                    1          2          3          4
     1  Cl   0.000000
     2  Br   2.598461   0.000000
     3  Br   2.598461   4.499471   0.000000
     4  Br   2.598907   4.501650   4.501650   0.000000
 Stoichiometry    Br3Cl
 Framework group  C2V[C2(ClBr),SGV(Br2)]
 Deg. of freedom     3
 Full point group                 C2V     NOp   4
 Largest Abelian subgroup         C2V     NOp   4
 Largest concise Abelian subgroup C2      NOp   2
                         Standard orientation:                         
 ---------------------------------------------------------------------
 Center     Atomic      Atomic             Coordinates (Angstroms)
 Number     Number       Type             X           Y           Z
 ---------------------------------------------------------------------
      1         17           0       -0.000000   -0.000000    0.000466
      2         35           0       -0.000000    2.249735   -1.299800
      3         35           0        0.000000   -2.249735   -1.299800
      4         35           0       -0.000000   -0.000000    2.599373
 ---------------------------------------------------------------------
 Rotational constants (GHZ):           0.6326251           0.6318088           0.3161083
 Standard basis: 3-21G (6D, 7F)
 There are    36 symmetry adapted cartesian basis functions of A1  symmetry.
 There are     7 symmetry adapted cartesian basis functions of A2  symmetry.
 There are    14 symmetry adapted cartesian basis functions of B1  symmetry.
 There are    25 symmetry adapted cartesian basis functions of B2  symmetry.
 There are    36 symmetry adapted basis functions of A1  symmetry.
 There are     7 symmetry adapted basis functions of A2  symmetry.
 There are    14 symmetry adapted basis functions of B1  symmetry.
 There are    25 symmetry adapted basis functions of B2  symmetry.
    82 basis functions,   198 primitive gaussians,    82 cartesian basis functions
    61 alpha electrons       61 beta electrons
       nuclear repulsion energy       795.5676055861 Hartrees.
 NAtoms=    4 NActive=    4 NUniq=    3 SFac= 1.78D+00 NAtFMM=   60 NAOKFM=F Big=F
 Integral buffers will be    131072 words long.
 Raffenetti 1 integral format.
 Two-electron integral symmetry is turned on.
 One-electron integrals computed using PRISM.
 NBasis=    82 RedAO= T EigKep=  4.90D-03  NBF=    36     7    14    25
 NBsUse=    82 1.00D-06 EigRej= -1.00D+00 NBFU=    36     7    14    25
 Initial guess from the checkpoint file:  "clbr3.chk"
 B after Tr=     0.000000   -0.000000    0.000000
         Rot=    1.000000   -0.000000    0.000000   -0.000000 Ang=   0.00 deg.
 Initial guess orbital symmetries:
       Occupied  (A1) (B2) (A1) (A1) (A1) (B2) (A1) (B2) (A1) (A1)
                 (B2) (A1) (B1) (A2) (B2) (B1) (A1) (A1) (B2) (A1)
                 (B2) (A1) (B1) (B2) (A1) (A1) (B2) (A1) (B2) (B1)
                 (A2) (B1) (B2) (A1) (A1) (A1) (B2) (B2) (B1) (A2)
                 (B1) (A2) (B1) (B2) (A1) (A2) (A1) (A1) (B2) (A1)
                 (A1) (B1) (B2) (A1) (A2) (B1) (B2) (A1) (B2) (B1)
                 (A1)
       Virtual   (A1) (B2) (A1) (B1) (A1) (B2) (B2) (A1) (A1) (A2)
                 (B1) (B2) (B1) (A1) (B2) (A1) (B2) (A1) (A1) (B2)
                 (A1)
 Keep R1 ints in memory in symmetry-blocked form, NReq=7345167.
 Requested convergence on RMS density matrix=1.00D-08 within 128 cycles.
 Requested convergence on MAX density matrix=1.00D-06.
 Requested convergence on             energy=1.00D-06.
 No special actions if energy rises.
 SCF Done:  E(RHF) =  -8137.28494783     A.U. after   10 cycles
            NFock= 10  Conv=0.53D-08     -V/T= 1.9969
 ExpMin= 1.65D-01 ExpMax= 6.10D+03 ExpMxC= 6.10D+03 IAcc=3 IRadAn=         5 AccDes= 0.00D+00
 HarFok:  IExCor=  205 AccDes= 0.00D+00 IRadAn=         5 IDoV=-2 UseB2=F ITyADJ=14
 ICtDFT= 12500011 ScaDFX=  1.000000  1.000000  1.000000  1.000000
 GSVD:  LWork=       -1280 too small for GESVD, short by        5600 words or        5600 for optimal perf.
 Range of M.O.s used for correlation:    33    82
 NBasis=    82 NAE=    61 NBE=    61 NFC=    32 NFV=     0
 NROrb=     50 NOA=    29 NOB=    29 NVA=    21 NVB=    21
 Fully direct method using O(ONN) memory.
 JobTyp=1 Pass  1:  I=  33 to  61 NPSUse=  1 ParTrn=F ParDer=F DoDerP=T.
 Spin components of T(2) and E(2):
     alpha-alpha T2 =       0.1287204962D-01 E2=     -0.2341780153D-01
     alpha-beta  T2 =       0.1664566521D+00 E2=     -0.1768831599D+00
     beta-beta   T2 =       0.1287204962D-01 E2=     -0.2341780153D-01
 ANorm=    0.1091879458D+01
 E2 =    -0.2237187630D+00 EUMP2 =    -0.81375086665959D+04
          IDoAtm=1111
          Differentiating once with respect to electric field.
                with respect to dipole field.
          Differentiating once with respect to nuclear coordinates.
 Keep R1 ints in memory in symmetry-blocked form, NReq=7345933.
          There are     1 degrees of freedom in the 1st order CPHF.  IDoFFX=0 NUNeed=     1.
 LinEq1:  Iter=  0 NonCon=     1 RMS=5.70D-03 Max=1.15D-01 NDo=     1
 AX will form     1 AO Fock derivatives at one time.
 LinEq1:  Iter=  1 NonCon=     1 RMS=6.86D-04 Max=1.00D-02 NDo=     1
 LinEq1:  Iter=  2 NonCon=     1 RMS=2.04D-04 Max=4.17D-03 NDo=     1
 LinEq1:  Iter=  3 NonCon=     1 RMS=6.37D-05 Max=1.20D-03 NDo=     1
 LinEq1:  Iter=  4 NonCon=     1 RMS=1.26D-05 Max=1.55D-04 NDo=     1
 LinEq1:  Iter=  5 NonCon=     1 RMS=1.93D-06 Max=3.27D-05 NDo=     1
 LinEq1:  Iter=  6 NonCon=     1 RMS=1.90D-07 Max=3.27D-06 NDo=     1
 LinEq1:  Iter=  7 NonCon=     1 RMS=7.53D-08 Max=1.68D-06 NDo=     1
 LinEq1:  Iter=  8 NonCon=     1 RMS=3.77D-08 Max=7.71D-07 NDo=     1
 LinEq1:  Iter=  9 NonCon=     1 RMS=4.73D-09 Max=4.09D-08 NDo=     1
 LinEq1:  Iter= 10 NonCon=     1 RMS=7.30D-10 Max=1.17D-08 NDo=     1
 LinEq1:  Iter= 11 NonCon=     1 RMS=1.39D-10 Max=1.74D-09 NDo=     1
 LinEq1:  Iter= 12 NonCon=     0 RMS=1.22D-11 Max=1.31D-10 NDo=     1
 Linear equations converged to 1.000D-10 1.000D-09 after    12 iterations.
 End of Minotr F.D. properties file   721 does not exist.
 End of Minotr F.D. properties file   722 does not exist.
 End of Minotr F.D. properties file   788 does not exist.
 Calling FoFJK, ICntrl=  10002127 FMM=F ISym2X=1 I1Cent= 0 IOpClX= 0 NMat=1 NMatS=1 NMatT=0.
 ***** Axes restored to original set *****
 -------------------------------------------------------------------
 Center     Atomic                   Forces (Hartrees/Bohr)
 Number     Number              X              Y              Z
 -------------------------------------------------------------------
      1       17          -0.000011859    0.000020541    0.000000000
      2       35           0.000005153   -0.000008925   -0.000031996
      3       35           0.000005153   -0.000008925    0.000031996
      4       35           0.000001554   -0.000002691   -0.000000000
 -------------------------------------------------------------------
 Cartesian Forces:  Max     0.000031996 RMS     0.000015363

 GradGradGradGradGradGradGradGradGradGradGradGradGradGradGradGradGradGrad
 Berny optimization.
 Using GEDIIS/GDIIS optimizer.
 FormGI is forming the generalized inverse of G from B-inverse, IUseBI=4.
 Internal  Forces:  Max     0.000032859 RMS     0.000019289
 Search for a local minimum.
 Step number  15 out of a maximum of   20
 All quantities printed in internal units (Hartrees-Bohrs-Radians)
 Mixed Optimization -- En-DIIS/RFO-DIIS
 Swapping is turned off.
 Update second derivatives using D2CorX and points    7    8    9   10   11
                                                     12   13   14   15
 DE= -5.14D-07 DEPred=-5.54D-07 R= 9.27D-01
 Trust test= 9.27D-01 RLast= 5.76D-03 DXMaxT set to 8.21D-01
 The second derivative matrix:
                          R1        R2        R3        A1        A2
           R1           0.10831
           R2          -0.05425   0.10831
           R3           0.01345   0.01345   0.03855
           A1           0.00149   0.00149  -0.00299   0.12943
           A2           0.00149   0.00149  -0.00299  -0.12057   0.12943
           A3           0.00029   0.00029   0.00068   0.00286   0.00286
           A4           0.00000   0.00000   0.00000   0.00000   0.00000
           D1          -0.00000  -0.00000   0.00000  -0.00000  -0.00000
                          A3        A4        D1
           A3           0.01840
           A4          -0.00000   0.00230
           D1           0.00000   0.00000   0.00230
 ITU=  0  1  1  1  1  1  1  1  1
     Eigenvalues ---    0.00230   0.01808   0.02672   0.06685   0.16256
     Eigenvalues ---    0.25000
 En-DIIS/RFO-DIIS/Sim-DIIS IScMMF=       -3 using points:    15   14   13   12
 RFO step:  Lambda=-1.05641831D-07.
 DidBck=T Rises=F RFO-DIIS coefs:    0.60406    0.54967   -0.20271    0.04897
 Iteration  1 RMS(Cart)=  0.00099640 RMS(Int)=  0.00000020
 Iteration  2 RMS(Cart)=  0.00000029 RMS(Int)=  0.00000000
 ClnCor:  largest displacement from symmetrization is 3.37D-10 for atom     1.
 Variable       Old X    -DE/DX   Delta X   Delta X   Delta X     New X
                                 (Linear)    (Quad)   (Total)
    R1        4.91038   0.00003   0.00064   0.00000   0.00064   4.91102
    R2        4.91038   0.00003   0.00064  -0.00000   0.00064   4.91102
    R3        4.91122  -0.00000  -0.00031   0.00000  -0.00031   4.91092
    A1        2.09486  -0.00001  -0.00043   0.00000  -0.00043   2.09443
    A2        2.09486  -0.00001  -0.00043  -0.00000  -0.00043   2.09443
    A3        4.18971  -0.00002  -0.00086  -0.00000  -0.00086   4.18885
    A4        3.14159   0.00000  -0.00000   0.00000   0.00000   3.14159
    D1       -0.00000   0.00000   0.00000   0.00000   0.00000   0.00000
         Item               Value     Threshold  Converged?
 Maximum Force            0.000033     0.000450     YES
 RMS     Force            0.000019     0.000300     YES
 Maximum Displacement     0.001606     0.001800     YES
 RMS     Displacement     0.000997     0.001200     YES
 Predicted change in Energy=-4.622074D-08
 Optimization completed.
    -- Stationary point found.
                           ----------------------------
                           !   Optimized Parameters   !
                           ! (Angstroms and Degrees)  !
 --------------------------                            --------------------------
 ! Name  Definition              Value          Derivative Info.                !
 --------------------------------------------------------------------------------
 ! R1    R(1,2)                  2.5985         -DE/DX =    0.0                 !
 ! R2    R(1,3)                  2.5985         -DE/DX =    0.0                 !
 ! R3    R(1,4)                  2.5989         -DE/DX =    0.0                 !
 ! A1    A(2,1,4)              120.0264         -DE/DX =    0.0                 !
 ! A2    A(3,1,4)              120.0264         -DE/DX =    0.0                 !
 ! A3    L(2,1,3,4,-1)         240.0527         -DE/DX =    0.0                 !
 ! A4    L(2,1,3,4,-2)         180.0            -DE/DX =    0.0                 !
 ! D1    D(1,2,4,3)              0.0            -DE/DX =    0.0                 !
 --------------------------------------------------------------------------------
 GradGradGradGradGradGradGradGradGradGradGradGradGradGradGradGradGradGrad

                          Input orientation:                          
 ---------------------------------------------------------------------
 Center     Atomic      Atomic             Coordinates (Angstroms)
 Number     Number       Type             X           Y           Z
 ---------------------------------------------------------------------
      1         17           0        0.384985    1.705165    0.000000
      2         35           0        1.035118    0.579102   -2.249735
      3         35           0        1.035118    0.579102    2.249735
      4         35           0       -0.914468    3.955884   -0.000000
 ---------------------------------------------------------------------
                    Distance matrix (angstroms):
                    1          2          3          4
     1  Cl   0.000000
     2  Br   2.598461   0.000000
     3  Br   2.598461   4.499471   0.000000
     4  Br   2.598907   4.501650   4.501650   0.000000
 Stoichiometry    Br3Cl
 Framework group  C2V[C2(ClBr),SGV(Br2)]
 Deg. of freedom     3
 Full point group                 C2V     NOp   4
 Largest Abelian subgroup         C2V     NOp   4
 Largest concise Abelian subgroup C2      NOp   2
                         Standard orientation:                         
 ---------------------------------------------------------------------
 Center     Atomic      Atomic             Coordinates (Angstroms)
 Number     Number       Type             X           Y           Z
 ---------------------------------------------------------------------
      1         17           0       -0.000000    0.000000    0.000466
      2         35           0        0.000000    2.249735   -1.299800
      3         35           0       -0.000000   -2.249735   -1.299800
      4         35           0       -0.000000    0.000000    2.599373
 ---------------------------------------------------------------------
 Rotational constants (GHZ):           0.6326251           0.6318088           0.3161083

 **********************************************************************

            Population analysis using the SCF Density.

 **********************************************************************

 Orbital symmetries:
       Occupied  (A1) (B2) (A1) (A1) (A1) (B2) (A1) (B2) (A1) (A1)
                 (B2) (A1) (B1) (A2) (B2) (B1) (A1) (A1) (B2) (A1)
                 (B2) (A1) (B1) (B2) (A1) (A1) (B2) (A1) (B2) (B1)
                 (A2) (B1) (B2) (A1) (A1) (A1) (B2) (B2) (B1) (A2)
                 (B1) (A2) (B1) (B2) (A1) (A2) (A1) (A1) (B2) (A1)
                 (A1) (B1) (A1) (B2) (A2) (B1) (A1) (B2) (B2) (B1)
                 (A1)
       Virtual   (B2) (A1) (A1) (B1) (B2) (A1) (A1) (B2) (A1) (A2)
                 (B1) (B2) (B1) (A1) (B2) (B2) (A1) (A1) (B2) (A1)
                 (A1)
 The electronic state is 1-A1.
 Alpha  occ. eigenvalues -- -486.81070-486.81070-486.81054-104.25969 -64.82283
 Alpha  occ. eigenvalues --  -64.82283 -64.82266 -58.00956 -58.00956 -58.00940
 Alpha  occ. eigenvalues --  -58.00743 -58.00741 -58.00738 -58.00735 -58.00725
 Alpha  occ. eigenvalues --  -58.00720 -10.64111  -9.81368  -9.81368  -9.81352
 Alpha  occ. eigenvalues --   -8.10103  -8.10103  -8.09756  -7.39544  -7.39544
 Alpha  occ. eigenvalues --   -7.39527  -7.38303  -7.38303  -7.38287  -7.38275
 Alpha  occ. eigenvalues --   -7.38275  -7.38259  -3.12554  -3.12547  -3.12523
 Alpha  occ. eigenvalues --   -3.12056  -3.12053  -3.12037  -3.12025  -3.12018
 Alpha  occ. eigenvalues --   -3.12004  -3.10554  -3.10554  -3.10554  -3.10554
 Alpha  occ. eigenvalues --   -3.10539  -3.10538  -1.18331  -0.99546  -0.99537
 Alpha  occ. eigenvalues --   -0.97131  -0.57449  -0.57225  -0.57224  -0.43687
 Alpha  occ. eigenvalues --   -0.43679  -0.43364  -0.43355  -0.43237  -0.42434
 Alpha  occ. eigenvalues --   -0.32566
 Alpha virt. eigenvalues --   -0.11228  -0.11225   0.63149   0.69627   0.71928
 Alpha virt. eigenvalues --    0.71932   0.79178   0.79182   0.81083   0.82220
 Alpha virt. eigenvalues --    0.82225   0.84989   0.88886   0.91688   0.91695
 Alpha virt. eigenvalues --    0.97592   0.97612   1.01481  24.02895  24.02900
 Alpha virt. eigenvalues --   24.03467
          Condensed to atoms (all electrons):
               1          2          3          4
     1  Cl  16.900050   0.024146   0.024146   0.024180
     2  Br   0.024146  34.974279   0.005286   0.005272
     3  Br   0.024146   0.005286  34.974279   0.005272
     4  Br   0.024180   0.005272   0.005272  34.974789
 Mulliken charges:
               1
     1  Cl   0.027478
     2  Br  -0.008983
     3  Br  -0.008983
     4  Br  -0.009513
 Sum of Mulliken charges =  -0.00000
 Mulliken charges with hydrogens summed into heavy atoms:
               1
     1  Cl   0.027478
     2  Br  -0.008983
     3  Br  -0.008983
     4  Br  -0.009513
 Electronic spatial extent (au):  <R**2>=           2682.7073
 Charge=             -0.0000 electrons
 Dipole moment (field-independent basis, Debye):
    X=             -0.0000    Y=              0.0000    Z=             -0.0063  Tot=              0.0063
 Quadrupole moment (field-independent basis, Debye-Ang):
   XX=            -69.3276   YY=            -66.6604   ZZ=            -66.6761
   XY=              0.0000   XZ=              0.0000   YZ=              0.0000
 Traceless Quadrupole moment (field-independent basis, Debye-Ang):
   XX=             -1.7729   YY=              0.8943   ZZ=              0.8786
   XY=              0.0000   XZ=              0.0000   YZ=              0.0000
 Octapole moment (field-independent basis, Debye-Ang**2):
  XXX=             -0.0000  YYY=             -0.0000  ZZZ=             11.3145  XYY=             -0.0000
  XXY=              0.0000  XXZ=             -0.0053  XZZ=              0.0000  YZZ=              0.0000
  YYZ=            -11.3930  XYZ=             -0.0000
 Hexadecapole moment (field-independent basis, Debye-Ang**3):
 XXXX=            -76.8958 YYYY=          -1107.9601 ZZZZ=          -1109.4351 XXXY=              0.0000
 XXXZ=              0.0000 YYYX=              0.0000 YYYZ=             -0.0000 ZZZX=              0.0000
 ZZZY=              0.0000 XXYY=           -214.5715 XXZZ=           -214.8252 YYZZ=           -369.5075
 XXYZ=              0.0000 YYXZ=              0.0000 ZZXY=              0.0000
 N-N= 7.955676055861D+02 E-N=-2.109316278674D+04  KE= 8.162689752702D+03
 Symmetry A1   KE= 4.409845052828D+03
 Symmetry A2   KE= 4.225492762520D+02
 Symmetry B1   KE= 7.619712370357D+02
 Symmetry B2   KE= 2.568324186586D+03
 Unable to Open any file for archive entry.
 1\1\GINC-BS001\FOpt\RMP2-FC\3-21G\Br3Cl1\PNATT\10-Aug-2026\0\\# opt fr
 eq=hpmodes mp2/3-21g geom=connectivity\\Title Card Required\\0,1\Cl,0.
 3849851724,1.7051649936,0.\Br,1.0351179919,0.5791019185,-2.2497353646\
 Br,1.0351179919,0.5791019185,2.2497353646\Br,-0.9144682363,3.955884319
 5,0.\\Version=ES64L-G16RevC.01\State=1-A1\HF=-8137.2849478\MP2=-8137.5
 086666\RMSD=5.277e-09\RMSF=1.536e-05\Dipole=0.0004687,-0.0008118,0.\PG
 =C02V [C2(Cl1Br1),SGV(Br2)]\\@
 The archive entry for this job was punched.


 AND ALL THIS SCIENCE I DON'T UNDERSTAND
 IT'S JUST MY JOB FIVE DAYS A WEEK

                           -- ELTON JOHN, "ROCKET MAN"
 Job cpu time:       0 days  0 hours  1 minutes  8.5 seconds.
 Elapsed time:       0 days  0 hours  1 minutes  7.0 seconds.
 File lengths (MBytes):  RWF=      6 Int=      0 D2E=      0 Chk=      2 Scr=      1
 Normal termination of Gaussian 16 at Mon Aug 10 16:16:38 2026.
 Link1:  Proceeding to internal job step number  2.
 -------------------------------------------------------------------
 #N Geom=AllCheck Guess=TCheck SCRF=Check GenChk RMP2(FC)/3-21G Freq
 -------------------------------------------------------------------
 1/10=4,29=7,30=1,38=1,40=1/1,3;
 2/12=2,40=1/2;
 3/5=5,11=1,14=-4,25=1,30=1,70=2,71=2,116=1,140=1/1,2,3;
 4/5=101/1;
 5/5=2,38=6,98=1/2;
 8/6=3,8=1,10=1,19=11,30=-1/1;
 9/15=3,16=-3/6;
 11/6=1,8=1,15=11,17=12,24=-1,27=1,28=-2,29=300,32=6,42=3/1,2,10;
 10/6=2,21=1/2;
 8/6=4,8=1,10=1,19=11,30=-1/11,4;
 10/5=1,20=4/2;
 11/12=2,14=11,16=1,17=2,28=-2,42=3,76=2/2,10,12;
 6/7=2,8=2,9=2,10=2/1;
 7/8=11,10=1,12=2,25=1,44=2/1,2,3,16;
 1/10=4,30=1/3;
 99//99;
 Structure from the checkpoint file:  "clbr3.chk"
 -------------------
 Title Card Required
 -------------------
 Charge =  0 Multiplicity = 1
 Redundant internal coordinates found in file.  (old form).
 Cl,0,0.3849851724,1.7051649936,0.
 Br,0,1.0351179919,0.5791019185,-2.2497353646
 Br,0,1.0351179919,0.5791019185,2.2497353646
 Br,0,-0.9144682363,3.9558843195,0.
 Recover connectivity data from disk.

 GradGradGradGradGradGradGradGradGradGradGradGradGradGradGradGradGradGrad
 Berny optimization.
 Initialization pass.
                           ----------------------------
                           !    Initial Parameters    !
                           ! (Angstroms and Degrees)  !
 --------------------------                            --------------------------
 ! Name  Definition              Value          Derivative Info.                !
 --------------------------------------------------------------------------------
 ! R1    R(1,2)                  2.5985         calculate D2E/DX2 analytically  !
 ! R2    R(1,3)                  2.5985         calculate D2E/DX2 analytically  !
 ! R3    R(1,4)                  2.5989         calculate D2E/DX2 analytically  !
 ! A1    A(2,1,4)              120.0264         calculate D2E/DX2 analytically  !
 ! A2    A(3,1,4)              120.0264         calculate D2E/DX2 analytically  !
 ! A3    L(2,1,3,4,-1)         240.0527         calculate D2E/DX2 analytically  !
 ! A4    L(2,1,3,4,-2)         180.0            calculate D2E/DX2 analytically  !
 ! D1    D(1,2,4,3)              0.0            calculate D2E/DX2 analytically  !
 --------------------------------------------------------------------------------
 Trust Radius=3.00D-01 FncErr=1.00D-07 GrdErr=1.00D-07 EigMax=2.50D+02 EigMin=1.00D-04
 Number of steps in this run=      2 maximum allowed number of steps=      2.
 GradGradGradGradGradGradGradGradGradGradGradGradGradGradGradGradGradGrad

                          Input orientation:                          
 ---------------------------------------------------------------------
 Center     Atomic      Atomic             Coordinates (Angstroms)
 Number     Number       Type             X           Y           Z
 ---------------------------------------------------------------------
      1         17           0        0.384985    1.705165    0.000000
      2         35           0        1.035118    0.579102   -2.249735
      3         35           0        1.035118    0.579102    2.249735
      4         35           0       -0.914468    3.955884   -0.000000
 ---------------------------------------------------------------------
                    Distance matrix (angstroms):
                    1          2          3          4
     1  Cl   0.000000
     2  Br   2.598461   0.000000
     3  Br   2.598461   4.499471   0.000000
     4  Br   2.598907   4.501650   4.501650   0.000000
 Stoichiometry    Br3Cl
 Framework group  C2V[C2(ClBr),SGV(Br2)]
 Deg. of freedom     3
 Full point group                 C2V     NOp   4
 Largest Abelian subgroup         C2V     NOp   4
 Largest concise Abelian subgroup C2      NOp   2
                         Standard orientation:                         
 ---------------------------------------------------------------------
 Center     Atomic      Atomic             Coordinates (Angstroms)
 Number     Number       Type             X           Y           Z
 ---------------------------------------------------------------------
      1         17           0        0.000000   -0.000000    0.000466
      2         35           0       -0.000000    2.249735   -1.299800
      3         35           0        0.000000   -2.249735   -1.299800
      4         35           0        0.000000   -0.000000    2.599373
 ---------------------------------------------------------------------
 Rotational constants (GHZ):           0.6326251           0.6318088           0.3161083
 Standard basis: 3-21G (6D, 7F)
 There are    36 symmetry adapted cartesian basis functions of A1  symmetry.
 There are     7 symmetry adapted cartesian basis functions of A2  symmetry.
 There are    14 symmetry adapted cartesian basis functions of B1  symmetry.
 There are    25 symmetry adapted cartesian basis functions of B2  symmetry.
 There are    36 symmetry adapted basis functions of A1  symmetry.
 There are     7 symmetry adapted basis functions of A2  symmetry.
 There are    14 symmetry adapted basis functions of B1  symmetry.
 There are    25 symmetry adapted basis functions of B2  symmetry.
    82 basis functions,   198 primitive gaussians,    82 cartesian basis functions
    61 alpha electrons       61 beta electrons
       nuclear repulsion energy       795.5676055861 Hartrees.
 NAtoms=    4 NActive=    4 NUniq=    3 SFac= 1.78D+00 NAtFMM=   60 NAOKFM=F Big=F
 Integral buffers will be    131072 words long.
 Raffenetti 1 integral format.
 Two-electron integral symmetry is turned on.
 One-electron integrals computed using PRISM.
 NBasis=    82 RedAO= T EigKep=  4.90D-03  NBF=    36     7    14    25
 NBsUse=    82 1.00D-06 EigRej= -1.00D+00 NBFU=    36     7    14    25
 Initial guess from the checkpoint file:  "clbr3.chk"
 B after Tr=    -0.000000   -0.000000   -0.000000
         Rot=    1.000000   -0.000000    0.000000    0.000000 Ang=   0.00 deg.
 Initial guess orbital symmetries:
       Occupied  (A1) (B2) (A1) (A1) (A1) (B2) (A1) (B2) (A1) (A1)
                 (B2) (A1) (B1) (A2) (B2) (B1) (A1) (A1) (B2) (A1)
                 (B2) (A1) (B1) (B2) (A1) (A1) (B2) (A1) (B2) (B1)
                 (A2) (B1) (B2) (A1) (A1) (A1) (B2) (B2) (B1) (A2)
                 (B1) (A2) (B1) (B2) (A1) (A2) (A1) (A1) (B2) (A1)
                 (A1) (B1) (A1) (B2) (A2) (B1) (A1) (B2) (B2) (B1)
                 (A1)
       Virtual   (B2) (A1) (A1) (B1) (B2) (A1) (A1) (B2) (A1) (A2)
                 (B1) (B2) (B1) (A1) (B2) (B2) (A1) (A1) (B2) (A1)
                 (A1)
 Keep R1 ints in memory in symmetry-blocked form, NReq=7345167.
 Requested convergence on RMS density matrix=1.00D-08 within 128 cycles.
 Requested convergence on MAX density matrix=1.00D-06.
 Requested convergence on             energy=1.00D-06.
 No special actions if energy rises.
 SCF Done:  E(RHF) =  -8137.28494783     A.U. after    1 cycles
            NFock=  1  Conv=0.33D-09     -V/T= 1.9969
 ExpMin= 1.65D-01 ExpMax= 6.10D+03 ExpMxC= 6.10D+03 IAcc=3 IRadAn=         5 AccDes= 0.00D+00
 HarFok:  IExCor=  205 AccDes= 0.00D+00 IRadAn=         5 IDoV=-2 UseB2=F ITyADJ=14
 ICtDFT= 12500011 ScaDFX=  1.000000  1.000000  1.000000  1.000000
 GSVD:  LWork=       -1280 too small for GESVD, short by        5600 words or        5600 for optimal perf.
 Range of M.O.s used for correlation:    33    82
 NBasis=    82 NAE=    61 NBE=    61 NFC=    32 NFV=     0
 NROrb=     50 NOA=    29 NOB=    29 NVA=    21 NVB=    21
 Disk-based method using ON**2 memory for 29 occupieds at a time.
 Permanent disk used for amplitudes=     2025261 words.
 Estimated scratch disk usage=    16060286 words.
 Actual    scratch disk usage=    15276414 words.
 JobTyp=1 Pass  1:  I=  33 to  61 NPSUse=  1 ParTrn=F ParDer=F DoDerP=T.
 (rs|ai) integrals will be sorted in core.
 Spin components of T(2) and E(2):
     alpha-alpha T2 =       0.1287204938D-01 E2=     -0.2341780136D-01
     alpha-beta  T2 =       0.1664566510D+00 E2=     -0.1768831593D+00
     beta-beta   T2 =       0.1287204938D-01 E2=     -0.2341780136D-01
 ANorm=    0.1091879458D+01
 E2 =    -0.2237187620D+00 EUMP2 =    -0.81375086665950D+04
 G2DrvN: will do     5 centers at a time, making    1 passes.
 Calling FoFCou, ICntrl=  3107 FMM=F I1Cent=   0 AccDes= 0.00D+00.
 End of G2Drv F.D. properties file   721 does not exist.
 End of G2Drv F.D. properties file   722 does not exist.
 End of G2Drv F.D. properties file   788 does not exist.
          IDoAtm=1111
          Differentiating once with respect to electric field.
                with respect to dipole field.
          Differentiating once with respect to nuclear coordinates.
 Keep R1 ints in memory in symmetry-blocked form, NReq=7345933.
          There are    15 degrees of freedom in the 1st order CPHF.  IDoFFX=6 NUNeed=    15.
     12 vectors produced by pass  0 Test12= 8.54D-15 6.67D-09 XBig12= 2.12D+02 1.38D+01.
 AX will form    12 AO Fock derivatives at one time.
     12 vectors produced by pass  1 Test12= 8.54D-15 6.67D-09 XBig12= 1.09D+01 1.30D+00.
     12 vectors produced by pass  2 Test12= 8.54D-15 6.67D-09 XBig12= 7.56D-01 5.01D-01.
     12 vectors produced by pass  3 Test12= 8.54D-15 6.67D-09 XBig12= 5.33D-03 2.70D-02.
     12 vectors produced by pass  4 Test12= 8.54D-15 6.67D-09 XBig12= 2.64D-05 1.27D-03.
     12 vectors produced by pass  5 Test12= 8.54D-15 6.67D-09 XBig12= 1.37D-07 1.16D-04.
      9 vectors produced by pass  6 Test12= 8.54D-15 6.67D-09 XBig12= 5.82D-10 7.57D-06.
      3 vectors produced by pass  7 Test12= 8.54D-15 6.67D-09 XBig12= 2.21D-12 4.38D-07.
      2 vectors produced by pass  8 Test12= 8.54D-15 6.67D-09 XBig12= 2.09D-14 4.54D-08.
 InvSVY:  IOpt=1 It=  1 EMax= 1.33D-15
 Solved reduced A of dimension    86 with    12 vectors.
 End of Minotr F.D. properties file   721 does not exist.
 End of Minotr F.D. properties file   722 does not exist.
 End of Minotr F.D. properties file   788 does not exist.
 MDV=   104857600.
 Form MO integral derivatives with frozen-active canonical formalism.
 Discarding MO integrals.
 Reordered first order wavefunction length =      3281922
 In DefCFB: NBatch=  1 ICI= 61 ICA= 21 LFMax= 31
            Large arrays: LIAPS=    34453776 LIARS=    16911762 words.
 Semi-Direct transformation.
 ModeAB=           4 MOrb=            61 LenV=     104585951
 LASXX=      6313866 LTotXX=     6313866 LenRXX=    14685811
 LTotAB=     8371945 MaxLAS=     8638454 LenRXY=           0
 NonZer=    20999677 LenScr=    32256000 LnRSAI=     8638454
 LnScr1=    13713408 LExtra=           0 Total=     69293673
 MaxDsk=          -1 SrtSym=           T ITran=            4
 JobTyp=0 Pass  1:  I=   1 to  61.
 (rs|ai) integrals will be sorted in core.
 Spin components of T(2) and E(2):
     alpha-alpha T2 =       0.1287204938D-01 E2=     -0.2341780136D-01
     alpha-beta  T2 =       0.1664566510D+00 E2=     -0.1768831593D+00
     beta-beta   T2 =       0.1287204938D-01 E2=     -0.2341780136D-01
 ANorm=    0.1544150737D+01
 E2 =    -0.2237187620D+00 EUMP2 =    -0.81375086665950D+04
          IDoAtm=1111
          Differentiating once with respect to electric field.
                with respect to dipole field.
          Differentiating once with respect to nuclear coordinates.
          There are     1 degrees of freedom in the 1st order CPHF.  IDoFFX=0 NUNeed=     1.
 LinEq1:  Iter=  0 NonCon=     1 RMS=5.70D-03 Max=1.15D-01 NDo=     1
 LinEq1:  Iter=  1 NonCon=     1 RMS=6.86D-04 Max=1.00D-02 NDo=     1
 LinEq1:  Iter=  2 NonCon=     1 RMS=2.04D-04 Max=4.17D-03 NDo=     1
 LinEq1:  Iter=  3 NonCon=     1 RMS=6.37D-05 Max=1.20D-03 NDo=     1
 LinEq1:  Iter=  4 NonCon=     1 RMS=1.26D-05 Max=1.55D-04 NDo=     1
 LinEq1:  Iter=  5 NonCon=     1 RMS=1.93D-06 Max=3.27D-05 NDo=     1
 LinEq1:  Iter=  6 NonCon=     1 RMS=1.90D-07 Max=3.27D-06 NDo=     1
 LinEq1:  Iter=  7 NonCon=     1 RMS=7.53D-08 Max=1.68D-06 NDo=     1
 LinEq1:  Iter=  8 NonCon=     1 RMS=3.77D-08 Max=7.71D-07 NDo=     1
 LinEq1:  Iter=  9 NonCon=     1 RMS=4.73D-09 Max=4.09D-08 NDo=     1
 LinEq1:  Iter= 10 NonCon=     1 RMS=7.30D-10 Max=1.17D-08 NDo=     1
 LinEq1:  Iter= 11 NonCon=     1 RMS=1.39D-10 Max=1.74D-09 NDo=     1
 LinEq1:  Iter= 12 NonCon=     0 RMS=1.22D-11 Max=1.31D-10 NDo=     1
 Linear equations converged to 1.000D-10 1.000D-09 after    12 iterations.
 End of Minotr F.D. properties file   721 does not exist.
 End of Minotr F.D. properties file   722 does not exist.
 End of Minotr F.D. properties file   788 does not exist.
 Symmetrizing basis deriv contribution to polar:
 IMax=3 JMax=2 DiffMx= 0.00D+00
 G2DrvN: will do     5 centers at a time, making    1 passes.
 Calling FoFCou, ICntrl=  3107 FMM=F I1Cent=   0 AccDes= 0.00D+00.
 End of G2Drv F.D. properties file   721 does not exist.
 End of G2Drv F.D. properties file   722 does not exist.
 End of G2Drv F.D. properties file   788 does not exist.
 R2 and R3 integrals will be kept in memory, NReq=    12403812.
 DD1Dir will call FoFMem   1 times, MxPair=      3782
 NAB=  1891 NAA=     0 NBB=     0.
 Discarding MO integrals.

 **********************************************************************

            Population analysis using the SCF Density.

 **********************************************************************

 Orbital symmetries:
       Occupied  (A1) (B2) (A1) (A1) (A1) (B2) (A1) (B2) (A1) (A1)
                 (B2) (A1) (B1) (A2) (B2) (B1) (A1) (A1) (B2) (A1)
                 (B2) (A1) (B1) (B2) (A1) (A1) (B2) (A1) (B2) (B1)
                 (A2) (B1) (B2) (A1) (A1) (A1) (B2) (B2) (B1) (A2)
                 (B1) (A2) (B1) (B2) (A1) (A2) (A1) (A1) (B2) (A1)
                 (A1) (B1) (A1) (B2) (A2) (B1) (A1) (B2) (B2) (B1)
                 (A1)
       Virtual   (B2) (A1) (A1) (B1) (B2) (A1) (A1) (B2) (A1) (A2)
                 (B1) (B2) (B1) (A1) (B2) (B2) (A1) (A1) (B2) (A1)
                 (A1)
 The electronic state is 1-A1.
 Alpha  occ. eigenvalues -- -486.81070-486.81070-486.81054-104.25969 -64.82283
 Alpha  occ. eigenvalues --  -64.82283 -64.82266 -58.00956 -58.00956 -58.00940
 Alpha  occ. eigenvalues --  -58.00743 -58.00741 -58.00738 -58.00735 -58.00725
 Alpha  occ. eigenvalues --  -58.00720 -10.64111  -9.81368  -9.81368  -9.81352
 Alpha  occ. eigenvalues --   -8.10103  -8.10103  -8.09756  -7.39544  -7.39544
 Alpha  occ. eigenvalues --   -7.39527  -7.38303  -7.38303  -7.38287  -7.38275
 Alpha  occ. eigenvalues --   -7.38275  -7.38259  -3.12554  -3.12547  -3.12523
 Alpha  occ. eigenvalues --   -3.12056  -3.12053  -3.12037  -3.12025  -3.12018
 Alpha  occ. eigenvalues --   -3.12004  -3.10554  -3.10554  -3.10554  -3.10554
 Alpha  occ. eigenvalues --   -3.10539  -3.10538  -1.18331  -0.99546  -0.99537
 Alpha  occ. eigenvalues --   -0.97131  -0.57449  -0.57225  -0.57224  -0.43687
 Alpha  occ. eigenvalues --   -0.43679  -0.43364  -0.43355  -0.43237  -0.42434
 Alpha  occ. eigenvalues --   -0.32566
 Alpha virt. eigenvalues --   -0.11228  -0.11225   0.63149   0.69627   0.71928
 Alpha virt. eigenvalues --    0.71932   0.79178   0.79182   0.81083   0.82220
 Alpha virt. eigenvalues --    0.82225   0.84989   0.88886   0.91688   0.91695
 Alpha virt. eigenvalues --    0.97592   0.97612   1.01481  24.02895  24.02900
 Alpha virt. eigenvalues --   24.03467
          Condensed to atoms (all electrons):
               1          2          3          4
     1  Cl  16.900050   0.024146   0.024146   0.024180
     2  Br   0.024146  34.974279   0.005286   0.005272
     3  Br   0.024146   0.005286  34.974279   0.005272
     4  Br   0.024180   0.005272   0.005272  34.974789
 Mulliken charges:
               1
     1  Cl   0.027478
     2  Br  -0.008983
     3  Br  -0.008983
     4  Br  -0.009513
 Sum of Mulliken charges =  -0.00000
 Mulliken charges with hydrogens summed into heavy atoms:
               1
     1  Cl   0.027478
     2  Br  -0.008983
     3  Br  -0.008983
     4  Br  -0.009513
 APT charges:
               1
     1  Cl   0.649835
     2  Br  -0.216825
     3  Br  -0.216825
     4  Br  -0.216184
 Sum of APT charges =   0.00000
 APT charges with hydrogens summed into heavy atoms:
               1
     1  Cl   0.649835
     2  Br  -0.216825
     3  Br  -0.216825
     4  Br  -0.216184
 Electronic spatial extent (au):  <R**2>=           2682.7073
 Charge=              0.0000 electrons
 Dipole moment (field-independent basis, Debye):
    X=              0.0000    Y=              0.0000    Z=             -0.0063  Tot=              0.0063
 Quadrupole moment (field-independent basis, Debye-Ang):
   XX=            -69.3276   YY=            -66.6604   ZZ=            -66.6761
   XY=              0.0000   XZ=             -0.0000   YZ=             -0.0000
 Traceless Quadrupole moment (field-independent basis, Debye-Ang):
   XX=             -1.7729   YY=              0.8943   ZZ=              0.8786
   XY=              0.0000   XZ=             -0.0000   YZ=             -0.0000
 Octapole moment (field-independent basis, Debye-Ang**2):
  XXX=              0.0000  YYY=             -0.0000  ZZZ=             11.3145  XYY=              0.0000
  XXY=              0.0000  XXZ=             -0.0053  XZZ=              0.0000  YZZ=              0.0000
  YYZ=            -11.3930  XYZ=              0.0000
 Hexadecapole moment (field-independent basis, Debye-Ang**3):
 XXXX=            -76.8958 YYYY=          -1107.9601 ZZZZ=          -1109.4351 XXXY=              0.0000
 XXXZ=              0.0000 YYYX=              0.0000 YYYZ=             -0.0000 ZZZX=              0.0000
 ZZZY=              0.0000 XXYY=           -214.5715 XXZZ=           -214.8252 YYZZ=           -369.5075
 XXYZ=              0.0000 YYXZ=              0.0000 ZZXY=              0.0000
 N-N= 7.955676055861D+02 E-N=-2.109316278676D+04  KE= 8.162689752711D+03
 Symmetry A1   KE= 4.409845052840D+03
 Symmetry A2   KE= 4.225492762616D+02
 Symmetry B1   KE= 7.619712370323D+02
 Symmetry B2   KE= 2.568324186577D+03
  Exact polarizability:       9.462      -0.000     100.713      -0.000       0.000     100.728
 Approx polarizability:       7.387      -0.000     200.777      -0.000       0.000     201.144
 Calling FoFJK, ICntrl=  10100127 FMM=F ISym2X=1 I1Cent= 0 IOpClX= 0 NMat=1 NMatS=1 NMatT=0.
 Full mass-weighted force constant matrix:
 Low frequencies ---   -1.5895   -1.1935   -0.5738   -0.0129   -0.0128   -0.0104
 Low frequencies ---   40.7447   40.7710  119.1907
 Diagonal vibrational polarizability:
        0.1072856      23.3347179      23.1106322
 Harmonic frequencies (cm**-1), IR intensities (KM/Mole), Raman scattering
 activities (A**4/AMU), depolarization ratios for plane and unpolarized
 incident light, reduced masses (AMU), force constants (mDyne/A),
 and normal coordinates:
                           1         2         3         4         5
                          ?A        ?A        B1        A1        B2
       Frequencies ---    40.7447   40.7710  119.1907  148.6003  227.3482
    Reduced masses ---    70.7155   70.7285   37.6685   78.9181   39.8722
   Force constants ---     0.0692    0.0693    0.3153    1.0268    1.2142
    IR Intensities ---     0.3135    0.3189    0.0566    0.0001   34.9032
 Coord Atom Element:
   1     1    17          0.00000   0.00000   0.96880  -0.00000   0.00000
   2     1    17          0.00004  -0.43168  -0.00000  -0.00000   0.94257
   3     1    17          0.43202   0.00004  -0.00000  -0.00214  -0.00000
   1     2    35         -0.00000  -0.00000  -0.14306   0.00000  -0.00000
   2     2    35         -0.44771  -0.19464   0.00000   0.49952  -0.20590
   3     2    35         -0.32212   0.44772  -0.00000  -0.28863   0.11563
   1     3    35         -0.00000  -0.00000  -0.14306   0.00000  -0.00000
   2     3    35          0.44774  -0.19456   0.00000  -0.49952  -0.20590
   3     3    35         -0.32204  -0.44778   0.00000  -0.28863  -0.11563
   1     4    35         -0.00000  -0.00000  -0.14315   0.00000  -0.00000
   2     4    35         -0.00005   0.58047  -0.00000   0.00000  -0.00584
   3     4    35          0.45274   0.00004   0.00000   0.57822   0.00000
                           6
                          A1
       Frequencies ---   227.5224
    Reduced masses ---    39.8764
   Force constants ---     1.2162
    IR Intensities ---    34.6811
 Coord Atom Element:
   1     1    17          0.00000
   2     1    17          0.00000
   3     1    17          0.94252
   1     2    35         -0.00000
   2     2    35          0.11630
   3     2    35         -0.07279
   1     3    35         -0.00000
   2     3    35         -0.11630
   3     3    35         -0.07279
   1     4    35         -0.00000
   2     4    35         -0.00000
   3     4    35         -0.27206
 Harmonic frequencies (cm**-1), IR intensities (KM/Mole), Raman scattering
 activities (A**4/AMU), depolarization ratios for plane and unpolarized
 incident light, reduced masses (AMU), force constants (mDyne/A),
 and normal coordinates:
                      1                      2                      3
                     ?A                     ?A                     B1
 Frequencies --     40.7447                40.7710               119.1907
 Red. masses --     70.7155                70.7285                37.6685
 Frc consts  --      0.0692                 0.0693                 0.3153
 IR Inten    --      0.3135                 0.3189                 0.0566
  Atom  AN      X      Y      Z        X      Y      Z        X      Y      Z
     1  17     0.00   0.00   0.43     0.00  -0.43   0.00     0.97  -0.00  -0.00
     2  35    -0.00  -0.45  -0.32    -0.00  -0.19   0.45    -0.14   0.00  -0.00
     3  35    -0.00   0.45  -0.32    -0.00  -0.19  -0.45    -0.14   0.00   0.00
     4  35    -0.00  -0.00   0.45    -0.00   0.58   0.00    -0.14  -0.00   0.00
                      4                      5                      6
                     A1                     B2                     A1
 Frequencies --    148.6003               227.3482               227.5224
 Red. masses --     78.9181                39.8722                39.8764
 Frc consts  --      1.0268                 1.2142                 1.2162
 IR Inten    --      0.0001                34.9032                34.6811
  Atom  AN      X      Y      Z        X      Y      Z        X      Y      Z
     1  17    -0.00  -0.00  -0.00     0.00   0.94  -0.00     0.00   0.00   0.94
     2  35     0.00   0.50  -0.29    -0.00  -0.21   0.12    -0.00   0.12  -0.07
     3  35     0.00  -0.50  -0.29    -0.00  -0.21  -0.12    -0.00  -0.12  -0.07
     4  35     0.00   0.00   0.58    -0.00  -0.01   0.00    -0.00  -0.00  -0.27

 -------------------
 - Thermochemistry -
 -------------------
 Temperature   298.150 Kelvin.  Pressure   1.00000 Atm.
 Atom     1 has atomic number 17 and mass  34.96885
 Atom     2 has atomic number 35 and mass  78.91834
 Atom     3 has atomic number 35 and mass  78.91834
 Atom     4 has atomic number 35 and mass  78.91834
 Molecular mass:   271.72386 amu.
 Principal axes and moments of inertia in atomic units:
                           1         2         3
     Eigenvalues --  2852.781572856.467515709.24908
           X            0.00000   0.00000   1.00000
           Y            0.00000   1.00000  -0.00000
           Z            1.00000  -0.00000  -0.00000
 This molecule is an asymmetric top.
 Rotational symmetry number  2.
 Warning -- assumption of classical behavior for rotation
           may cause significant error
 Rotational temperatures (Kelvin)      0.03036     0.03032     0.01517
 Rotational constants (GHZ):           0.63263     0.63181     0.31611
 Zero-point vibrational energy       4810.0 (Joules/Mol)
                                    1.14963 (Kcal/Mol)
 Warning -- explicit consideration of   6 degrees of freedom as
           vibrations may cause significant error
 Vibrational temperatures:     58.62    58.66   171.49   213.80   327.10
          (Kelvin)            327.35
 
 Zero-point correction=                           0.001832 (Hartree/Particle)
 Thermal correction to Energy=                    0.008756
 Thermal correction to Enthalpy=                  0.009700
 Thermal correction to Gibbs Free Energy=        -0.034761
 Sum of electronic and zero-point Energies=          -8137.506835
 Sum of electronic and thermal Energies=             -8137.499911
 Sum of electronic and thermal Enthalpies=           -8137.498967
 Sum of electronic and thermal Free Energies=        -8137.543427
 
                     E (Thermal)             CV                S
                      KCal/Mol        Cal/Mol-Kelvin    Cal/Mol-Kelvin
 Total                    5.494             17.359             93.575
 Electronic               0.000              0.000              0.000
 Translational            0.889              2.981             42.698
 Rotational               0.889              2.981             30.832
 Vibrational              3.717             11.398             20.046
 Vibration     1          0.594              1.981              5.223
 Vibration     2          0.594              1.981              5.221
 Vibration     3          0.609              1.933              3.113
 Vibration     4          0.618              1.904              2.690
 Vibration     5          0.651              1.799              1.900
 Vibration     6          0.651              1.799              1.898
                       Q            Log10(Q)             Ln(Q)
 Total Bot       0.974420D+16         15.988746         36.815449
 Total V=0       0.678313D+17         16.831430         38.755801
 Vib (Bot)       0.453364D+02          1.656447          3.814110
 Vib (Bot)    1  0.507774D+01          0.705671          1.624867
 Vib (Bot)    2  0.507446D+01          0.705390          1.624220
 Vib (Bot)    3  0.171486D+01          0.234229          0.539331
 Vib (Bot)    4  0.136507D+01          0.135156          0.311208
 Vib (Bot)    5  0.867328D+00         -0.061817         -0.142338
 Vib (Bot)    6  0.866599D+00         -0.062182         -0.143179
 Vib (V=0)       0.315596D+03          2.499131          5.754461
 Vib (V=0)    1  0.560230D+01          0.748366          1.723177
 Vib (V=0)    2  0.559903D+01          0.748113          1.722594
 Vib (V=0)    3  0.228627D+01          0.359127          0.826920
 Vib (V=0)    4  0.195376D+01          0.290872          0.669757
 Vib (V=0)    5  0.150113D+01          0.176418          0.406217
 Vib (V=0)    6  0.150050D+01          0.176235          0.405796
 Electronic      0.100000D+01          0.000000          0.000000
 Translational   0.176054D+09          8.245646         18.986301
 Rotational      0.122083D+07          6.086654         14.015039
 ***** Axes restored to original set *****
 -------------------------------------------------------------------
 Center     Atomic                   Forces (Hartrees/Bohr)
 Number     Number              X              Y              Z
 -------------------------------------------------------------------
      1       17          -0.000011860    0.000020542    0.000000000
      2       35           0.000005153   -0.000008925   -0.000031996
      3       35           0.000005153   -0.000008925    0.000031996
      4       35           0.000001554   -0.000002691    0.000000000
 -------------------------------------------------------------------
 Cartesian Forces:  Max     0.000031996 RMS     0.000015363
 FormGI is forming the generalized inverse of G from B-inverse, IUseBI=4.

 GradGradGradGradGradGradGradGradGradGradGradGradGradGradGradGradGradGrad
 Berny optimization.
 Internal  Forces:  Max     0.000032859 RMS     0.000019289
 Search for a local minimum.
 Step number   1 out of a maximum of    2
 All quantities printed in internal units (Hartrees-Bohrs-Radians)
 Second derivative matrix not updated -- analytic derivatives used.
 The second derivative matrix:
                          R1        R2        R3        A1        A2
           R1           0.04588
           R2           0.01010   0.04588
           R3           0.01002   0.01002   0.04583
           A1           0.00136  -0.00277   0.00140   0.01510
           A2          -0.00277   0.00136   0.00140  -0.00755   0.01510
           A3          -0.00141  -0.00141   0.00280   0.00755   0.00755
           A4          -0.00000  -0.00000   0.00000   0.00000   0.00000
           D1          -0.00000  -0.00000   0.00000   0.00000   0.00000
                          A3        A4        D1
           A3           0.01511
           A4           0.00000   0.01853
           D1           0.00000   0.01069   0.00617
 ITU=  0
     Eigenvalues ---    0.02143   0.02146   0.02470   0.03697   0.03708
     Eigenvalues ---    0.06595
 Angle between quadratic step and forces=  22.56 degrees.
 Linear search not attempted -- first point.
 Iteration  1 RMS(Cart)=  0.00103730 RMS(Int)=  0.00000024
 Iteration  2 RMS(Cart)=  0.00000032 RMS(Int)=  0.00000001
 ClnCor:  largest displacement from symmetrization is 1.19D-08 for atom     1.
 Variable       Old X    -DE/DX   Delta X   Delta X   Delta X     New X
                                 (Linear)    (Quad)   (Total)
    R1        4.91038   0.00003   0.00000   0.00060   0.00060   4.91098
    R2        4.91038   0.00003   0.00000   0.00060   0.00060   4.91098
    R3        4.91122  -0.00000   0.00000  -0.00024  -0.00024   4.91098
    A1        2.09486  -0.00001   0.00000  -0.00046  -0.00046   2.09440
    A2        2.09486  -0.00001   0.00000  -0.00046  -0.00046   2.09440
    A3        4.18971  -0.00002   0.00000  -0.00092  -0.00092   4.18879
    A4        3.14159   0.00000   0.00000   0.00000   0.00000   3.14159
    D1       -0.00000   0.00000   0.00000   0.00000   0.00000   0.00000
         Item               Value     Threshold  Converged?
 Maximum Force            0.000033     0.000450     YES
 RMS     Force            0.000019     0.000300     YES
 Maximum Displacement     0.001646     0.001800     YES
 RMS     Displacement     0.001038     0.001200     YES
 Predicted change in Energy=-3.597035D-08
 Optimization completed.
    -- Stationary point found.
                           ----------------------------
                           !   Optimized Parameters   !
                           ! (Angstroms and Degrees)  !
 --------------------------                            --------------------------
 ! Name  Definition              Value          Derivative Info.                !
 --------------------------------------------------------------------------------
 ! R1    R(1,2)                  2.5985         -DE/DX =    0.0                 !
 ! R2    R(1,3)                  2.5985         -DE/DX =    0.0                 !
 ! R3    R(1,4)                  2.5989         -DE/DX =    0.0                 !
 ! A1    A(2,1,4)              120.0264         -DE/DX =    0.0                 !
 ! A2    A(3,1,4)              120.0264         -DE/DX =    0.0                 !
 ! A3    L(2,1,3,4,-1)         240.0527         -DE/DX =    0.0                 !
 ! A4    L(2,1,3,4,-2)         180.0            -DE/DX =    0.0                 !
 ! D1    D(1,2,4,3)              0.0            -DE/DX =    0.0                 !
 --------------------------------------------------------------------------------
 GradGradGradGradGradGradGradGradGradGradGradGradGradGradGradGradGradGrad


 ----------------------------------------------------------------------

 Electric dipole moment (input orientation):
 (Debye = 10**-18 statcoulomb cm , SI units = C m)
                  (au)            (Debye)         (10**-30 SI)
   Tot        0.937383D-03      0.238259D-02      0.794746D-02
   x          0.468691D-03      0.119129D-02      0.397373D-02
   y         -0.811797D-03     -0.206338D-02     -0.688271D-02
   z          0.000000D+00      0.000000D+00      0.000000D+00

 Dipole polarizability, Alpha (input orientation).
 (esu units = cm**3 , SI units = C**2 m**2 J**-1)
 Alpha(0;0):
               (au)            (10**-24 esu)      (10**-40 SI)
   iso        0.703012D+02      0.104176D+02      0.115911D+02
   aniso      0.912589D+02      0.135232D+02      0.150466D+02
   xx         0.322785D+02      0.478318D+01      0.532201D+01
   yx        -0.395195D+02     -0.585619D+01     -0.651589D+01
   yy         0.779117D+02      0.115453D+02      0.128459D+02
   zx         0.000000D+00      0.000000D+00      0.000000D+00
   zy         0.000000D+00      0.000000D+00      0.000000D+00
   zz         0.100713D+03      0.149242D+02      0.166054D+02

 ----------------------------------------------------------------------

 Dipole orientation:
    17          1.94093200          1.12059761         -2.42683092
    35          4.06662384         -2.56120867          0.03031503
    35         -0.18475985          4.80240389          0.03031503
    35          1.94093200          1.12059761         -7.33805302

 Electric dipole moment (dipole orientation):
 (Debye = 10**-18 statcoulomb cm , SI units = C m)
                  (au)            (Debye)         (10**-30 SI)
   Tot        0.937383D-03      0.238259D-02      0.794746D-02
   x          0.000000D+00      0.000000D+00      0.000000D+00
   y          0.000000D+00      0.000000D+00      0.000000D+00
   z          0.937383D-03      0.238259D-02      0.794746D-02

 Dipole polarizability, Alpha (dipole orientation).
 (esu units = cm**3 , SI units = C**2 m**2 J**-1)
 Alpha(0;0):
               (au)            (10**-24 esu)      (10**-40 SI)
   iso        0.703012D+02      0.104176D+02      0.115911D+02
   aniso      0.912589D+02      0.135232D+02      0.150466D+02
   xx         0.322748D+02      0.478263D+01      0.532140D+01
   yx        -0.395131D+02     -0.585523D+01     -0.651482D+01
   yy         0.779006D+02      0.115437D+02      0.128441D+02
   zx         0.000000D+00      0.000000D+00      0.000000D+00
   zy         0.000000D+00      0.000000D+00      0.000000D+00
   zz         0.100728D+03      0.149264D+02      0.166079D+02

 ----------------------------------------------------------------------
 Unable to Open any file for archive entry.
 1\1\GINC-BS001\Freq\RMP2-FC\3-21G\Br3Cl1\PNATT\10-Aug-2026\0\\#N Geom=
 AllCheck Guess=TCheck SCRF=Check GenChk RMP2(FC)/3-21G Freq\\Title Car
 d Required\\0,1\Cl,0.3849851724,1.7051649936,0.\Br,1.0351179919,0.5791
 019185,-2.2497353646\Br,1.0351179919,0.5791019185,2.2497353646\Br,-0.9
 144682363,3.9558843195,0.\\Version=ES64L-G16RevC.01\State=1-A1\HF=-813
 7.2849478\MP2=-8137.5086666\RMSD=3.305e-10\RMSF=1.536e-05\ZeroPoint=0.
 0018321\Thermal=0.0087556\ETot=-8137.499911\HTot=-8137.4989668\GTot=-8
 137.5434272\Dipole=0.0004687,-0.0008118,0.\DipoleDeriv=0.2696081,-0.39
 41034,0.,-0.3941034,0.7246794,0.,0.,0.,0.9552166,-0.0396171,0.0444436,
 0.1747438,0.0444436,-0.0909361,-0.3026651,0.174072,-0.3015015,-0.51992
 21,-0.0396171,0.0444435,-0.1747438,0.0444435,-0.090936,0.3026651,-0.17
 4072,0.3015015,-0.5199221,-0.1903739,0.3052163,0.,0.3052163,-0.5428073
 ,0.,0.,0.,0.0846277\Polar=32.2785259,-39.519506,77.9117208,0.,-0.00000
 01,100.7134274\PG=C02V [C2(Cl1Br1),SGV(Br2)]\NImag=0\\0.02567764,-0.01
 610299,0.04427177,0.,0.,0.05349827,-0.00649902,0.00180411,0.00714108,0
 .00458121,0.00180411,-0.00858223,-0.01236872,-0.00479247,0.01011508,0.
 00717775,-0.01243222,-0.02606793,-0.00952933,0.01650528,0.03486637,-0.
 00649902,0.00180411,-0.00714108,0.00199042,-0.00029203,-0.00177124,0.0
 0458121,0.00180411,-0.00858222,0.01236872,-0.00029203,0.00232763,0.003
 06787,-0.00479248,0.01011509,-0.00717775,0.01243222,-0.02606793,0.0017
 7124,-0.00306787,-0.00854028,0.00952932,-0.01650527,0.03486637,-0.0126
 7961,0.01249476,0.,-0.00007262,0.00328039,0.00412282,-0.00007262,0.003
 28039,-0.00412281,0.01282484,0.01249476,-0.02710732,0.,0.00328039,-0.0
 0386048,-0.00714093,0.00328039,-0.00386049,0.00714092,-0.01905555,0.03
 482829,0.,0.,-0.00136242,0.00061700,-0.00106868,-0.00025816,-0.0006170
 0,0.00106868,-0.00025817,0.,0.,0.00187874\\0.00001186,-0.00002054,0.,-
 0.00000515,0.00000893,0.00003200,-0.00000515,0.00000893,-0.00003200,-0
 .00000155,0.00000269,0.\\\@
 The archive entry for this job was punched.


 I WANT TO KNOW HOW GOD CREATED THE WORLD.  I AM NOT INTERESTED IN
 THIS OR THAT PHENOMENON, IN THE SPECTRUM OF THIS OR THAT ELEMENT.
 I WANT TO KNOW HIS THOUGHTS, THE REST ARE DETAILS.
     -- ALBERT EINSTEIN
 Job cpu time:       0 days  0 hours  0 minutes 50.3 seconds.
 Elapsed time:       0 days  0 hours  0 minutes 50.1 seconds.
 File lengths (MBytes):  RWF=    559 Int=      0 D2E=      0 Chk=      2 Scr=      1
 Normal termination of Gaussian 16 at Mon Aug 10 16:17:28 2026.
