 Entering Gaussian System, Link 0=g09
 Input=/home/james/2-bonds/CO2/co2_mp2_3-21g.com
 Output=/home/james/2-bonds/CO2/co2_mp2_3-21g.log
 Initial command:
 /usr/local/g09/l1.exe /scratch/james/Gau-2720.inp -scrdir=/scratch/james/
 Entering Link 1 = /usr/local/g09/l1.exe PID=      2722.
  
 Copyright (c) 1988,1990,1992,1993,1995,1998,2003,2009,2011,
            Gaussian, Inc.  All Rights Reserved.
  
 This is part of the Gaussian(R) 09 program.  It is based on
 the Gaussian(R) 03 system (copyright 2003, Gaussian, Inc.),
 the Gaussian(R) 98 system (copyright 1998, Gaussian, Inc.),
 the Gaussian(R) 94 system (copyright 1995, Gaussian, Inc.),
 the Gaussian 92(TM) system (copyright 1992, Gaussian, Inc.),
 the Gaussian 90(TM) system (copyright 1990, Gaussian, Inc.),
 the Gaussian 88(TM) system (copyright 1988, Gaussian, Inc.),
 the Gaussian 86(TM) system (copyright 1986, Carnegie Mellon
 University), and the Gaussian 82(TM) system (copyright 1983,
 Carnegie Mellon University). Gaussian is a federally registered
 trademark of Gaussian, Inc.
  
 This software contains proprietary and confidential information,
 including trade secrets, belonging to Gaussian, Inc.
  
 This software is provided under written license and may be
 used, copied, transmitted, or stored only in accord with that
 written license.
  
 The following legend is applicable only to US Government
 contracts under FAR:
  
                    RESTRICTED RIGHTS LEGEND
  
 Use, reproduction and disclosure by the US Government is
 subject to restrictions as set forth in subparagraphs (a)
 and (c) of the Commercial Computer Software - Restricted
 Rights clause in FAR 52.227-19.
  
 Gaussian, Inc.
 340 Quinnipiac St., Bldg. 40, Wallingford CT 06492
  
  
 ---------------------------------------------------------------
 Warning -- This program may not be used in any manner that
 competes with the business of Gaussian, Inc. or will provide
 assistance to any competitor of Gaussian, Inc.  The licensee
 of this program is prohibited from giving any competitor of
 Gaussian, Inc. access to this program.  By using this program,
 the user acknowledges that Gaussian, Inc. is engaged in the
 business of creating and licensing software in the field of
 computational chemistry and represents and warrants to the
 licensee that it is not a competitor of Gaussian, Inc. and that
 it will not use this program in any manner prohibited above.
 ---------------------------------------------------------------
  

 Cite this work as:
 Gaussian 09, Revision C.01,
 M. J. Frisch, G. W. Trucks, H. B. Schlegel, G. E. Scuseria, 
 M. A. Robb, J. R. Cheeseman, G. Scalmani, V. Barone, B. Mennucci, 
 G. A. Petersson, H. Nakatsuji, M. Caricato, X. Li, H. P. Hratchian, 
 A. F. Izmaylov, J. Bloino, G. Zheng, J. L. Sonnenberg, M. Hada, 
 M. Ehara, K. Toyota, R. Fukuda, J. Hasegawa, M. Ishida, T. Nakajima, 
 Y. Honda, O. Kitao, H. Nakai, T. Vreven, J. A. Montgomery, Jr., 
 J. E. Peralta, F. Ogliaro, M. Bearpark, J. J. Heyd, E. Brothers, 
 K. N. Kudin, V. N. Staroverov, T. Keith, R. Kobayashi, J. Normand, 
 K. Raghavachari, A. Rendell, J. C. Burant, S. S. Iyengar, J. Tomasi, 
 M. Cossi, N. Rega, J. M. Millam, M. Klene, J. E. Knox, J. B. Cross, 
 V. Bakken, C. Adamo, J. Jaramillo, R. Gomperts, R. E. Stratmann, 
 O. Yazyev, A. J. Austin, R. Cammi, C. Pomelli, J. W. Ochterski, 
 R. L. Martin, K. Morokuma, V. G. Zakrzewski, G. A. Voth, 
 P. Salvador, J. J. Dannenberg, S. Dapprich, A. D. Daniels, 
 O. Farkas, J. B. Foresman, J. V. Ortiz, J. Cioslowski, 
 and D. J. Fox, Gaussian, Inc., Wallingford CT, 2010.
 
 ******************************************
 Gaussian 09:  AM64L-G09RevC.01 23-Sep-2011
                10-Jul-2023 
 ******************************************
 %chk=co2_mp2_3-21g.chk
 ----------------------------------------------
 # opt freq=hpmodes mp2/3-21g geom=connectivity
 ----------------------------------------------
 1/18=20,19=15,38=1,57=2/1,3;
 2/9=110,12=2,17=6,18=5,40=1/2;
 3/5=5,11=9,16=1,25=1,30=1,71=1/1,2,3;
 4//1;
 5/5=2,38=5/2;
 8/6=4,10=1/1;
 9/15=2,16=-3/6;
 10/5=1/2;
 6/7=2,8=2,9=2,10=2/1;
 7/12=2/1,2,3,16;
 1/18=20,19=15/3(2);
 2/9=110/2;
 99//99;
 2/9=110/2;
 3/5=5,11=9,16=1,25=1,30=1,71=1/1,2,3;
 4/5=5,16=3/1;
 5/5=2,38=5/2;
 8/6=4,10=1/1;
 9/15=2,16=-3/6;
 10/5=1/2;
 7/12=2/1,2,3,16;
 1/18=20,19=15/3(-8);
 2/9=110/2;
 6/7=2,8=2,9=2,10=2/1;
 99//99;
 -------------------
 Title Card Required
 -------------------
 Charge =  0 Multiplicity = 1
 Symbolic Z-Matrix:
 C                     0.        0.        0. 
 O                     0.        0.        1.2584 
 O                     0.        0.       -1.2584 
 

 GradGradGradGradGradGradGradGradGradGradGradGradGradGradGradGradGradGrad
 Berny optimization.
 Initialization pass.
                           ----------------------------
                           !    Initial Parameters    !
                           ! (Angstroms and Degrees)  !
 --------------------------                            --------------------------
 ! Name  Definition              Value          Derivative Info.                !
 --------------------------------------------------------------------------------
 ! R1    R(1,2)                  1.2584         estimate D2E/DX2                !
 ! R2    R(1,3)                  1.2584         estimate D2E/DX2                !
 ! A1    L(2,1,3,-1,-1)        180.0            estimate D2E/DX2                !
 ! A2    L(2,1,3,-2,-2)        180.0            estimate D2E/DX2                !
 --------------------------------------------------------------------------------
 Trust Radius=3.00D-01 FncErr=1.00D-07 GrdErr=1.00D-07
 Number of steps in this run=     20 maximum allowed number of steps=    100.
 GradGradGradGradGradGradGradGradGradGradGradGradGradGradGradGradGradGrad

                          Input orientation:                          
 ---------------------------------------------------------------------
 Center     Atomic      Atomic             Coordinates (Angstroms)
 Number     Number       Type             X           Y           Z
 ---------------------------------------------------------------------
      1          6           0        0.000000    0.000000    0.000000
      2          8           0        0.000000    0.000000    1.258400
      3          8           0        0.000000    0.000000   -1.258400
 ---------------------------------------------------------------------
                    Distance matrix (angstroms):
                    1          2          3
     1  C    0.000000
     2  O    1.258400   0.000000
     3  O    1.258400   2.516800   0.000000
 Stoichiometry    CO2
 Framework group  D*H[O(C),C*(O.O)]
 Deg. of freedom     1
 Full point group                 D*H     NOp   8
 Largest Abelian subgroup         D2H     NOp   8
 Largest concise Abelian subgroup C2      NOp   2
                         Standard orientation:                         
 ---------------------------------------------------------------------
 Center     Atomic      Atomic             Coordinates (Angstroms)
 Number     Number       Type             X           Y           Z
 ---------------------------------------------------------------------
      1          6           0        0.000000    0.000000    0.000000
      2          8           0        0.000000    0.000000    1.258400
      3          8           0        0.000000    0.000000   -1.258400
 ---------------------------------------------------------------------
 Rotational constants (GHZ):      0.0000000      9.9762622      9.9762622
 Standard basis: 3-21G (6D, 7F)
 There are     8 symmetry adapted basis functions of AG  symmetry.
 There are     0 symmetry adapted basis functions of B1G symmetry.
 There are     2 symmetry adapted basis functions of B2G symmetry.
 There are     2 symmetry adapted basis functions of B3G symmetry.
 There are     0 symmetry adapted basis functions of AU  symmetry.
 There are     7 symmetry adapted basis functions of B1U symmetry.
 There are     4 symmetry adapted basis functions of B2U symmetry.
 There are     4 symmetry adapted basis functions of B3U symmetry.
 Integral buffers will be    131072 words long.
 Raffenetti 1 integral format.
 Two-electron integral symmetry is turned on.
    27 basis functions,    45 primitive gaussians,    27 cartesian basis functions
    11 alpha electrons       11 beta electrons
       nuclear repulsion energy        53.8260352031 Hartrees.
 NAtoms=    3 NActive=    3 NUniq=    2 SFac= 2.25D+00 NAtFMM=   60 NAOKFM=F Big=F
 One-electron integrals computed using PRISM.
 NBasis=    27 RedAO= T  NBF=     8     0     2     2     0     7     4     4
 NBsUse=    27 1.00D-06 NBFU=     8     0     2     2     0     7     4     4
 Harris functional with IExCor=  205 diagonalized for initial guess.
 ExpMin= 1.96D-01 ExpMax= 3.22D+02 ExpMxC= 3.22D+02 IAcc=1 IRadAn=         1 AccDes= 0.00D+00
 HarFok:  IExCor=  205 AccDes= 0.00D+00 IRadAn=         1 IDoV= 1
 ScaDFX=  1.000000  1.000000  1.000000  1.000000
 FoFCou: FMM=F IPFlag=           0 FMFlag=      100000 FMFlg1=           0
         NFxFlg=           0 DoJE=T BraDBF=F KetDBF=T FulRan=T
         Omega=  0.000000  0.000000  1.000000  0.000000  0.000000 ICntrl=     500 IOpCl=  0
         NMat0=    1 NMatS0=    1 NMatT0=    0 NMatD0=    1 NMtDS0=    0 NMtDT0=    0
         I1Cent=           4 NGrid=           0.
 Petite list used in FoFCou.
 Initial guess orbital symmetries:
       Occupied  (SGU) (SGG) (SGG) (SGG) (SGU) (SGG) (SGU) (PIU)
                 (PIU) (PIG) (PIG)
       Virtual   (PIU) (PIU) (SGG) (SGU) (PIU) (PIU) (SGU) (SGG)
                 (PIG) (PIG) (SGU) (SGG) (PIU) (PIU) (SGG) (SGU)
 The electronic state of the initial guess is 1-SGG.
 Requested convergence on RMS density matrix=1.00D-08 within 128 cycles.
 Requested convergence on MAX density matrix=1.00D-06.
 Requested convergence on             energy=1.00D-06.
 No special actions if energy rises.
 Keep R1 ints in memory in canonical form, NReq=892434.
 SCF Done:  E(RHF) =  -186.524654659     A.U. after    9 cycles
             Convg  =    0.6156D-08             -V/T =  2.0072
 ExpMin= 1.96D-01 ExpMax= 3.22D+02 ExpMxC= 3.22D+02 IAcc=3 IRadAn=         5 AccDes= 0.00D+00
 HarFok:  IExCor=  205 AccDes= 0.00D+00 IRadAn=         5 IDoV=-2
 ScaDFX=  1.000000  1.000000  1.000000  1.000000
 Range of M.O.s used for correlation:     4    27
 NBasis=    27 NAE=    11 NBE=    11 NFC=     3 NFV=     0
 NROrb=     24 NOA=     8 NOB=     8 NVA=    16 NVB=    16
 Fully direct method using O(ONN) memory.
 JobTyp=1 Pass  1:  I=   4 to  11 NPSUse=  1 ParTrn=F ParDer=F DoDerP=T.
 Spin components of T(2) and E(2):
     alpha-alpha T2 =       0.2079854130D-01 E2=     -0.5311067490D-01
     alpha-beta  T2 =       0.1021759267D+00 E2=     -0.2696804576D+00
     beta-beta   T2 =       0.2079854130D-01 E2=     -0.5311067490D-01
 ANorm=    0.1069473239D+01
 E2 =    -0.3759018074D+00 EUMP2 =    -0.18690055646630D+03
          IDoAtm=111
          Differentiating once with respect to electric field.
                with respect to dipole field.
          Differentiating once with respect to nuclear coordinates.
          Keep R1 ints in memory in canonical form, NReq=872383.
          There are     1 degrees of freedom in the 1st order CPHF.  IDoFFX=0.
 LinEq1:  Iter=  0 NonCon=     1 RMS=2.85D-02 Max=2.43D-01
 AX will form     1 AO Fock derivatives at one time.
 LinEq1:  Iter=  1 NonCon=     1 RMS=9.09D-03 Max=7.70D-02
 LinEq1:  Iter=  2 NonCon=     1 RMS=3.65D-03 Max=2.32D-02
 LinEq1:  Iter=  3 NonCon=     1 RMS=1.02D-03 Max=8.14D-03
 LinEq1:  Iter=  4 NonCon=     1 RMS=8.66D-05 Max=4.96D-04
 LinEq1:  Iter=  5 NonCon=     1 RMS=4.51D-06 Max=3.40D-05
 LinEq1:  Iter=  6 NonCon=     1 RMS=2.58D-07 Max=1.84D-06
 LinEq1:  Iter=  7 NonCon=     1 RMS=1.61D-08 Max=1.20D-07
 LinEq1:  Iter=  8 NonCon=     1 RMS=8.20D-10 Max=5.43D-09
 LinEq1:  Iter=  9 NonCon=     0 RMS=3.43D-11 Max=1.81D-10
 Linear equations converged to 1.000D-10 1.000D-09 after     9 iterations.
 End of Minotr Frequency-dependent properties file   721 does not exist.
 End of Minotr Frequency-dependent properties file   722 does not exist.

 **********************************************************************

            Population analysis using the SCF density.

 **********************************************************************

 Orbital symmetries:
       Occupied  (SGU) (SGG) (SGG) (SGG) (SGU) (SGG) (SGU) (PIU)
                 (PIU) (PIG) (PIG)
       Virtual   (PIU) (PIU) (SGG) (SGU) (PIU) (PIU) (SGU) (SGG)
                 (PIG) (PIG) (SGU) (SGG) (PIU) (PIU) (SGG) (SGU)
 The electronic state is 1-SGG.
 Alpha  occ. eigenvalues --  -20.57640 -20.57479 -11.45811  -1.48636  -1.44186
 Alpha  occ. eigenvalues --   -0.78173  -0.69666  -0.67737  -0.67737  -0.51585
 Alpha  occ. eigenvalues --   -0.51585
 Alpha virt. eigenvalues --    0.13584   0.13584   0.22991   0.68522   0.86045
 Alpha virt. eigenvalues --    0.86045   0.98639   1.18586   1.71786   1.71786
 Alpha virt. eigenvalues --    1.82599   1.90222   1.91413   1.91413   3.16224
 Alpha virt. eigenvalues --    3.91775
          Condensed to atoms (all electrons):
              1          2          3
     1  C    4.081992   0.434054   0.434054
     2  O    0.434054   8.108625  -0.017729
     3  O    0.434054  -0.017729   8.108625
 Mulliken atomic charges:
              1
     1  C    1.049900
     2  O   -0.524950
     3  O   -0.524950
 Sum of Mulliken atomic charges =  -0.00000
 Mulliken charges with hydrogens summed into heavy atoms:
              1
     1  C    1.049900
     2  O   -0.524950
     3  O   -0.524950
 Sum of Mulliken charges with hydrogens summed into heavy atoms =  -0.00000
 Electronic spatial extent (au):  <R**2>=            128.9109
 Charge=             -0.0000 electrons
 Dipole moment (field-independent basis, Debye):
    X=             -0.0000    Y=              0.0000    Z=              0.0000  Tot=              0.0000
 Quadrupole moment (field-independent basis, Debye-Ang):
   XX=            -14.8249   YY=            -14.8249   ZZ=            -22.0402
   XY=              0.0000   XZ=              0.0000   YZ=              0.0000
 Traceless Quadrupole moment (field-independent basis, Debye-Ang):
   XX=              2.4051   YY=              2.4051   ZZ=             -4.8102
   XY=              0.0000   XZ=              0.0000   YZ=              0.0000
 Octapole moment (field-independent basis, Debye-Ang**2):
  XXX=             -0.0000  YYY=              0.0000  ZZZ=              0.0000  XYY=             -0.0000
  XXY=             -0.0000  XXZ=             -0.0000  XZZ=             -0.0000  YZZ=              0.0000
  YYZ=             -0.0000  XYZ=             -0.0000
 Hexadecapole moment (field-independent basis, Debye-Ang**3):
 XXXX=            -10.2280 YYYY=            -10.2280 ZZZZ=           -120.1573 XXXY=              0.0000
 XXXZ=              0.0000 YYYX=              0.0000 YYYZ=              0.0000 ZZZX=              0.0000
 ZZZY=              0.0000 XXYY=             -3.4093 XXZZ=            -20.4665 YYZZ=            -20.4665
 XXYZ=              0.0000 YYXZ=              0.0000 ZZXY=             -0.0000
 N-N= 5.382603520305D+01 E-N=-5.470917438642D+02  KE= 1.851950867936D+02
 Symmetry AG   KE= 1.002543489991D+02
 Symmetry B1G  KE= 0.000000000000D+00
 Symmetry B2G  KE= 4.676458716430D+00
 Symmetry B3G  KE= 4.676458716430D+00
 Symmetry AU   KE= 0.000000000000D+00
 Symmetry B1U  KE= 6.851409309368D+01
 Symmetry B2U  KE= 3.536863633954D+00
 Symmetry B3U  KE= 3.536863633954D+00
 Calling FoFJK, ICntrl=      2127 FMM=F ISym2X=1 I1Cent= 0 IOpClX= 0 NMat=1 NMatS=1 NMatT=0.
 ***** Axes restored to original set *****
 -------------------------------------------------------------------
 Center     Atomic                   Forces (Hartrees/Bohr)
 Number     Number              X              Y              Z
 -------------------------------------------------------------------
      1        6           0.000000000    0.000000000   -0.000000000
      2        8           0.000000000   -0.000000000   -0.089077360
      3        8          -0.000000000   -0.000000000    0.089077360
 -------------------------------------------------------------------
 Cartesian Forces:  Max     0.089077360 RMS     0.041991470

 GradGradGradGradGradGradGradGradGradGradGradGradGradGradGradGradGradGrad
 Berny optimization.
 Internal  Forces:  Max     0.089077360 RMS     0.062987206
 Search for a local minimum.
 Step number   1 out of a maximum of   20
 All quantities printed in internal units (Hartrees-Bohrs-Radians)
 Mixed Optimization -- RFO/linear search
 Second derivative matrix not updated -- first step.
 The second derivative matrix:
                          R1        R2        A1        A2
           R1           0.80209
           R2           0.00000   0.80209
           A1           0.00000   0.00000   0.03565
           A2           0.00000   0.00000   0.00000   0.03565
 ITU=  0
     Eigenvalues ---    0.03565   0.03565   0.80209   0.80209
 RFO step:  Lambda=-1.93199386D-02 EMin= 3.56487685D-02
 Linear search not attempted -- first point.
 Iteration  1 RMS(Cart)=  0.07668202 RMS(Int)=  0.00000000
 Iteration  2 RMS(Cart)=  0.00000000 RMS(Int)=  0.00000000
 ClnCor:  largest displacement from symmetrization is 1.19D-13 for atom     1.
 Variable       Old X    -DE/DX   Delta X   Delta X   Delta X     New X
                                 (Linear)    (Quad)   (Total)
    R1        2.37803  -0.08908   0.00000  -0.10844  -0.10844   2.26959
    R2        2.37803  -0.08908   0.00000  -0.10844  -0.10844   2.26959
    A1        3.14159   0.00000   0.00000   0.00000   0.00000   3.14159
    A2        3.14159  -0.00000   0.00000  -0.00000   0.00000   3.14159
         Item               Value     Threshold  Converged?
 Maximum Force            0.089077     0.000450     NO 
 RMS     Force            0.062987     0.000300     NO 
 Maximum Displacement     0.108445     0.001800     NO 
 RMS     Displacement     0.076682     0.001200     NO 
 Predicted change in Energy=-9.887180D-03
 GradGradGradGradGradGradGradGradGradGradGradGradGradGradGradGradGradGrad

                          Input orientation:                          
 ---------------------------------------------------------------------
 Center     Atomic      Atomic             Coordinates (Angstroms)
 Number     Number       Type             X           Y           Z
 ---------------------------------------------------------------------
      1          6           0       -0.000000    0.000000   -0.000000
      2          8           0        0.000000    0.000000    1.201014
      3          8           0        0.000000    0.000000   -1.201014
 ---------------------------------------------------------------------
                    Distance matrix (angstroms):
                    1          2          3
     1  C    0.000000
     2  O    1.201014   0.000000
     3  O    1.201014   2.402027   0.000000
 Stoichiometry    CO2
 Framework group  D*H[O(C),C*(O.O)]
 Deg. of freedom     1
 Full point group                 D*H     NOp   8
 Largest Abelian subgroup         D2H     NOp   8
 Largest concise Abelian subgroup C2      NOp   2
                         Standard orientation:                         
 ---------------------------------------------------------------------
 Center     Atomic      Atomic             Coordinates (Angstroms)
 Number     Number       Type             X           Y           Z
 ---------------------------------------------------------------------
      1          6           0        0.000000    0.000000    0.000000
      2          8           0        0.000000    0.000000    1.201014
      3          8           0        0.000000    0.000000   -1.201014
 ---------------------------------------------------------------------
 Rotational constants (GHZ):      0.0000000     10.9524049     10.9524049
 Standard basis: 3-21G (6D, 7F)
 There are     8 symmetry adapted basis functions of AG  symmetry.
 There are     0 symmetry adapted basis functions of B1G symmetry.
 There are     2 symmetry adapted basis functions of B2G symmetry.
 There are     2 symmetry adapted basis functions of B3G symmetry.
 There are     0 symmetry adapted basis functions of AU  symmetry.
 There are     7 symmetry adapted basis functions of B1U symmetry.
 There are     4 symmetry adapted basis functions of B2U symmetry.
 There are     4 symmetry adapted basis functions of B3U symmetry.
 Integral buffers will be    131072 words long.
 Raffenetti 1 integral format.
 Two-electron integral symmetry is turned on.
    27 basis functions,    45 primitive gaussians,    27 cartesian basis functions
    11 alpha electrons       11 beta electrons
       nuclear repulsion energy        56.3979357815 Hartrees.
 NAtoms=    3 NActive=    3 NUniq=    2 SFac= 2.25D+00 NAtFMM=   60 NAOKFM=F Big=F
 One-electron integrals computed using PRISM.
 NBasis=    27 RedAO= T  NBF=     8     0     2     2     0     7     4     4
 NBsUse=    27 1.00D-06 NBFU=     8     0     2     2     0     7     4     4
 Initial guess read from the read-write file.
 B after Tr=     0.000000    0.000000    0.000000
         Rot=    1.000000    0.000000    0.000000    0.000000 Ang=   0.00 deg.
 Initial guess orbital symmetries:
       Occupied  (SGU) (SGG) (SGG) (SGG) (SGU) (SGG) (SGU) (PIU)
                 (PIU) (PIG) (PIG)
       Virtual   (PIU) (PIU) (SGG) (SGU) (PIU) (PIU) (SGU) (SGG)
                 (PIG) (PIG) (SGU) (SGG) (PIU) (PIU) (SGG) (SGU)
 Harris functional with IExCor=  205 diagonalized for initial guess.
 ExpMin= 1.96D-01 ExpMax= 3.22D+02 ExpMxC= 3.22D+02 IAcc=1 IRadAn=         1 AccDes= 0.00D+00
 HarFok:  IExCor=  205 AccDes= 0.00D+00 IRadAn=         1 IDoV= 1
 ScaDFX=  1.000000  1.000000  1.000000  1.000000
 FoFCou: FMM=F IPFlag=           0 FMFlag=      100000 FMFlg1=           0
         NFxFlg=           0 DoJE=T BraDBF=F KetDBF=T FulRan=T
         Omega=  0.000000  0.000000  1.000000  0.000000  0.000000 ICntrl=     500 IOpCl=  0
         NMat0=    1 NMatS0=    1 NMatT0=    0 NMatD0=    1 NMtDS0=    0 NMtDT0=    0
         I1Cent=           4 NGrid=           0.
 Petite list used in FoFCou.
 Requested convergence on RMS density matrix=1.00D-08 within 128 cycles.
 Requested convergence on MAX density matrix=1.00D-06.
 Requested convergence on             energy=1.00D-06.
 No special actions if energy rises.
 Keep R1 ints in memory in canonical form, NReq=892434.
 SCF Done:  E(RHF) =  -186.553140586     A.U. after   10 cycles
             Convg  =    0.2052D-08             -V/T =  2.0051
 ExpMin= 1.96D-01 ExpMax= 3.22D+02 ExpMxC= 3.22D+02 IAcc=3 IRadAn=         5 AccDes= 0.00D+00
 HarFok:  IExCor=  205 AccDes= 0.00D+00 IRadAn=         5 IDoV=-2
 ScaDFX=  1.000000  1.000000  1.000000  1.000000
 Range of M.O.s used for correlation:     4    27
 NBasis=    27 NAE=    11 NBE=    11 NFC=     3 NFV=     0
 NROrb=     24 NOA=     8 NOB=     8 NVA=    16 NVB=    16
 Fully direct method using O(ONN) memory.
 JobTyp=1 Pass  1:  I=   4 to  11 NPSUse=  1 ParTrn=F ParDer=F DoDerP=T.
 Spin components of T(2) and E(2):
     alpha-alpha T2 =       0.1834208615D-01 E2=     -0.5030655200D-01
     alpha-beta  T2 =       0.9140146498D-01 E2=     -0.2578641942D+00
     beta-beta   T2 =       0.1834208615D-01 E2=     -0.5030655200D-01
 ANorm=    0.1062113759D+01
 E2 =    -0.3584772982D+00 EUMP2 =    -0.18691161788444D+03
          IDoAtm=111
          Differentiating once with respect to electric field.
                with respect to dipole field.
          Differentiating once with respect to nuclear coordinates.
          Keep R1 ints in memory in canonical form, NReq=872383.
          There are     1 degrees of freedom in the 1st order CPHF.  IDoFFX=0.
 LinEq1:  Iter=  0 NonCon=     1 RMS=2.41D-02 Max=2.03D-01
 AX will form     1 AO Fock derivatives at one time.
 LinEq1:  Iter=  1 NonCon=     1 RMS=6.67D-03 Max=5.52D-02
 LinEq1:  Iter=  2 NonCon=     1 RMS=2.58D-03 Max=1.64D-02
 LinEq1:  Iter=  3 NonCon=     1 RMS=7.47D-04 Max=6.08D-03
 LinEq1:  Iter=  4 NonCon=     1 RMS=6.13D-05 Max=3.39D-04
 LinEq1:  Iter=  5 NonCon=     1 RMS=3.39D-06 Max=2.60D-05
 LinEq1:  Iter=  6 NonCon=     1 RMS=1.95D-07 Max=1.45D-06
 LinEq1:  Iter=  7 NonCon=     1 RMS=1.32D-08 Max=9.02D-08
 LinEq1:  Iter=  8 NonCon=     1 RMS=6.51D-10 Max=3.73D-09
 LinEq1:  Iter=  9 NonCon=     0 RMS=3.01D-11 Max=1.70D-10
 Linear equations converged to 1.000D-10 1.000D-09 after     9 iterations.
 End of Minotr Frequency-dependent properties file   721 does not exist.
 End of Minotr Frequency-dependent properties file   722 does not exist.
 Calling FoFJK, ICntrl=      2127 FMM=F ISym2X=1 I1Cent= 0 IOpClX= 0 NMat=1 NMatS=1 NMatT=0.
 ***** Axes restored to original set *****
 -------------------------------------------------------------------
 Center     Atomic                   Forces (Hartrees/Bohr)
 Number     Number              X              Y              Z
 -------------------------------------------------------------------
      1        6           0.000000000    0.000000000    0.000000000
      2        8           0.000000000   -0.000000000   -0.007704639
      3        8          -0.000000000   -0.000000000    0.007704639
 -------------------------------------------------------------------
 Cartesian Forces:  Max     0.007704639 RMS     0.003632001

 GradGradGradGradGradGradGradGradGradGradGradGradGradGradGradGradGradGrad
 Berny optimization.
 Using GEDIIS/GDIIS optimizer.
 Internal  Forces:  Max     0.007704639 RMS     0.005448002
 Search for a local minimum.
 Step number   2 out of a maximum of   20
 All quantities printed in internal units (Hartrees-Bohrs-Radians)
 Mixed Optimization -- RFO/linear search
 Update second derivatives using D2CorX and points    1    2
 DE= -1.11D-02 DEPred=-9.89D-03 R= 1.12D+00
 SS=  1.41D+00  RLast= 1.53D-01 DXNew= 5.0454D-01 4.6009D-01
 Trust test= 1.12D+00 RLast= 1.53D-01 DXMaxT set to 4.60D-01
 The second derivative matrix:
                          R1        R2        A1        A2
           R1           0.77622
           R2          -0.02586   0.77622
           A1           0.00000   0.00000   0.03565
           A2          -0.00000  -0.00000  -0.00000   0.03565
 ITU=  1  0
 Use linear search instead of GDIIS.
     Eigenvalues ---    0.03565   0.03565   0.75036   0.80209
 RFO step:  Lambda= 0.00000000D+00 EMin= 3.56487685D-02
 Quartic linear search produced a step of  0.07792.
 Iteration  1 RMS(Cart)=  0.00597526 RMS(Int)=  0.00000000
 Iteration  2 RMS(Cart)=  0.00000000 RMS(Int)=  0.00000000
 ClnCor:  largest displacement from symmetrization is 1.81D-13 for atom     1.
 Variable       Old X    -DE/DX   Delta X   Delta X   Delta X     New X
                                 (Linear)    (Quad)   (Total)
    R1        2.26959  -0.00770  -0.00845   0.00000  -0.00845   2.26114
    R2        2.26959  -0.00770  -0.00845  -0.00000  -0.00845   2.26114
    A1        3.14159   0.00000   0.00000   0.00000   0.00000   3.14159
    A2        3.14159  -0.00000   0.00000  -0.00000   0.00000   3.14159
         Item               Value     Threshold  Converged?
 Maximum Force            0.007705     0.000450     NO 
 RMS     Force            0.005448     0.000300     NO 
 Maximum Displacement     0.008450     0.001800     NO 
 RMS     Displacement     0.005975     0.001200     NO 
 Predicted change in Energy=-7.663155D-05
 GradGradGradGradGradGradGradGradGradGradGradGradGradGradGradGradGradGrad

                          Input orientation:                          
 ---------------------------------------------------------------------
 Center     Atomic      Atomic             Coordinates (Angstroms)
 Number     Number       Type             X           Y           Z
 ---------------------------------------------------------------------
      1          6           0        0.000000    0.000000   -0.000000
      2          8           0        0.000000    0.000000    1.196542
      3          8           0        0.000000    0.000000   -1.196542
 ---------------------------------------------------------------------
                    Distance matrix (angstroms):
                    1          2          3
     1  C    0.000000
     2  O    1.196542   0.000000
     3  O    1.196542   2.393084   0.000000
 Stoichiometry    CO2
 Framework group  D*H[O(C),C*(O.O)]
 Deg. of freedom     1
 Full point group                 D*H     NOp   8
 Largest Abelian subgroup         D2H     NOp   8
 Largest concise Abelian subgroup C2      NOp   2
                         Standard orientation:                         
 ---------------------------------------------------------------------
 Center     Atomic      Atomic             Coordinates (Angstroms)
 Number     Number       Type             X           Y           Z
 ---------------------------------------------------------------------
      1          6           0        0.000000    0.000000    0.000000
      2          8           0        0.000000    0.000000    1.196542
      3          8           0        0.000000    0.000000   -1.196542
 ---------------------------------------------------------------------
 Rotational constants (GHZ):      0.0000000     11.0344203     11.0344203
 Standard basis: 3-21G (6D, 7F)
 There are     8 symmetry adapted basis functions of AG  symmetry.
 There are     0 symmetry adapted basis functions of B1G symmetry.
 There are     2 symmetry adapted basis functions of B2G symmetry.
 There are     2 symmetry adapted basis functions of B3G symmetry.
 There are     0 symmetry adapted basis functions of AU  symmetry.
 There are     7 symmetry adapted basis functions of B1U symmetry.
 There are     4 symmetry adapted basis functions of B2U symmetry.
 There are     4 symmetry adapted basis functions of B3U symmetry.
 Integral buffers will be    131072 words long.
 Raffenetti 1 integral format.
 Two-electron integral symmetry is turned on.
    27 basis functions,    45 primitive gaussians,    27 cartesian basis functions
    11 alpha electrons       11 beta electrons
       nuclear repulsion energy        56.6087056795 Hartrees.
 NAtoms=    3 NActive=    3 NUniq=    2 SFac= 2.25D+00 NAtFMM=   60 NAOKFM=F Big=F
 One-electron integrals computed using PRISM.
 NBasis=    27 RedAO= T  NBF=     8     0     2     2     0     7     4     4
 NBsUse=    27 1.00D-06 NBFU=     8     0     2     2     0     7     4     4
 Initial guess read from the read-write file.
 B after Tr=     0.000000    0.000000    0.000000
         Rot=    1.000000    0.000000    0.000000    0.000000 Ang=   0.00 deg.
 Initial guess orbital symmetries:
       Occupied  (SGU) (SGG) (SGG) (SGG) (SGU) (SGG) (SGU) (PIU)
                 (PIU) (PIG) (PIG)
       Virtual   (PIU) (PIU) (SGG) (SGU) (PIU) (PIU) (SGU) (SGG)
                 (PIG) (PIG) (SGU) (SGG) (PIU) (PIU) (SGG) (SGU)
 Requested convergence on RMS density matrix=1.00D-08 within 128 cycles.
 Requested convergence on MAX density matrix=1.00D-06.
 Requested convergence on             energy=1.00D-06.
 No special actions if energy rises.
 Keep R1 ints in memory in canonical form, NReq=892434.
 SCF Done:  E(RHF) =  -186.554596770     A.U. after    8 cycles
             Convg  =    0.4401D-08             -V/T =  2.0049
 ExpMin= 1.96D-01 ExpMax= 3.22D+02 ExpMxC= 3.22D+02 IAcc=3 IRadAn=         5 AccDes= 0.00D+00
 HarFok:  IExCor=  205 AccDes= 0.00D+00 IRadAn=         5 IDoV=-2
 ScaDFX=  1.000000  1.000000  1.000000  1.000000
 Range of M.O.s used for correlation:     4    27
 NBasis=    27 NAE=    11 NBE=    11 NFC=     3 NFV=     0
 NROrb=     24 NOA=     8 NOB=     8 NVA=    16 NVB=    16
 Fully direct method using O(ONN) memory.
 JobTyp=1 Pass  1:  I=   4 to  11 NPSUse=  1 ParTrn=F ParDer=F DoDerP=T.
 Spin components of T(2) and E(2):
     alpha-alpha T2 =       0.1815824695D-01 E2=     -0.5008452148D-01
     alpha-beta  T2 =       0.9058489987D-01 E2=     -0.2569170146D+00
     beta-beta   T2 =       0.1815824695D-01 E2=     -0.5008452148D-01
 ANorm=    0.1061556119D+01
 E2 =    -0.3570860576D+00 EUMP2 =    -0.18691168282739D+03
          IDoAtm=111
          Differentiating once with respect to electric field.
                with respect to dipole field.
          Differentiating once with respect to nuclear coordinates.
          Keep R1 ints in memory in canonical form, NReq=872383.
          There are     1 degrees of freedom in the 1st order CPHF.  IDoFFX=0.
 LinEq1:  Iter=  0 NonCon=     1 RMS=2.38D-02 Max=2.00D-01
 AX will form     1 AO Fock derivatives at one time.
 LinEq1:  Iter=  1 NonCon=     1 RMS=6.51D-03 Max=5.36D-02
 LinEq1:  Iter=  2 NonCon=     1 RMS=2.51D-03 Max=1.59D-02
 LinEq1:  Iter=  3 NonCon=     1 RMS=7.27D-04 Max=5.92D-03
 LinEq1:  Iter=  4 NonCon=     1 RMS=5.96D-05 Max=3.29D-04
 LinEq1:  Iter=  5 NonCon=     1 RMS=3.31D-06 Max=2.54D-05
 LinEq1:  Iter=  6 NonCon=     1 RMS=1.90D-07 Max=1.42D-06
 LinEq1:  Iter=  7 NonCon=     1 RMS=1.30D-08 Max=8.82D-08
 LinEq1:  Iter=  8 NonCon=     1 RMS=6.40D-10 Max=3.68D-09
 LinEq1:  Iter=  9 NonCon=     0 RMS=2.98D-11 Max=1.68D-10
 Linear equations converged to 1.000D-10 1.000D-09 after     9 iterations.
 End of Minotr Frequency-dependent properties file   721 does not exist.
 End of Minotr Frequency-dependent properties file   722 does not exist.
 Calling FoFJK, ICntrl=      2127 FMM=F ISym2X=1 I1Cent= 0 IOpClX= 0 NMat=1 NMatS=1 NMatT=0.
 ***** Axes restored to original set *****
 -------------------------------------------------------------------
 Center     Atomic                   Forces (Hartrees/Bohr)
 Number     Number              X              Y              Z
 -------------------------------------------------------------------
      1        6           0.000000000    0.000000000   -0.000000000
      2        8           0.000000000   -0.000000000    0.000058485
      3        8          -0.000000000   -0.000000000   -0.000058485
 -------------------------------------------------------------------
 Cartesian Forces:  Max     0.000058485 RMS     0.000027570

 GradGradGradGradGradGradGradGradGradGradGradGradGradGradGradGradGradGrad
 Berny optimization.
 Using GEDIIS/GDIIS optimizer.
 Internal  Forces:  Max     0.000058485 RMS     0.000041355
 Search for a local minimum.
 Step number   3 out of a maximum of   20
 All quantities printed in internal units (Hartrees-Bohrs-Radians)
 Mixed Optimization -- En-DIIS/RFO-DIIS
 Update second derivatives using D2CorX and points    1    2    3
 DE= -6.49D-05 DEPred=-7.66D-05 R= 8.47D-01
 SS=  1.41D+00  RLast= 1.20D-02 DXNew= 7.7378D-01 3.5852D-02
 Trust test= 8.47D-01 RLast= 1.20D-02 DXMaxT set to 4.60D-01
 The second derivative matrix:
                          R1        R2        A1        A2
           R1           0.86038
           R2           0.05830   0.86038
           A1           0.00000   0.00000   0.03565
           A2          -0.00000  -0.00000  -0.00000   0.03565
 ITU=  1  1  0
 Use linear search instead of GDIIS.
     Eigenvalues ---    0.03565   0.03565   0.80209   0.91868
 RFO step:  Lambda= 0.00000000D+00 EMin= 3.56487685D-02
 Quartic linear search produced a step of -0.00742.
 Iteration  1 RMS(Cart)=  0.00004435 RMS(Int)=  0.00000000
 Iteration  2 RMS(Cart)=  0.00000000 RMS(Int)=  0.00000000
 ClnCor:  largest displacement from symmetrization is 1.81D-13 for atom     1.
 Variable       Old X    -DE/DX   Delta X   Delta X   Delta X     New X
                                 (Linear)    (Quad)   (Total)
    R1        2.26114   0.00006   0.00006   0.00000   0.00006   2.26120
    R2        2.26114   0.00006   0.00006  -0.00000   0.00006   2.26120
    A1        3.14159   0.00000   0.00000   0.00000   0.00000   3.14159
    A2        3.14159  -0.00000   0.00000  -0.00000   0.00000   3.14159
         Item               Value     Threshold  Converged?
 Maximum Force            0.000058     0.000450     YES
 RMS     Force            0.000041     0.000300     YES
 Maximum Displacement     0.000063     0.001800     YES
 RMS     Displacement     0.000044     0.001200     YES
 Predicted change in Energy=-3.722464D-09
 Optimization completed.
    -- Stationary point found.
                           ----------------------------
                           !   Optimized Parameters   !
                           ! (Angstroms and Degrees)  !
 --------------------------                            --------------------------
 ! Name  Definition              Value          Derivative Info.                !
 --------------------------------------------------------------------------------
 ! R1    R(1,2)                  1.1965         -DE/DX =    0.0001              !
 ! R2    R(1,3)                  1.1965         -DE/DX =    0.0001              !
 ! A1    L(2,1,3,-1,-1)        180.0            -DE/DX =    0.0                 !
 ! A2    L(2,1,3,-2,-2)        180.0            -DE/DX =    0.0                 !
 --------------------------------------------------------------------------------
 GradGradGradGradGradGradGradGradGradGradGradGradGradGradGradGradGradGrad

                          Input orientation:                          
 ---------------------------------------------------------------------
 Center     Atomic      Atomic             Coordinates (Angstroms)
 Number     Number       Type             X           Y           Z
 ---------------------------------------------------------------------
      1          6           0        0.000000    0.000000    0.000000
      2          8           0        0.000000    0.000000    1.196542
      3          8           0        0.000000    0.000000   -1.196542
 ---------------------------------------------------------------------
                    Distance matrix (angstroms):
                    1          2          3
     1  C    0.000000
     2  O    1.196542   0.000000
     3  O    1.196542   2.393084   0.000000
 Stoichiometry    CO2
 Framework group  D*H[O(C),C*(O.O)]
 Deg. of freedom     1
 Full point group                 D*H     NOp   8
 Largest Abelian subgroup         D2H     NOp   8
 Largest concise Abelian subgroup C2      NOp   2
                         Standard orientation:                         
 ---------------------------------------------------------------------
 Center     Atomic      Atomic             Coordinates (Angstroms)
 Number     Number       Type             X           Y           Z
 ---------------------------------------------------------------------
      1          6           0        0.000000    0.000000    0.000000
      2          8           0        0.000000    0.000000    1.196542
      3          8           0        0.000000    0.000000   -1.196542
 ---------------------------------------------------------------------
 Rotational constants (GHZ):      0.0000000     11.0344203     11.0344203

 **********************************************************************

            Population analysis using the SCF density.

 **********************************************************************

 Orbital symmetries:
       Occupied  (SGU) (SGG) (SGG) (SGG) (SGU) (SGG) (SGU) (PIU)
                 (PIU) (PIG) (PIG)
       Virtual   (PIU) (PIU) (SGG) (SGU) (PIU) (PIU) (SGU) (SGG)
                 (PIG) (PIG) (SGU) (SGG) (PIU) (PIU) (SGG) (SGU)
 The electronic state is 1-SGG.
 Alpha  occ. eigenvalues --  -20.56700 -20.56553 -11.43724  -1.52370  -1.47799
 Alpha  occ. eigenvalues --   -0.77616  -0.71297  -0.70351  -0.70351  -0.51928
 Alpha  occ. eigenvalues --   -0.51928
 Alpha virt. eigenvalues --    0.17901   0.17901   0.26977   0.67633   0.85313
 Alpha virt. eigenvalues --    0.85313   1.11990   1.23085   1.72728   1.72728
 Alpha virt. eigenvalues --    1.81516   1.87202   1.93547   1.93547   3.26549
 Alpha virt. eigenvalues --    3.94028
          Condensed to atoms (all electrons):
              1          2          3
     1  C    3.970509   0.474975   0.474975
     2  O    0.474975   8.086500  -0.021704
     3  O    0.474975  -0.021704   8.086500
 Mulliken atomic charges:
              1
     1  C    1.079542
     2  O   -0.539771
     3  O   -0.539771
 Sum of Mulliken atomic charges =  -0.00000
 Mulliken charges with hydrogens summed into heavy atoms:
              1
     1  C    1.079542
     2  O   -0.539771
     3  O   -0.539771
 Sum of Mulliken charges with hydrogens summed into heavy atoms =  -0.00000
 Electronic spatial extent (au):  <R**2>=            119.5986
 Charge=             -0.0000 electrons
 Dipole moment (field-independent basis, Debye):
    X=             -0.0000    Y=              0.0000    Z=              0.0000  Tot=              0.0000
 Quadrupole moment (field-independent basis, Debye-Ang):
   XX=            -14.5605   YY=            -14.5605   ZZ=            -21.7142
   XY=              0.0000   XZ=              0.0000   YZ=              0.0000
 Traceless Quadrupole moment (field-independent basis, Debye-Ang):
   XX=              2.3846   YY=              2.3846   ZZ=             -4.7691
   XY=              0.0000   XZ=              0.0000   YZ=              0.0000
 Octapole moment (field-independent basis, Debye-Ang**2):
  XXX=             -0.0000  YYY=             -0.0000  ZZZ=              0.0000  XYY=             -0.0000
  XXY=              0.0000  XXZ=             -0.0000  XZZ=             -0.0000  YZZ=              0.0000
  YYZ=              0.0000  XYZ=             -0.0000
 Hexadecapole moment (field-independent basis, Debye-Ang**3):
 XXXX=             -9.8832 YYYY=             -9.8832 ZZZZ=           -109.9683 XXXY=              0.0000
 XXXZ=              0.0000 YYYX=              0.0000 YYYZ=              0.0000 ZZZX=              0.0000
 ZZZY=              0.0000 XXYY=             -3.2944 XXZZ=            -18.6945 YYZZ=            -18.6945
 XXYZ=              0.0000 YYXZ=              0.0000 ZZXY=             -0.0000
 N-N= 5.660870567951D+01 E-N=-5.529571892351D+02  KE= 1.856429656909D+02
 Symmetry AG   KE= 1.004861771632D+02
 Symmetry B1G  KE= 0.000000000000D+00
 Symmetry B2G  KE= 4.687035802023D+00
 Symmetry B3G  KE= 4.687035802023D+00
 Symmetry AU   KE= 0.000000000000D+00
 Symmetry B1U  KE= 6.871386152367D+01
 Symmetry B2U  KE= 3.534427699984D+00
 Symmetry B3U  KE= 3.534427699984D+00
 1\1\GINC-SRU01\FOpt\RMP2-FC\3-21G\C1O2\JAMES\10-Jul-2023\0\\# opt freq
 =hpmodes mp2/3-21g geom=connectivity\\Title Card Required\\0,1\C,0.,0.
 ,0.\O,0.,0.,1.1965418019\O,0.,0.,-1.1965418019\\Version=AM64L-G09RevC.
 01\State=1-SGG\HF=-186.5545968\MP2=-186.9116828\RMSD=4.401e-09\RMSF=2.
 757e-05\Dipole=0.,0.,0.\PG=D*H [O(C1),C*(O1.O1)]\\@


 Any fool can criticize, condemn, and complain -- and most do.
 -- Dale Carnegie
 Job cpu time:  0 days  0 hours  0 minutes  1.7 seconds.
 File lengths (MBytes):  RWF=      5 Int=      0 D2E=      0 Chk=      2 Scr=      1
 Normal termination of Gaussian 09 at Mon Jul 10 15:40:02 2023.
 Link1:  Proceeding to internal job step number  2.
 -------------------------------------------------------------------
 #N Geom=AllCheck Guess=TCheck SCRF=Check GenChk RMP2(FC)/3-21G Freq
 -------------------------------------------------------------------
 1/10=4,29=7,30=1,38=1,40=1/1,3;
 2/12=2,40=1/2;
 3/5=5,11=1,14=-4,16=1,25=1,30=1,70=2,71=2,116=1/1,2,3;
 4/5=101/1;
 5/5=2,98=1/2;
 8/6=3,8=1,10=1,19=11,30=-1/1;
 9/15=3,16=-3/6;
 11/6=1,8=1,15=11,17=12,24=-1,27=1,28=-2,29=300,32=6,42=3/1,2,10;
 10/6=2,21=1/2;
 8/6=4,8=1,10=1,19=11,30=-1/11,4;
 10/5=1,20=4/2;
 11/12=2,14=11,16=1,17=2,28=-2,42=3/2,10,12;
 6/7=2,8=2,9=2,10=2/1;
 7/8=11,10=1,12=2,25=1,44=2/1,2,3,16;
 1/10=4,30=1/3;
 99//99;
 Structure from the checkpoint file:  co2_mp2_3-21g.chk
 -------------------
 Title Card Required
 -------------------
 Charge =  0 Multiplicity = 1
 Redundant internal coordinates found in file.
 C,0,0.,0.,0.
 O,0,0.,0.,1.1965418019
 O,0,0.,0.,-1.1965418019
 Recover connectivity data from disk.

 GradGradGradGradGradGradGradGradGradGradGradGradGradGradGradGradGradGrad
 Berny optimization.
 Initialization pass.
                           ----------------------------
                           !    Initial Parameters    !
                           ! (Angstroms and Degrees)  !
 --------------------------                            --------------------------
 ! Name  Definition              Value          Derivative Info.                !
 --------------------------------------------------------------------------------
 ! R1    R(1,2)                  1.1965         calculate D2E/DX2 analytically  !
 ! R2    R(1,3)                  1.1965         calculate D2E/DX2 analytically  !
 ! A1    L(2,1,3,-1,-1)        180.0            calculate D2E/DX2 analytically  !
 ! A2    L(2,1,3,-2,-2)        180.0            calculate D2E/DX2 analytically  !
 --------------------------------------------------------------------------------
 Trust Radius=3.00D-01 FncErr=1.00D-07 GrdErr=1.00D-07
 Number of steps in this run=      2 maximum allowed number of steps=      2.
 GradGradGradGradGradGradGradGradGradGradGradGradGradGradGradGradGradGrad

                          Input orientation:                          
 ---------------------------------------------------------------------
 Center     Atomic      Atomic             Coordinates (Angstroms)
 Number     Number       Type             X           Y           Z
 ---------------------------------------------------------------------
      1          6           0        0.000000    0.000000    0.000000
      2          8           0        0.000000    0.000000    1.196542
      3          8           0        0.000000    0.000000   -1.196542
 ---------------------------------------------------------------------
                    Distance matrix (angstroms):
                    1          2          3
     1  C    0.000000
     2  O    1.196542   0.000000
     3  O    1.196542   2.393084   0.000000
 Stoichiometry    CO2
 Framework group  D*H[O(C),C*(O.O)]
 Deg. of freedom     1
 Full point group                 D*H     NOp   8
 Largest Abelian subgroup         D2H     NOp   8
 Largest concise Abelian subgroup C2      NOp   2
                         Standard orientation:                         
 ---------------------------------------------------------------------
 Center     Atomic      Atomic             Coordinates (Angstroms)
 Number     Number       Type             X           Y           Z
 ---------------------------------------------------------------------
      1          6           0        0.000000    0.000000    0.000000
      2          8           0        0.000000    0.000000    1.196542
      3          8           0        0.000000    0.000000   -1.196542
 ---------------------------------------------------------------------
 Rotational constants (GHZ):      0.0000000     11.0344203     11.0344203
 Standard basis: 3-21G (6D, 7F)
 There are     8 symmetry adapted basis functions of AG  symmetry.
 There are     0 symmetry adapted basis functions of B1G symmetry.
 There are     2 symmetry adapted basis functions of B2G symmetry.
 There are     2 symmetry adapted basis functions of B3G symmetry.
 There are     0 symmetry adapted basis functions of AU  symmetry.
 There are     7 symmetry adapted basis functions of B1U symmetry.
 There are     4 symmetry adapted basis functions of B2U symmetry.
 There are     4 symmetry adapted basis functions of B3U symmetry.
 Integral buffers will be    131072 words long.
 Raffenetti 1 integral format.
 Two-electron integral symmetry is turned on.
    27 basis functions,    45 primitive gaussians,    27 cartesian basis functions
    11 alpha electrons       11 beta electrons
       nuclear repulsion energy        56.6087056795 Hartrees.
 NAtoms=    3 NActive=    3 NUniq=    2 SFac= 2.25D+00 NAtFMM=   60 NAOKFM=F Big=F
 One-electron integrals computed using PRISM.
 NBasis=    27 RedAO= T  NBF=     8     0     2     2     0     7     4     4
 NBsUse=    27 1.00D-06 NBFU=     8     0     2     2     0     7     4     4
 Initial guess read from the checkpoint file:  co2_mp2_3-21g.chk
 B after Tr=     0.000000    0.000000    0.000000
         Rot=    1.000000    0.000000    0.000000    0.000000 Ang=   0.00 deg.
 Initial guess orbital symmetries:
       Occupied  (SGU) (SGG) (SGG) (SGG) (SGU) (SGG) (SGU) (PIU)
                 (PIU) (PIG) (PIG)
       Virtual   (PIU) (PIU) (SGG) (SGU) (PIU) (PIU) (SGU) (SGG)
                 (PIG) (PIG) (SGU) (SGG) (PIU) (PIU) (SGG) (SGU)
 Requested convergence on RMS density matrix=1.00D-08 within 128 cycles.
 Requested convergence on MAX density matrix=1.00D-06.
 Requested convergence on             energy=1.00D-06.
 No special actions if energy rises.
 Keep R1 ints in memory in canonical form, NReq=892434.
 SCF Done:  E(RHF) =  -186.554596770     A.U. after    1 cycles
             Convg  =    0.3636D-09             -V/T =  2.0049
 ExpMin= 1.96D-01 ExpMax= 3.22D+02 ExpMxC= 3.22D+02 IAcc=3 IRadAn=         5 AccDes= 0.00D+00
 HarFok:  IExCor=  205 AccDes= 0.00D+00 IRadAn=         5 IDoV=-2
 ScaDFX=  1.000000  1.000000  1.000000  1.000000
 Range of M.O.s used for correlation:     4    27
 NBasis=    27 NAE=    11 NBE=    11 NFC=     3 NFV=     0
 NROrb=     24 NOA=     8 NOB=     8 NVA=    16 NVB=    16
 Disk-based method using ON**2 memory for  8 occupieds at a time.
 Permanent disk used for amplitudes=       37576 words.
 Estimated scratch disk usage=      887575 words.
 Actual    scratch disk usage=      887575 words.
 JobTyp=1 Pass  1:  I=   4 to  11 NPSUse=  1 ParTrn=F ParDer=F DoDerP=T.
 (rs|ai) integrals will be sorted in core.
 Spin components of T(2) and E(2):
     alpha-alpha T2 =       0.1815824690D-01 E2=     -0.5008452143D-01
     alpha-beta  T2 =       0.9058489964D-01 E2=     -0.2569170145D+00
     beta-beta   T2 =       0.1815824690D-01 E2=     -0.5008452143D-01
 ANorm=    0.1061556119D+01
 E2 =    -0.3570860573D+00 EUMP2 =    -0.18691168282715D+03
 G2DrvN: will do     4 centers at a time, making    1 passes doing MaxLOS=1.
 Calling FoFCou, ICntrl=  3107 FMM=F I1Cent=   0 AccDes= 0.00D+00.
 FoFDir/FoFCou used for L=0 through L=1.
 End of G2Drv Frequency-dependent properties file   721 does not exist.
 End of G2Drv Frequency-dependent properties file   722 does not exist.
          IDoAtm=111
          Differentiating once with respect to electric field.
                with respect to dipole field.
          Differentiating once with respect to nuclear coordinates.
          Keep R1 ints in memory in canonical form, NReq=872383.
          There are    12 degrees of freedom in the 1st order CPHF.  IDoFFX=5.
      9 vectors produced by pass  0 Test12= 1.47D-15 8.33D-09 XBig12= 8.85D+00 1.96D+00.
 AX will form     9 AO Fock derivatives at one time.
      9 vectors produced by pass  1 Test12= 1.47D-15 8.33D-09 XBig12= 6.52D-01 3.20D-01.
      9 vectors produced by pass  2 Test12= 1.47D-15 8.33D-09 XBig12= 8.60D-03 5.39D-02.
      9 vectors produced by pass  3 Test12= 1.47D-15 8.33D-09 XBig12= 6.07D-05 4.23D-03.
      9 vectors produced by pass  4 Test12= 1.47D-15 8.33D-09 XBig12= 3.80D-07 2.92D-04.
      9 vectors produced by pass  5 Test12= 1.47D-15 8.33D-09 XBig12= 1.81D-09 1.92D-05.
      7 vectors produced by pass  6 Test12= 1.47D-15 8.33D-09 XBig12= 9.95D-12 1.31D-06.
      2 vectors produced by pass  7 Test12= 1.47D-15 8.33D-09 XBig12= 4.77D-14 8.81D-08.
 Inverted reduced A of dimension    63 with in-core refinement.
 End of Minotr Frequency-dependent properties file   721 does not exist.
 End of Minotr Frequency-dependent properties file   722 does not exist.
 MDV=    33554432.
 Form MO integral derivatives with frozen-active canonical formalism.
 Discarding MO integrals.
 Reordered first order wavefunction length =        61952
 In DefCFB: NBatch=  1 ICI= 11 ICA= 16 LFMax= 16
            Large arrays: LIAPS=      513216 LIARS=      299376 words.
 Semi-Direct transformation.
 ModeAB=           4 MOrb=            11 LenV=      33437804
 LASXX=        69916 LTotXX=       69916 LenRXX=      149776
 LTotAB=       79860 MaxLAS=       74547 LenRXY=           0
 NonZer=      219692 LenScr=      785920 LnRSAI=       74547
 LnScr1=      785920 LExtra=           0 Total=      1796163
 MaxDsk=          -1 SrtSym=           T ITran=            4
 JobTyp=0 Pass  1:  I=   1 to  11.
 (rs|ai) integrals will be sorted in core.
 Spin components of T(2) and E(2):
     alpha-alpha T2 =       0.1815824690D-01 E2=     -0.5008452143D-01
     alpha-beta  T2 =       0.9058489964D-01 E2=     -0.2569170145D+00
     beta-beta   T2 =       0.1815824690D-01 E2=     -0.5008452143D-01
 ANorm=    0.1501267060D+01
 E2 =    -0.3570860573D+00 EUMP2 =    -0.18691168282715D+03
          IDoAtm=111
          Differentiating once with respect to electric field.
                with respect to dipole field.
          Differentiating once with respect to nuclear coordinates.
          There are     1 degrees of freedom in the 1st order CPHF.  IDoFFX=0.
 LinEq1:  Iter=  0 NonCon=     1 RMS=2.38D-02 Max=2.00D-01
 LinEq1:  Iter=  1 NonCon=     1 RMS=6.51D-03 Max=5.36D-02
 LinEq1:  Iter=  2 NonCon=     1 RMS=2.51D-03 Max=1.59D-02
 LinEq1:  Iter=  3 NonCon=     1 RMS=7.27D-04 Max=5.92D-03
 LinEq1:  Iter=  4 NonCon=     1 RMS=5.96D-05 Max=3.29D-04
 LinEq1:  Iter=  5 NonCon=     1 RMS=3.31D-06 Max=2.54D-05
 LinEq1:  Iter=  6 NonCon=     1 RMS=1.90D-07 Max=1.42D-06
 LinEq1:  Iter=  7 NonCon=     1 RMS=1.30D-08 Max=8.82D-08
 LinEq1:  Iter=  8 NonCon=     1 RMS=6.40D-10 Max=3.68D-09
 LinEq1:  Iter=  9 NonCon=     0 RMS=2.98D-11 Max=1.68D-10
 Linear equations converged to 1.000D-10 1.000D-09 after     9 iterations.
 End of Minotr Frequency-dependent properties file   721 does not exist.
 End of Minotr Frequency-dependent properties file   722 does not exist.
 Symmetrizing basis deriv contribution to polar:
 IMax=3 JMax=2 DiffMx= 0.00D+00
 G2DrvN: will do     4 centers at a time, making    1 passes doing MaxLOS=1.
 Calling FoFCou, ICntrl=  3107 FMM=F I1Cent=   0 AccDes= 0.00D+00.
 FoFDir/FoFCou used for L=0 through L=1.
 End of G2Drv Frequency-dependent properties file   721 does not exist.
 End of G2Drv Frequency-dependent properties file   722 does not exist.
 R2 and R3 integrals will be kept in memory, NReq=      943262.
 DD1Dir will call FoFMem   1 times, MxPair=       132
 NAB=    66 NAA=     0 NBB=     0.
 Discarding MO integrals.

 **********************************************************************

            Population analysis using the SCF density.

 **********************************************************************

 Orbital symmetries:
       Occupied  (SGU) (SGG) (SGG) (SGG) (SGU) (SGG) (SGU) (PIU)
                 (PIU) (PIG) (PIG)
       Virtual   (PIU) (PIU) (SGG) (SGU) (PIU) (PIU) (SGU) (SGG)
                 (PIG) (PIG) (SGU) (SGG) (PIU) (PIU) (SGG) (SGU)
 The electronic state is 1-SGG.
 Alpha  occ. eigenvalues --  -20.56700 -20.56553 -11.43724  -1.52370  -1.47799
 Alpha  occ. eigenvalues --   -0.77616  -0.71297  -0.70351  -0.70351  -0.51928
 Alpha  occ. eigenvalues --   -0.51928
 Alpha virt. eigenvalues --    0.17901   0.17901   0.26977   0.67633   0.85313
 Alpha virt. eigenvalues --    0.85313   1.11990   1.23085   1.72728   1.72728
 Alpha virt. eigenvalues --    1.81516   1.87202   1.93547   1.93547   3.26549
 Alpha virt. eigenvalues --    3.94028
          Condensed to atoms (all electrons):
              1          2          3
     1  C    3.970508   0.474975   0.474975
     2  O    0.474975   8.086500  -0.021704
     3  O    0.474975  -0.021704   8.086500
 Mulliken atomic charges:
              1
     1  C    1.079542
     2  O   -0.539771
     3  O   -0.539771
 Sum of Mulliken atomic charges =  -0.00000
 Mulliken charges with hydrogens summed into heavy atoms:
              1
     1  C    1.079542
     2  O   -0.539771
     3  O   -0.539771
 Sum of Mulliken charges with hydrogens summed into heavy atoms =  -0.00000
 APT atomic charges:
              1
     1  C    0.759652
     2  O   -0.379826
     3  O   -0.379826
 Sum of APT charges=  -0.00000
 APT Atomic charges with hydrogens summed into heavy atoms:
              1
     1  C    0.759652
     2  O   -0.379826
     3  O   -0.379826
 Sum of APT charges=  -0.00000
 Electronic spatial extent (au):  <R**2>=            119.5986
 Charge=             -0.0000 electrons
 Dipole moment (field-independent basis, Debye):
    X=             -0.0000    Y=              0.0000    Z=              0.0000  Tot=              0.0000
 Quadrupole moment (field-independent basis, Debye-Ang):
   XX=            -14.5605   YY=            -14.5605   ZZ=            -21.7142
   XY=              0.0000   XZ=              0.0000   YZ=              0.0000
 Traceless Quadrupole moment (field-independent basis, Debye-Ang):
   XX=              2.3846   YY=              2.3846   ZZ=             -4.7691
   XY=              0.0000   XZ=              0.0000   YZ=              0.0000
 Octapole moment (field-independent basis, Debye-Ang**2):
  XXX=             -0.0000  YYY=              0.0000  ZZZ=             -0.0000  XYY=             -0.0000
  XXY=              0.0000  XXZ=             -0.0000  XZZ=             -0.0000  YZZ=             -0.0000
  YYZ=              0.0000  XYZ=             -0.0000
 Hexadecapole moment (field-independent basis, Debye-Ang**3):
 XXXX=             -9.8832 YYYY=             -9.8832 ZZZZ=           -109.9683 XXXY=              0.0000
 XXXZ=              0.0000 YYYX=              0.0000 YYYZ=              0.0000 ZZZX=              0.0000
 ZZZY=              0.0000 XXYY=             -3.2944 XXZZ=            -18.6945 YYZZ=            -18.6945
 XXYZ=              0.0000 YYXZ=              0.0000 ZZXY=             -0.0000
 N-N= 5.660870567951D+01 E-N=-5.529571892638D+02  KE= 1.856429657092D+02
 Symmetry AG   KE= 1.004861771651D+02
 Symmetry B1G  KE= 0.000000000000D+00
 Symmetry B2G  KE= 4.687035806659D+00
 Symmetry B3G  KE= 4.687035806659D+00
 Symmetry AU   KE= 0.000000000000D+00
 Symmetry B1U  KE= 6.871386152509D+01
 Symmetry B2U  KE= 3.534427702851D+00
 Symmetry B3U  KE= 3.534427702851D+00
  Exact polarizability:   5.352  -0.000   5.352  -0.000   0.000  23.124
 Approx polarizability:   3.739   0.000   3.739  -0.000   0.000  27.213
 Calling FoFJK, ICntrl=    100127 FMM=F ISym2X=1 I1Cent= 0 IOpClX= 0 NMat=1 NMatS=1 NMatT=0.
 Full mass-weighted force constant matrix:
 Low frequencies ---   -6.5347   -6.5347    0.0017    0.0018    0.0018  551.7050
 Low frequencies ---  551.7050 1241.2837 2347.6434
 Harmonic frequencies (cm**-1), IR intensities (KM/Mole), Raman scattering
 activities (A**4/AMU), depolarization ratios for plane and unpolarized
 incident light, reduced masses (AMU), force constants (mDyne/A),
 and normal coordinates:
                           1         2         3         4
                          PIU       PIU       SGG       SGU
       Frequencies ---   551.7050  551.7050 1241.2837 2347.6434
    Reduced masses ---    12.8774   12.8774   15.9949   12.8774
   Force constants ---     2.3094    2.3094   14.5203   41.8159
    IR Intensities ---    15.2209   15.2209    0.0000  265.1904
 Coord Atom Element:
   1     1     6          0.88339   0.00001   0.00000   0.00000
   2     1     6         -0.00001   0.88339  -0.00000   0.00000
   3     1     6         -0.00000  -0.00000   0.00000   0.88339
   1     2     8         -0.33138  -0.00001  -0.00000  -0.00000
   2     2     8          0.00001  -0.33138   0.00000  -0.00000
   3     2     8          0.00000   0.00000   0.70711  -0.33138
   1     3     8         -0.33138  -0.00001  -0.00000  -0.00000
   2     3     8          0.00001  -0.33138   0.00000  -0.00000
   3     3     8          0.00000  -0.00000  -0.70711  -0.33138
 Harmonic frequencies (cm**-1), IR intensities (KM/Mole), Raman scattering
 activities (A**4/AMU), depolarization ratios for plane and unpolarized
 incident light, reduced masses (AMU), force constants (mDyne/A),
 and normal coordinates:
                     1                      2                      3
                    PIU                    PIU                    SGG
 Frequencies --   551.7050               551.7050              1241.2837
 Red. masses --    12.8774                12.8774                15.9949
 Frc consts  --     2.3094                 2.3094                14.5203
 IR Inten    --    15.2209                15.2209                 0.0000
  Atom  AN      X      Y      Z        X      Y      Z        X      Y      Z
     1   6     0.88  -0.00  -0.00     0.00   0.88  -0.00     0.00  -0.00   0.00
     2   8    -0.33   0.00   0.00    -0.00  -0.33   0.00    -0.00   0.00   0.71
     3   8    -0.33   0.00   0.00    -0.00  -0.33  -0.00    -0.00   0.00  -0.71
                     4
                    SGU
 Frequencies --  2347.6434
 Red. masses --    12.8774
 Frc consts  --    41.8159
 IR Inten    --   265.1904
  Atom  AN      X      Y      Z
     1   6     0.00   0.00   0.88
     2   8    -0.00  -0.00  -0.33
     3   8    -0.00  -0.00  -0.33

 -------------------
 - Thermochemistry -
 -------------------
 Temperature   298.150 Kelvin.  Pressure   1.00000 Atm.
 Atom     1 has atomic number  6 and mass  12.00000
 Atom     2 has atomic number  8 and mass  15.99491
 Atom     3 has atomic number  8 and mass  15.99491
 Molecular mass:    43.98983 amu.
 Principal axes and moments of inertia in atomic units:
                           1         2         3
     Eigenvalues --     0.00000 163.55560 163.55560
           X           -0.00000   1.00000   0.00000
           Y            0.00000   0.00000   1.00000
           Z            1.00000   0.00000   0.00000
 This molecule is a prolate symmetric top.
 Rotational symmetry number  2.
 Rotational temperature (Kelvin)      0.52957
 Rotational constant (GHZ):          11.034420
 Zero-point vibrational energy      28066.4 (Joules/Mol)
                                    6.70803 (Kcal/Mol)
 Warning -- explicit consideration of   2 degrees of freedom as
           vibrations may cause significant error
 Vibrational temperatures:    793.78   793.78  1785.93  3377.73
          (Kelvin)
 
 Zero-point correction=                           0.010690 (Hartree/Particle)
 Thermal correction to Energy=                    0.013442
 Thermal correction to Enthalpy=                  0.014386
 Thermal correction to Gibbs Free Energy=        -0.010122
 Sum of electronic and zero-point Energies=           -186.900993
 Sum of electronic and thermal Energies=              -186.898241
 Sum of electronic and thermal Enthalpies=            -186.897297
 Sum of electronic and thermal Free Energies=         -186.921805
 
                     E (Thermal)             CV                S
                      KCal/Mol        Cal/Mol-Kelvin    Cal/Mol-Kelvin
 Total                    8.435              7.422             51.582
 Electronic               0.000              0.000              0.000
 Translational            0.889              2.981             37.270
 Rotational               0.592              1.987             13.195
 Vibrational              6.954              2.454              1.116
 Vibration     1          0.907              1.136              0.541
 Vibration     2          0.907              1.136              0.541
                       Q            Log10(Q)             Ln(Q)
 Total Bot       0.452769D+05          4.655877         10.720553
 Total V=0       0.374018D+10          9.572893         22.042401
 Vib (Bot)       0.140252D-04         -4.853090        -11.174652
 Vib (Bot)    1  0.283984D+00         -0.546706         -1.258836
 Vib (Bot)    2  0.283984D+00         -0.546706         -1.258836
 Vib (V=0)       0.115858D+01          0.063926          0.147196
 Vib (V=0)    1  0.107502D+01          0.031416          0.072339
 Vib (V=0)    2  0.107502D+01          0.031416          0.072339
 Electronic      0.100000D+01          0.000000          0.000000
 Translational   0.114679D+08          7.059484         16.255062
 Rotational      0.281503D+03          2.449483          5.640143
 ***** Axes restored to original set *****
 -------------------------------------------------------------------
 Center     Atomic                   Forces (Hartrees/Bohr)
 Number     Number              X              Y              Z
 -------------------------------------------------------------------
      1        6           0.000000000    0.000000000   -0.000000000
      2        8           0.000000000    0.000000000    0.000058482
      3        8          -0.000000000   -0.000000000   -0.000058482
 -------------------------------------------------------------------
 Cartesian Forces:  Max     0.000058482 RMS     0.000027569

 GradGradGradGradGradGradGradGradGradGradGradGradGradGradGradGradGradGrad
 Berny optimization.
 Internal  Forces:  Max     0.000058482 RMS     0.000041353
 Search for a local minimum.
 Step number   1 out of a maximum of    2
 All quantities printed in internal units (Hartrees-Bohrs-Radians)
 Second derivative matrix not updated -- analytic derivatives used.
 The second derivative matrix:
                          R1        R2        A1        A2
           R1           0.92135
           R2           0.01130   0.92135
           A1          -0.00000   0.00000   0.12855
           A2           0.00000  -0.00000   0.00000   0.12855
 ITU=  0
     Eigenvalues ---    0.12855   0.12855   0.91005   0.93264
 Angle between quadratic step and forces=   0.00 degrees.
 Linear search not attempted -- first point.
 Iteration  1 RMS(Cart)=  0.00004434 RMS(Int)=  0.00000000
 Iteration  2 RMS(Cart)=  0.00000000 RMS(Int)=  0.00000000
 ClnCor:  largest displacement from symmetrization is 2.95D-14 for atom     1.
 Variable       Old X    -DE/DX   Delta X   Delta X   Delta X     New X
                                 (Linear)    (Quad)   (Total)
    R1        2.26114   0.00006   0.00000   0.00006   0.00006   2.26120
    R2        2.26114   0.00006   0.00000   0.00006   0.00006   2.26120
    A1        3.14159   0.00000   0.00000   0.00000   0.00000   3.14159
    A2        3.14159  -0.00000   0.00000  -0.00000   0.00000   3.14159
         Item               Value     Threshold  Converged?
 Maximum Force            0.000058     0.000450     YES
 RMS     Force            0.000041     0.000300     YES
 Maximum Displacement     0.000063     0.001800     YES
 RMS     Displacement     0.000044     0.001200     YES
 Predicted change in Energy=-3.667210D-09
 Optimization completed.
    -- Stationary point found.
                           ----------------------------
                           !   Optimized Parameters   !
                           ! (Angstroms and Degrees)  !
 --------------------------                            --------------------------
 ! Name  Definition              Value          Derivative Info.                !
 --------------------------------------------------------------------------------
 ! R1    R(1,2)                  1.1965         -DE/DX =    0.0001              !
 ! R2    R(1,3)                  1.1965         -DE/DX =    0.0001              !
 ! A1    L(2,1,3,-1,-1)        180.0            -DE/DX =    0.0                 !
 ! A2    L(2,1,3,-2,-2)        180.0            -DE/DX =    0.0                 !
 --------------------------------------------------------------------------------
 GradGradGradGradGradGradGradGradGradGradGradGradGradGradGradGradGradGrad

 1\1\GINC-SRU01\Freq\RMP2-FC\3-21G\C1O2\JAMES\10-Jul-2023\0\\#N Geom=Al
 lCheck Guess=TCheck SCRF=Check GenChk RMP2(FC)/3-21G Freq\\Title Card 
 Required\\0,1\C,0.,0.,0.\O,0.,0.,1.1965418019\O,0.,0.,-1.1965418019\\V
 ersion=AM64L-G09RevC.01\State=1-SGG\HF=-186.5545968\MP2=-186.9116828\R
 MSD=3.636e-10\RMSF=2.757e-05\ZeroPoint=0.0106899\Thermal=0.0134419\Dip
 ole=0.,0.,0.\DipoleDeriv=0.3691174,0.,0.,0.,0.3691174,0.,0.,0.,1.54072
 01,-0.1845587,0.,0.,0.,-0.1845587,0.,0.,0.,-0.77036,-0.1845587,0.,0.,0
 .,-0.1845587,0.,0.,0.,-0.77036\Polar=5.3524518,0.,5.3524518,0.,0.,23.1
 244839\PG=D*H [O(C1),C*(O1.O1)]\NImag=0\\0.10051854,0.,0.10051854,0.,0
 .,1.82010557,-0.05025927,0.,0.,0.02511671,0.,-0.05025927,0.,0.,0.02511
 671,0.,0.,-0.91005278,0.,0.,0.92134792,-0.05025927,0.,0.,0.02514256,0.
 ,0.,0.02511671,0.,-0.05025927,0.,0.,0.02514256,0.,0.,0.02511671,0.,0.,
 -0.91005278,0.,0.,-0.01129514,0.,0.,0.92134792\\0.,0.,0.,0.,0.,-0.0000
 5848,0.,0.,0.00005848\\\@


 STEINBACH'S GUIDELINES FOR SYSTEMS PROGRAMMING:
 NEVER TEST FOR AN ERROR CONDITION YOU DON'T KNOW HOW
 TO HANDLE.
 Job cpu time:  0 days  0 hours  0 minutes  1.3 seconds.
 File lengths (MBytes):  RWF=     21 Int=      0 D2E=      0 Chk=      2 Scr=      1
 Normal termination of Gaussian 09 at Mon Jul 10 15:40:04 2023.
