 Entering Gaussian System, Link 0=g16
 Input=GaCl3.com
 Output=GaCl3.log
 Initial command:
 /opt/g16/g16/l1.exe "/home/pnatt/scratch/Gau-1570873.inp" -scrdir="/home/pnatt/scratch/"
 Entering Link 1 = /opt/g16/g16/l1.exe PID=   1570877.
  
 Copyright (c) 1988-2019, Gaussian, Inc.  All Rights Reserved.
  
 This is part of the Gaussian(R) 16 program.  It is based on
 the Gaussian(R) 09 system (copyright 2009, Gaussian, Inc.),
 the Gaussian(R) 03 system (copyright 2003, Gaussian, Inc.),
 the Gaussian(R) 98 system (copyright 1998, Gaussian, Inc.),
 the Gaussian(R) 94 system (copyright 1995, Gaussian, Inc.),
 the Gaussian 92(TM) system (copyright 1992, Gaussian, Inc.),
 the Gaussian 90(TM) system (copyright 1990, Gaussian, Inc.),
 the Gaussian 88(TM) system (copyright 1988, Gaussian, Inc.),
 the Gaussian 86(TM) system (copyright 1986, Carnegie Mellon
 University), and the Gaussian 82(TM) system (copyright 1983,
 Carnegie Mellon University). Gaussian is a federally registered
 trademark of Gaussian, Inc.
  
 This software contains proprietary and confidential information,
 including trade secrets, belonging to Gaussian, Inc.
  
 This software is provided under written license and may be
 used, copied, transmitted, or stored only in accord with that
 written license.
  
 The following legend is applicable only to US Government
 contracts under FAR:
  
                    RESTRICTED RIGHTS LEGEND
  
 Use, reproduction and disclosure by the US Government is
 subject to restrictions as set forth in subparagraphs (a)
 and (c) of the Commercial Computer Software - Restricted
 Rights clause in FAR 52.227-19.
  
 Gaussian, Inc.
 340 Quinnipiac St., Bldg. 40, Wallingford CT 06492
  
  
 ---------------------------------------------------------------
 Warning -- This program may not be used in any manner that
 competes with the business of Gaussian, Inc. or will provide
 assistance to any competitor of Gaussian, Inc.  The licensee
 of this program is prohibited from giving any competitor of
 Gaussian, Inc. access to this program.  By using this program,
 the user acknowledges that Gaussian, Inc. is engaged in the
 business of creating and licensing software in the field of
 computational chemistry and represents and warrants to the
 licensee that it is not a competitor of Gaussian, Inc. and that
 it will not use this program in any manner prohibited above.
 ---------------------------------------------------------------
  

 Cite this work as:
 Gaussian 16, Revision C.01,
 M. J. Frisch, G. W. Trucks, H. B. Schlegel, G. E. Scuseria, 
 M. A. Robb, J. R. Cheeseman, G. Scalmani, V. Barone, 
 G. A. Petersson, H. Nakatsuji, X. Li, M. Caricato, A. V. Marenich, 
 J. Bloino, B. G. Janesko, R. Gomperts, B. Mennucci, H. P. Hratchian, 
 J. V. Ortiz, A. F. Izmaylov, J. L. Sonnenberg, D. Williams-Young, 
 F. Ding, F. Lipparini, F. Egidi, J. Goings, B. Peng, A. Petrone, 
 T. Henderson, D. Ranasinghe, V. G. Zakrzewski, J. Gao, N. Rega, 
 G. Zheng, W. Liang, M. Hada, M. Ehara, K. Toyota, R. Fukuda, 
 J. Hasegawa, M. Ishida, T. Nakajima, Y. Honda, O. Kitao, H. Nakai, 
 T. Vreven, K. Throssell, J. A. Montgomery, Jr., J. E. Peralta, 
 F. Ogliaro, M. J. Bearpark, J. J. Heyd, E. N. Brothers, K. N. Kudin, 
 V. N. Staroverov, T. A. Keith, R. Kobayashi, J. Normand, 
 K. Raghavachari, A. P. Rendell, J. C. Burant, S. S. Iyengar, 
 J. Tomasi, M. Cossi, J. M. Millam, M. Klene, C. Adamo, R. Cammi, 
 J. W. Ochterski, R. L. Martin, K. Morokuma, O. Farkas, 
 J. B. Foresman, and D. J. Fox, Gaussian, Inc., Wallingford CT, 2019.
 
 ******************************************
 Gaussian 16:  ES64L-G16RevC.01  3-Jul-2019
                10-Aug-2026 
 ******************************************
 %chk=GaCl3.chk
 --------------------------------------------------------------
 # opt=tight scf=tight freq=hpmodes mp2/3-21g geom=connectivity
 --------------------------------------------------------------
 1/7=10,18=20,19=15,38=1,57=2/1,3;
 2/9=110,12=2,17=6,18=5,40=1/2;
 3/5=5,11=9,25=1,30=1,71=1/1,2,3;
 4//1;
 5/5=2,32=2,38=5/2;
 8/6=4,10=1/1;
 9/15=2,16=-3/6;
 10/5=1/2;
 6/7=2,8=2,9=2,10=2/1;
 7/12=2/1,2,3,16;
 1/7=10,18=20,19=15/3(2);
 2/9=110/2;
 99//99;
 2/9=110/2;
 3/5=5,11=9,25=1,30=1,71=1/1,2,3;
 4/5=5,16=3,69=1/1;
 5/5=2,32=2,38=5/2;
 8/6=4,10=1/1;
 9/15=2,16=-3/6;
 10/5=1/2;
 7/12=2/1,2,3,16;
 1/7=10,18=20,19=15/3(-8);
 2/9=110/2;
 6/7=2,8=2,9=2,10=2/1;
 99/9=10/99;
 -------------------
 Title Card Required
 -------------------
 Symbolic Z-matrix:
 Charge =  0 Multiplicity = 1
 Ga                    0.        0.        0. 
 Cl                    0.        2.20733   0. 
 Cl                   -1.9116   -1.10367   0. 
 Cl                    1.9116   -1.10367   0. 
 

 GradGradGradGradGradGradGradGradGradGradGradGradGradGradGradGradGradGrad
 Berny optimization.
 Initialization pass.
                           ----------------------------
                           !    Initial Parameters    !
                           ! (Angstroms and Degrees)  !
 --------------------------                            --------------------------
 ! Name  Definition              Value          Derivative Info.                !
 --------------------------------------------------------------------------------
 ! R1    R(1,2)                  2.2073         estimate D2E/DX2                !
 ! R2    R(1,3)                  2.2073         estimate D2E/DX2                !
 ! R3    R(1,4)                  2.2073         estimate D2E/DX2                !
 ! A1    A(2,1,3)              120.0            estimate D2E/DX2                !
 ! A2    A(2,1,4)              120.0            estimate D2E/DX2                !
 ! A3    A(3,1,4)              120.0            estimate D2E/DX2                !
 ! D1    D(2,1,4,3)            180.0            estimate D2E/DX2                !
 --------------------------------------------------------------------------------
 Trust Radius=3.00D-01 FncErr=1.00D-07 GrdErr=1.00D-07 EigMax=2.50D+02 EigMin=1.00D-04
 Number of steps in this run=     20 maximum allowed number of steps=    100.
 GradGradGradGradGradGradGradGradGradGradGradGradGradGradGradGradGradGrad

                          Input orientation:                          
 ---------------------------------------------------------------------
 Center     Atomic      Atomic             Coordinates (Angstroms)
 Number     Number       Type             X           Y           Z
 ---------------------------------------------------------------------
      1         31           0        0.000000    0.000000    0.000000
      2         17           0        0.000000    2.207329    0.000000
      3         17           0       -1.911603   -1.103665    0.000000
      4         17           0        1.911603   -1.103665    0.000000
 ---------------------------------------------------------------------
                    Distance matrix (angstroms):
                    1          2          3          4
     1  Ga   0.000000
     2  Cl   2.207329   0.000000
     3  Cl   2.207329   3.823206   0.000000
     4  Cl   2.207329   3.823206   3.823206   0.000000
 Stoichiometry    Cl3Ga
 Framework group  D3H[O(Ga),3C2(Cl)]
 Deg. of freedom     1
 Full point group                 D3H     NOp  12
 Largest Abelian subgroup         C2V     NOp   4
 Largest concise Abelian subgroup C2      NOp   2
                         Standard orientation:                         
 ---------------------------------------------------------------------
 Center     Atomic      Atomic             Coordinates (Angstroms)
 Number     Number       Type             X           Y           Z
 ---------------------------------------------------------------------
      1         31           0       -0.000000    0.000000   -0.000000
      2         17           0       -0.000000    2.207329    0.000000
      3         17           0        1.911603   -1.103665    0.000000
      4         17           0       -1.911603   -1.103665    0.000000
 ---------------------------------------------------------------------
 Rotational constants (GHZ):           1.9774720           1.9774720           0.9887360
 Standard basis: 3-21G (6D, 7F)
 There are    29 symmetry adapted cartesian basis functions of A1  symmetry.
 There are     4 symmetry adapted cartesian basis functions of A2  symmetry.
 There are    18 symmetry adapted cartesian basis functions of B1  symmetry.
 There are    11 symmetry adapted cartesian basis functions of B2  symmetry.
 There are    29 symmetry adapted basis functions of A1  symmetry.
 There are     4 symmetry adapted basis functions of A2  symmetry.
 There are    18 symmetry adapted basis functions of B1  symmetry.
 There are    11 symmetry adapted basis functions of B2  symmetry.
    62 basis functions,   138 primitive gaussians,    62 cartesian basis functions
    41 alpha electrons       41 beta electrons
       nuclear repulsion energy       499.0263942047 Hartrees.
 NAtoms=    4 NActive=    4 NUniq=    2 SFac= 4.00D+00 NAtFMM=   60 NAOKFM=F Big=F
 Integral buffers will be    131072 words long.
 Raffenetti 1 integral format.
 Two-electron integral symmetry is turned on.
 One-electron integrals computed using PRISM.
 NBasis=    62 RedAO= T EigKep=  1.98D-02  NBF=    29     4    18    11
 NBsUse=    62 1.00D-06 EigRej= -1.00D+00 NBFU=    29     4    18    11
 ExpMin= 5.72D-02 ExpMax= 4.75D+03 ExpMxC= 4.75D+03 IAcc=3 IRadAn=         5 AccDes= 0.00D+00
 Harris functional with IExCor=  205 and IRadAn=       5 diagonalized for initial guess.
 HarFok:  IExCor=  205 AccDes= 0.00D+00 IRadAn=         5 IDoV= 1 UseB2=F ITyADJ=14
 ICtDFT=  3500011 ScaDFX=  1.000000  1.000000  1.000000  1.000000
 FoFCou: FMM=F IPFlag=           0 FMFlag=      100000 FMFlg1=           0
         NFxFlg=           0 DoJE=T BraDBF=F KetDBF=T FulRan=T
         wScrn=  0.000000 ICntrl=       500 IOpCl=  0 I1Cent=   200000004 NGrid=           0
         NMat0=    1 NMatS0=      1 NMatT0=    0 NMatD0=    1 NMtDS0=    0 NMtDT0=    0
 Petite list used in FoFCou.
 Initial guess orbital symmetries:
       Occupied  (A1') (A1') (E') (E') (A1') (E') (E') (A2") (A1')
                 (E') (E') (E') (E') (A1') (A2") (E') (E') (A2')
                 (E") (E") (A1') (E') (E') (A2") (A1') (E') (E')
                 (E') (E') (A1') (E") (E") (A1') (E') (E') (A2")
                 (E') (E') (E") (E") (A2')
       Virtual   (A1') (A2") (E') (E') (A1') (A2") (E') (E') (E')
                 (E') (A1') (E") (E") (A2') (E') (E') (A2") (A1')
                 (E') (E') (A1')
 The electronic state of the initial guess is 1-A1'.
 Keep R1 ints in memory in symmetry-blocked form, NReq=2748172.
 Requested convergence on RMS density matrix=1.00D-08 within 128 cycles.
 Requested convergence on MAX density matrix=1.00D-06.
 Requested convergence on             energy=1.00D-06.
 No special actions if energy rises.
 SCF Done:  E(RHF) =  -3285.94944343     A.U. after    9 cycles
            NFock=  9  Conv=0.78D-08     -V/T= 2.0001
 ExpMin= 5.72D-02 ExpMax= 4.75D+03 ExpMxC= 4.75D+03 IAcc=3 IRadAn=         5 AccDes= 0.00D+00
 HarFok:  IExCor=  205 AccDes= 0.00D+00 IRadAn=         5 IDoV=-2 UseB2=F ITyADJ=14
 ICtDFT= 12500011 ScaDFX=  1.000000  1.000000  1.000000  1.000000
 GSVD:  LWork=        -768 too small for GESVD, short by        3240 words or        3240 for optimal perf.
 Range of M.O.s used for correlation:    25    62
 NBasis=    62 NAE=    41 NBE=    41 NFC=    24 NFV=     0
 NROrb=     38 NOA=    17 NOB=    17 NVA=    21 NVB=    21
 Fully direct method using O(ONN) memory.
 JobTyp=1 Pass  1:  I=  25 to  41 NPSUse=  1 ParTrn=F ParDer=F DoDerP=T.
 Spin components of T(2) and E(2):
     alpha-alpha T2 =       0.9815927071D-02 E2=     -0.2075698096D-01
     alpha-beta  T2 =       0.5877959962D-01 E2=     -0.1267491605D+00
     beta-beta   T2 =       0.9815927071D-02 E2=     -0.2075698096D-01
 ANorm=    0.1038465914D+01
 E2 =    -0.1682631224D+00 EUMP2 =    -0.32861177065523D+04
          IDoAtm=1111
          Differentiating once with respect to electric field.
                with respect to dipole field.
          Differentiating once with respect to nuclear coordinates.
 Keep R1 ints in memory in symmetry-blocked form, NReq=2748918.
          There are     1 degrees of freedom in the 1st order CPHF.  IDoFFX=0 NUNeed=     1.
 LinEq1:  Iter=  0 NonCon=     1 RMS=6.08D-03 Max=1.20D-01 NDo=     1
 AX will form     1 AO Fock derivatives at one time.
 LinEq1:  Iter=  1 NonCon=     1 RMS=1.48D-03 Max=1.65D-02 NDo=     1
 LinEq1:  Iter=  2 NonCon=     1 RMS=2.93D-04 Max=2.92D-03 NDo=     1
 LinEq1:  Iter=  3 NonCon=     1 RMS=5.38D-05 Max=7.15D-04 NDo=     1
 LinEq1:  Iter=  4 NonCon=     1 RMS=5.41D-06 Max=7.14D-05 NDo=     1
 LinEq1:  Iter=  5 NonCon=     1 RMS=4.61D-07 Max=4.28D-06 NDo=     1
 LinEq1:  Iter=  6 NonCon=     1 RMS=3.55D-08 Max=2.56D-07 NDo=     1
 LinEq1:  Iter=  7 NonCon=     1 RMS=4.49D-09 Max=4.35D-08 NDo=     1
 LinEq1:  Iter=  8 NonCon=     1 RMS=3.30D-10 Max=3.12D-09 NDo=     1
 LinEq1:  Iter=  9 NonCon=     0 RMS=2.47D-11 Max=2.19D-10 NDo=     1
 Linear equations converged to 1.000D-10 1.000D-09 after     9 iterations.
 End of Minotr F.D. properties file   721 does not exist.
 End of Minotr F.D. properties file   722 does not exist.
 End of Minotr F.D. properties file   788 does not exist.

 **********************************************************************

            Population analysis using the SCF Density.

 **********************************************************************

 Orbital symmetries:
       Occupied  (A1') (A1') (E') (E') (A1') (A2") (E') (E') (A1')
                 (E') (E') (E') (E') (A1') (A2") (E") (E") (E')
                 (E') (A2') (A1') (A2") (E') (E') (A1') (E') (E')
                 (E") (E") (A1') (E') (E') (A1') (E') (E') (A2")
                 (E") (E") (E') (E') (A2')
       Virtual   (A1') (A2") (E') (E') (A1') (A2") (E') (E') (E')
                 (E') (A1') (E") (E") (A2') (E') (E') (A2") (A1')
                 (E') (E') (A1')
 The electronic state is 1-A1'.
 Alpha  occ. eigenvalues -- -376.61045-104.13602-104.13602-104.13602 -48.13640
 Alpha  occ. eigenvalues --  -42.39303 -42.39158 -42.39158 -10.52763 -10.52762
 Alpha  occ. eigenvalues --  -10.52762  -7.99051  -7.99051  -7.99043  -7.98748
 Alpha  occ. eigenvalues --   -7.98723  -7.98723  -7.98714  -7.98714  -7.98707
 Alpha  occ. eigenvalues --   -6.50838  -4.58595  -4.58444  -4.58444  -1.26923
 Alpha  occ. eigenvalues --   -1.26824  -1.26824  -1.26593  -1.26593  -1.12259
 Alpha  occ. eigenvalues --   -1.10300  -1.10300  -0.63212  -0.54081  -0.54081
 Alpha  occ. eigenvalues --   -0.51646  -0.49178  -0.49178  -0.48813  -0.48813
 Alpha  occ. eigenvalues --   -0.48332
 Alpha virt. eigenvalues --   -0.00163   0.01848   0.13979   0.13979   0.19534
 Alpha virt. eigenvalues --    0.24468   0.30547   0.30547   0.72417   0.72417
 Alpha virt. eigenvalues --    0.75908   0.77446   0.77446   0.83994   0.86861
 Alpha virt. eigenvalues --    0.86861   0.88024   0.95142   0.99703   0.99703
 Alpha virt. eigenvalues --    5.67787
          Condensed to atoms (all electrons):
               1          2          3          4
     1  Ga  28.966075   0.253063   0.253063   0.253063
     2  Cl   0.253063  17.202088  -0.015119  -0.015119
     3  Cl   0.253063  -0.015119  17.202088  -0.015119
     4  Cl   0.253063  -0.015119  -0.015119  17.202088
 Mulliken charges:
               1
     1  Ga   1.274735
     2  Cl  -0.424912
     3  Cl  -0.424912
     4  Cl  -0.424912
 Sum of Mulliken charges =  -0.00000
 Mulliken charges with hydrogens summed into heavy atoms:
               1
     1  Ga   1.274735
     2  Cl  -0.424912
     3  Cl  -0.424912
     4  Cl  -0.424912
 Electronic spatial extent (au):  <R**2>=           1023.4977
 Charge=             -0.0000 electrons
 Dipole moment (field-independent basis, Debye):
    X=              0.0000    Y=              0.0000    Z=             -0.0000  Tot=              0.0000
 Quadrupole moment (field-independent basis, Debye-Ang):
   XX=            -65.7479   YY=            -65.7479   ZZ=            -51.6078
   XY=              0.0000   XZ=              0.0000   YZ=             -0.0000
 Traceless Quadrupole moment (field-independent basis, Debye-Ang):
   XX=             -4.7134   YY=             -4.7134   ZZ=              9.4268
   XY=              0.0000   XZ=              0.0000   YZ=             -0.0000
 Octapole moment (field-independent basis, Debye-Ang**2):
  XXX=              0.0000  YYY=            -10.6745  ZZZ=             -0.0000  XYY=             -0.0000
  XXY=             10.6745  XXZ=             -0.0000  XZZ=              0.0000  YZZ=              0.0000
  YYZ=             -0.0000  XYZ=             -0.0000
 Hexadecapole moment (field-independent basis, Debye-Ang**3):
 XXXX=           -680.6586 YYYY=           -680.6586 ZZZZ=            -56.7896 XXXY=              0.0000
 XXXZ=              0.0000 YYYX=              0.0000 YYYZ=             -0.0000 ZZZX=              0.0000
 ZZZY=             -0.0000 XXYY=           -226.8862 XXZZ=           -120.0096 YYZZ=           -120.0096
 XXYZ=              0.0000 YYXZ=              0.0000 ZZXY=              0.0000
 N-N= 4.990263942047D+02 E-N=-8.850617149419D+03  KE= 3.285488208573D+03
 Symmetry A1   KE= 2.186082296909D+03
 Symmetry A2   KE= 7.116074820287D+01
 Symmetry B1   KE= 6.981667347469D+02
 Symmetry B2   KE= 3.300784287142D+02
 Calling FoFJK, ICntrl=  10002127 FMM=F ISym2X=1 I1Cent= 0 IOpClX= 0 NMat=1 NMatS=1 NMatT=0.
 ***** Axes restored to original set *****
 -------------------------------------------------------------------
 Center     Atomic                   Forces (Hartrees/Bohr)
 Number     Number              X              Y              Z
 -------------------------------------------------------------------
      1       31           0.000000000   -0.000000000    0.000000000
      2       17          -0.000000000   -0.000000564    0.000000000
      3       17           0.000000488    0.000000282   -0.000000000
      4       17          -0.000000488    0.000000282    0.000000000
 -------------------------------------------------------------------
 Cartesian Forces:  Max     0.000000564 RMS     0.000000282

 GradGradGradGradGradGradGradGradGradGradGradGradGradGradGradGradGradGrad
 Berny optimization.
 FormGI is forming the generalized inverse of G from B-inverse, IUseBI=4.
 Internal  Forces:  Max     0.000000564 RMS     0.000000369
 Search for a local minimum.
 Step number   1 out of a maximum of   20
 All quantities printed in internal units (Hartrees-Bohrs-Radians)
 Mixed Optimization -- En-DIIS/RFO-DIIS
 Second derivative matrix not updated -- first step.
 The second derivative matrix:
                          R1        R2        R3        A1        A2
           R1           0.13405
           R2           0.00000   0.13405
           R3           0.00000   0.00000   0.13405
           A1           0.00000   0.00000   0.00000   0.25000
           A2           0.00000   0.00000   0.00000   0.00000   0.25000
           A3           0.00000   0.00000   0.00000   0.00000   0.00000
           D1           0.00000   0.00000   0.00000   0.00000   0.00000
                          A3        D1
           A3           0.25000
           D1           0.00000   0.02657
 ITU=  0
     Eigenvalues ---    0.02657   0.13405   0.13405   0.13405   0.25000
     Eigenvalues ---    0.25000
 RFO step:  Lambda= 0.00000000D+00 EMin= 2.65697520D-02
 Linear search not attempted -- first point.
 Iteration  1 RMS(Cart)=  0.00000275 RMS(Int)=  0.00000000
 Iteration  2 RMS(Cart)=  0.00000000 RMS(Int)=  0.00000000
 ClnCor:  largest displacement from symmetrization is 1.83D-12 for atom     3.
 Variable       Old X    -DE/DX   Delta X   Delta X   Delta X     New X
                                 (Linear)    (Quad)   (Total)
    R1        4.17125  -0.00000   0.00000  -0.00000  -0.00000   4.17124
    R2        4.17125  -0.00000   0.00000  -0.00000  -0.00000   4.17124
    R3        4.17125  -0.00000   0.00000  -0.00000  -0.00000   4.17124
    A1        2.09440   0.00000   0.00000   0.00000   0.00000   2.09440
    A2        2.09440   0.00000   0.00000   0.00000   0.00000   2.09440
    A3        2.09440  -0.00000   0.00000  -0.00000   0.00000   2.09440
    D1        3.14159   0.00000   0.00000   0.00000   0.00000   3.14159
         Item               Value     Threshold  Converged?
 Maximum Force            0.000001     0.000015     YES
 RMS     Force            0.000000     0.000010     YES
 Maximum Displacement     0.000004     0.000060     YES
 RMS     Displacement     0.000003     0.000040     YES
 Predicted change in Energy=-3.558311D-12
 Optimization completed.
    -- Stationary point found.
                           ----------------------------
                           !   Optimized Parameters   !
                           ! (Angstroms and Degrees)  !
 --------------------------                            --------------------------
 ! Name  Definition              Value          Derivative Info.                !
 --------------------------------------------------------------------------------
 ! R1    R(1,2)                  2.2073         -DE/DX =    0.0                 !
 ! R2    R(1,3)                  2.2073         -DE/DX =    0.0                 !
 ! R3    R(1,4)                  2.2073         -DE/DX =    0.0                 !
 ! A1    A(2,1,3)              120.0            -DE/DX =    0.0                 !
 ! A2    A(2,1,4)              120.0            -DE/DX =    0.0                 !
 ! A3    A(3,1,4)              120.0            -DE/DX =    0.0                 !
 ! D1    D(2,1,4,3)            180.0            -DE/DX =    0.0                 !
 --------------------------------------------------------------------------------
 GradGradGradGradGradGradGradGradGradGradGradGradGradGradGradGradGradGrad

                          Input orientation:                          
 ---------------------------------------------------------------------
 Center     Atomic      Atomic             Coordinates (Angstroms)
 Number     Number       Type             X           Y           Z
 ---------------------------------------------------------------------
      1         31           0        0.000000   -0.000000    0.000000
      2         17           0       -0.000000    2.207329   -0.000000
      3         17           0       -1.911603   -1.103665   -0.000000
      4         17           0        1.911603   -1.103665    0.000000
 ---------------------------------------------------------------------
                    Distance matrix (angstroms):
                    1          2          3          4
     1  Ga   0.000000
     2  Cl   2.207329   0.000000
     3  Cl   2.207329   3.823206   0.000000
     4  Cl   2.207329   3.823206   3.823206   0.000000
 Stoichiometry    Cl3Ga
 Framework group  D3H[O(Ga),3C2(Cl)]
 Deg. of freedom     1
 Full point group                 D3H     NOp  12
 Largest Abelian subgroup         C2V     NOp   4
 Largest concise Abelian subgroup C2      NOp   2
                         Standard orientation:                         
 ---------------------------------------------------------------------
 Center     Atomic      Atomic             Coordinates (Angstroms)
 Number     Number       Type             X           Y           Z
 ---------------------------------------------------------------------
      1         31           0        0.000000    0.000000    0.000000
      2         17           0       -0.000000    2.207329    0.000000
      3         17           0        1.911603   -1.103665   -0.000000
      4         17           0       -1.911603   -1.103665   -0.000000
 ---------------------------------------------------------------------
 Rotational constants (GHZ):           1.9774720           1.9774720           0.9887360
 Unable to Open any file for archive entry.
 1\1\GINC-BS001\FOpt\RMP2-FC\3-21G\Cl3Ga1\PNATT\10-Aug-2026\0\\# opt=ti
 ght scf=tight freq=hpmodes mp2/3-21g geom=connectivity\\Title Card Req
 uired\\0,1\Ga,0.,-0.0000002073,0.\Cl,-0.0000000797,2.207329,0.\Cl,-1.9
 116031282,-1.10366488,0.\Cl,1.9116032079,-1.103664742,0.\\Version=ES64
 L-G16RevC.01\State=1-A1'\HF=-3285.9494434\MP2=-3286.1177066\RMSD=7.830
 e-09\RMSF=2.820e-07\Dipole=0.,0.,0.\PG=D03H [O(Ga1),3C2(Cl1)]\\@
 The archive entry for this job was punched.


 THE NUMBERS ARE MEANINGLESS, BUT THE TRENDS ARE IMPORTANT.
     -- LARRY BURGGRAF
 Job cpu time:       0 days  0 hours  0 minutes  3.0 seconds.
 Elapsed time:       0 days  0 hours  0 minutes  2.9 seconds.
 File lengths (MBytes):  RWF=      6 Int=      0 D2E=      0 Chk=      1 Scr=      1
 Normal termination of Gaussian 16 at Mon Aug 10 18:20:32 2026.
 Link1:  Proceeding to internal job step number  2.
 -------------------------------------------------------------------
 #N Geom=AllCheck Guess=TCheck SCRF=Check GenChk RMP2(FC)/3-21G Freq
 -------------------------------------------------------------------
 1/7=10,10=4,29=7,30=1,38=1,40=1/1,3;
 2/12=2,40=1/2;
 3/5=5,11=1,14=-4,25=1,30=1,70=2,71=2,116=1,140=1/1,2,3;
 4/5=101/1;
 5/5=2,32=2,38=6,98=1/2;
 8/6=3,8=1,10=1,19=11,30=-1/1;
 9/15=3,16=-3/6;
 11/6=1,8=1,15=11,17=12,24=-1,27=1,28=-2,29=300,32=6,42=3/1,2,10;
 10/6=2,21=1/2;
 8/6=4,8=1,10=1,19=11,30=-1/11,4;
 10/5=1,20=4/2;
 11/12=2,14=11,16=1,17=2,28=-2,42=3,76=2/2,10,12;
 6/7=2,8=2,9=2,10=2/1;
 7/8=11,10=1,12=2,25=1,44=2/1,2,3,16;
 1/7=10,10=4,30=1/3;
 99//99;
 Structure from the checkpoint file:  "GaCl3.chk"
 -------------------
 Title Card Required
 -------------------
 Charge =  0 Multiplicity = 1
 Redundant internal coordinates found in file.  (old form).
 Ga,0,0.,-0.0000002073,0.
 Cl,0,-0.0000000797,2.207329,0.
 Cl,0,-1.9116031282,-1.10366488,0.
 Cl,0,1.9116032079,-1.103664742,0.
 Recover connectivity data from disk.

 GradGradGradGradGradGradGradGradGradGradGradGradGradGradGradGradGradGrad
 Berny optimization.
 Initialization pass.
                           ----------------------------
                           !    Initial Parameters    !
                           ! (Angstroms and Degrees)  !
 --------------------------                            --------------------------
 ! Name  Definition              Value          Derivative Info.                !
 --------------------------------------------------------------------------------
 ! R1    R(1,2)                  2.2073         calculate D2E/DX2 analytically  !
 ! R2    R(1,3)                  2.2073         calculate D2E/DX2 analytically  !
 ! R3    R(1,4)                  2.2073         calculate D2E/DX2 analytically  !
 ! A1    A(2,1,3)              120.0            calculate D2E/DX2 analytically  !
 ! A2    A(2,1,4)              120.0            calculate D2E/DX2 analytically  !
 ! A3    A(3,1,4)              120.0            calculate D2E/DX2 analytically  !
 ! D1    D(2,1,4,3)            180.0            calculate D2E/DX2 analytically  !
 --------------------------------------------------------------------------------
 Trust Radius=3.00D-01 FncErr=1.00D-07 GrdErr=1.00D-07 EigMax=2.50D+02 EigMin=1.00D-04
 Number of steps in this run=      2 maximum allowed number of steps=      2.
 GradGradGradGradGradGradGradGradGradGradGradGradGradGradGradGradGradGrad

                          Input orientation:                          
 ---------------------------------------------------------------------
 Center     Atomic      Atomic             Coordinates (Angstroms)
 Number     Number       Type             X           Y           Z
 ---------------------------------------------------------------------
      1         31           0        0.000000   -0.000000   -0.000000
      2         17           0       -0.000000    2.207329   -0.000000
      3         17           0       -1.911603   -1.103665   -0.000000
      4         17           0        1.911603   -1.103665    0.000000
 ---------------------------------------------------------------------
                    Distance matrix (angstroms):
                    1          2          3          4
     1  Ga   0.000000
     2  Cl   2.207329   0.000000
     3  Cl   2.207329   3.823206   0.000000
     4  Cl   2.207329   3.823206   3.823206   0.000000
 Stoichiometry    Cl3Ga
 Framework group  D3H[O(Ga),3C2(Cl)]
 Deg. of freedom     1
 Full point group                 D3H     NOp  12
 Largest Abelian subgroup         C2V     NOp   4
 Largest concise Abelian subgroup C2      NOp   2
                         Standard orientation:                         
 ---------------------------------------------------------------------
 Center     Atomic      Atomic             Coordinates (Angstroms)
 Number     Number       Type             X           Y           Z
 ---------------------------------------------------------------------
      1         31           0        0.000000    0.000000    0.000000
      2         17           0        0.000000    2.207329    0.000000
      3         17           0        1.911603   -1.103665   -0.000000
      4         17           0       -1.911603   -1.103665    0.000000
 ---------------------------------------------------------------------
 Rotational constants (GHZ):           1.9774720           1.9774720           0.9887360
 Standard basis: 3-21G (6D, 7F)
 There are    29 symmetry adapted cartesian basis functions of A1  symmetry.
 There are     4 symmetry adapted cartesian basis functions of A2  symmetry.
 There are    18 symmetry adapted cartesian basis functions of B1  symmetry.
 There are    11 symmetry adapted cartesian basis functions of B2  symmetry.
 There are    29 symmetry adapted basis functions of A1  symmetry.
 There are     4 symmetry adapted basis functions of A2  symmetry.
 There are    18 symmetry adapted basis functions of B1  symmetry.
 There are    11 symmetry adapted basis functions of B2  symmetry.
    62 basis functions,   138 primitive gaussians,    62 cartesian basis functions
    41 alpha electrons       41 beta electrons
       nuclear repulsion energy       499.0263942047 Hartrees.
 NAtoms=    4 NActive=    4 NUniq=    2 SFac= 4.00D+00 NAtFMM=   60 NAOKFM=F Big=F
 Integral buffers will be    131072 words long.
 Raffenetti 1 integral format.
 Two-electron integral symmetry is turned on.
 One-electron integrals computed using PRISM.
 NBasis=    62 RedAO= T EigKep=  1.98D-02  NBF=    29     4    18    11
 NBsUse=    62 1.00D-06 EigRej= -1.00D+00 NBFU=    29     4    18    11
 Initial guess from the checkpoint file:  "GaCl3.chk"
 B after Tr=    -0.000000   -0.000000   -0.000000
         Rot=    1.000000    0.000000   -0.000000    0.000000 Ang=   0.00 deg.
 Initial guess orbital symmetries:
       Occupied  (A1') (A1') (E') (E') (A1') (A2") (E') (E') (A1')
                 (E') (E') (E') (E') (A1') (A2") (E") (E") (E')
                 (E') (A2') (A1') (A2") (E') (E') (A1') (E') (E')
                 (E") (E") (A1') (E') (E') (A1') (E') (E') (A2")
                 (E") (E") (E') (E') (A2')
       Virtual   (A1') (A2") (E') (E') (A1') (A2") (E') (E') (E')
                 (E') (A1') (E") (E") (A2') (E') (E') (A2") (A1')
                 (E') (E') (A1')
 Keep R1 ints in memory in symmetry-blocked form, NReq=2748172.
 Requested convergence on RMS density matrix=1.00D-08 within 128 cycles.
 Requested convergence on MAX density matrix=1.00D-06.
 Requested convergence on             energy=1.00D-06.
 No special actions if energy rises.
 SCF Done:  E(RHF) =  -3285.94944343     A.U. after    1 cycles
            NFock=  1  Conv=0.69D-09     -V/T= 2.0001
 ExpMin= 5.72D-02 ExpMax= 4.75D+03 ExpMxC= 4.75D+03 IAcc=3 IRadAn=         5 AccDes= 0.00D+00
 HarFok:  IExCor=  205 AccDes= 0.00D+00 IRadAn=         5 IDoV=-2 UseB2=F ITyADJ=14
 ICtDFT= 12500011 ScaDFX=  1.000000  1.000000  1.000000  1.000000
 GSVD:  LWork=        -768 too small for GESVD, short by        3240 words or        3240 for optimal perf.
 Range of M.O.s used for correlation:    25    62
 NBasis=    62 NAE=    41 NBE=    41 NFC=    24 NFV=     0
 NROrb=     38 NOA=    17 NOB=    17 NVA=    21 NVB=    21
 Disk-based method using ON**2 memory for 17 occupieds at a time.
 Permanent disk used for amplitudes=      913521 words.
 Estimated scratch disk usage=     5586302 words.
 Actual    scratch disk usage=     5586302 words.
 JobTyp=1 Pass  1:  I=  25 to  41 NPSUse=  1 ParTrn=F ParDer=F DoDerP=T.
 (rs|ai) integrals will be sorted in core.
 Spin components of T(2) and E(2):
     alpha-alpha T2 =       0.9815927019D-02 E2=     -0.2075698090D-01
     alpha-beta  T2 =       0.5877959951D-01 E2=     -0.1267491604D+00
     beta-beta   T2 =       0.9815927019D-02 E2=     -0.2075698090D-01
 ANorm=    0.1038465914D+01
 E2 =    -0.1682631222D+00 EUMP2 =    -0.32861177065521D+04
 G2DrvN: will do     5 centers at a time, making    1 passes.
 Calling FoFCou, ICntrl=  3107 FMM=F I1Cent=   0 AccDes= 0.00D+00.
 End of G2Drv F.D. properties file   721 does not exist.
 End of G2Drv F.D. properties file   722 does not exist.
 End of G2Drv F.D. properties file   788 does not exist.
          IDoAtm=1111
          Differentiating once with respect to electric field.
                with respect to dipole field.
          Differentiating once with respect to nuclear coordinates.
 Keep R1 ints in memory in symmetry-blocked form, NReq=2748918.
          There are    15 degrees of freedom in the 1st order CPHF.  IDoFFX=6 NUNeed=    15.
     12 vectors produced by pass  0 Test12= 5.74D-15 6.67D-09 XBig12= 1.78D+01 2.19D+00.
 AX will form    12 AO Fock derivatives at one time.
     12 vectors produced by pass  1 Test12= 5.74D-15 6.67D-09 XBig12= 7.38D-01 2.97D-01.
     12 vectors produced by pass  2 Test12= 5.74D-15 6.67D-09 XBig12= 2.73D-02 8.24D-02.
     12 vectors produced by pass  3 Test12= 5.74D-15 6.67D-09 XBig12= 4.32D-04 9.92D-03.
     12 vectors produced by pass  4 Test12= 5.74D-15 6.67D-09 XBig12= 4.02D-06 6.20D-04.
     12 vectors produced by pass  5 Test12= 5.74D-15 6.67D-09 XBig12= 2.79D-08 4.19D-05.
     12 vectors produced by pass  6 Test12= 5.74D-15 6.67D-09 XBig12= 1.38D-10 3.97D-06.
      4 vectors produced by pass  7 Test12= 5.74D-15 6.67D-09 XBig12= 5.54D-13 2.42D-07.
      2 vectors produced by pass  8 Test12= 5.74D-15 6.67D-09 XBig12= 2.20D-15 1.13D-08.
 InvSVY:  IOpt=1 It=  1 EMax= 3.33D-16
 Solved reduced A of dimension    90 with    12 vectors.
 End of Minotr F.D. properties file   721 does not exist.
 End of Minotr F.D. properties file   722 does not exist.
 End of Minotr F.D. properties file   788 does not exist.
 MDV=   104857600.
 Form MO integral derivatives with frozen-active canonical formalism.
 Discarding MO integrals.
 Reordered first order wavefunction length =      1482642
 In DefCFB: NBatch=  1 ICI= 41 ICA= 21 LFMax= 21
            Large arrays: LIAPS=    13238736 LIARS=     8594502 words.
 Semi-Direct transformation.
 ModeAB=           4 MOrb=            41 LenV=     104634939
 LASXX=      2136961 LTotXX=     2136961 LenRXX=     4758706
 LTotAB=     2621745 MaxLAS=     3337646 LenRXY=           0
 NonZer=     6895667 LenScr=    11082240 LnRSAI=     3337646
 LnScr1=     5718016 LExtra=           0 Total=     24896608
 MaxDsk=          -1 SrtSym=           T ITran=            4
 JobTyp=0 Pass  1:  I=   1 to  41.
 (rs|ai) integrals will be sorted in core.
 Spin components of T(2) and E(2):
     alpha-alpha T2 =       0.9815927019D-02 E2=     -0.2075698090D-01
     alpha-beta  T2 =       0.5877959951D-01 E2=     -0.1267491604D+00
     beta-beta   T2 =       0.9815927019D-02 E2=     -0.2075698090D-01
 ANorm=    0.1468612579D+01
 E2 =    -0.1682631222D+00 EUMP2 =    -0.32861177065521D+04
          IDoAtm=1111
          Differentiating once with respect to electric field.
                with respect to dipole field.
          Differentiating once with respect to nuclear coordinates.
          There are     1 degrees of freedom in the 1st order CPHF.  IDoFFX=0 NUNeed=     1.
 LinEq1:  Iter=  0 NonCon=     1 RMS=6.08D-03 Max=1.20D-01 NDo=     1
 LinEq1:  Iter=  1 NonCon=     1 RMS=1.48D-03 Max=1.65D-02 NDo=     1
 LinEq1:  Iter=  2 NonCon=     1 RMS=2.93D-04 Max=2.92D-03 NDo=     1
 LinEq1:  Iter=  3 NonCon=     1 RMS=5.38D-05 Max=7.15D-04 NDo=     1
 LinEq1:  Iter=  4 NonCon=     1 RMS=5.41D-06 Max=7.14D-05 NDo=     1
 LinEq1:  Iter=  5 NonCon=     1 RMS=4.61D-07 Max=4.28D-06 NDo=     1
 LinEq1:  Iter=  6 NonCon=     1 RMS=3.55D-08 Max=2.56D-07 NDo=     1
 LinEq1:  Iter=  7 NonCon=     1 RMS=4.49D-09 Max=4.35D-08 NDo=     1
 LinEq1:  Iter=  8 NonCon=     1 RMS=3.30D-10 Max=3.12D-09 NDo=     1
 LinEq1:  Iter=  9 NonCon=     0 RMS=2.47D-11 Max=2.19D-10 NDo=     1
 Linear equations converged to 1.000D-10 1.000D-09 after     9 iterations.
 End of Minotr F.D. properties file   721 does not exist.
 End of Minotr F.D. properties file   722 does not exist.
 End of Minotr F.D. properties file   788 does not exist.
 Symmetrizing basis deriv contribution to polar:
 IMax=3 JMax=2 DiffMx= 0.00D+00
 G2DrvN: will do     5 centers at a time, making    1 passes.
 Calling FoFCou, ICntrl=  3107 FMM=F I1Cent=   0 AccDes= 0.00D+00.
 End of G2Drv F.D. properties file   721 does not exist.
 End of G2Drv F.D. properties file   722 does not exist.
 End of G2Drv F.D. properties file   788 does not exist.
 R2 and R3 integrals will be kept in memory, NReq=     4636162.
 DD1Dir will call FoFMem   1 times, MxPair=      1722
 NAB=   861 NAA=     0 NBB=     0.
 Discarding MO integrals.

 **********************************************************************

            Population analysis using the SCF Density.

 **********************************************************************

 Orbital symmetries:
       Occupied  (A1') (A1') (E') (E') (A1') (A2") (E') (E') (A1')
                 (E') (E') (E') (E') (A1') (A2") (E") (E") (E')
                 (E') (A2') (A1') (A2") (E') (E') (A1') (E') (E')
                 (E") (E") (A1') (E') (E') (A1') (E') (E') (A2")
                 (E") (E") (E') (E') (A2')
       Virtual   (A1') (A2") (E') (E') (A1') (A2") (E') (E') (E')
                 (E') (A1') (E") (E") (A2') (E') (E') (A2") (A1')
                 (E') (E') (A1')
 The electronic state is 1-A1'.
 Alpha  occ. eigenvalues -- -376.61045-104.13602-104.13602-104.13602 -48.13640
 Alpha  occ. eigenvalues --  -42.39303 -42.39158 -42.39158 -10.52763 -10.52762
 Alpha  occ. eigenvalues --  -10.52762  -7.99051  -7.99051  -7.99043  -7.98748
 Alpha  occ. eigenvalues --   -7.98723  -7.98723  -7.98714  -7.98714  -7.98707
 Alpha  occ. eigenvalues --   -6.50838  -4.58595  -4.58444  -4.58444  -1.26923
 Alpha  occ. eigenvalues --   -1.26824  -1.26824  -1.26593  -1.26593  -1.12259
 Alpha  occ. eigenvalues --   -1.10300  -1.10300  -0.63212  -0.54081  -0.54081
 Alpha  occ. eigenvalues --   -0.51646  -0.49178  -0.49178  -0.48813  -0.48813
 Alpha  occ. eigenvalues --   -0.48332
 Alpha virt. eigenvalues --   -0.00163   0.01848   0.13979   0.13979   0.19534
 Alpha virt. eigenvalues --    0.24468   0.30547   0.30547   0.72417   0.72417
 Alpha virt. eigenvalues --    0.75908   0.77446   0.77446   0.83994   0.86861
 Alpha virt. eigenvalues --    0.86861   0.88024   0.95142   0.99703   0.99703
 Alpha virt. eigenvalues --    5.67787
          Condensed to atoms (all electrons):
               1          2          3          4
     1  Ga  28.966075   0.253063   0.253063   0.253063
     2  Cl   0.253063  17.202088  -0.015119  -0.015119
     3  Cl   0.253063  -0.015119  17.202088  -0.015119
     4  Cl   0.253063  -0.015119  -0.015119  17.202088
 Mulliken charges:
               1
     1  Ga   1.274735
     2  Cl  -0.424912
     3  Cl  -0.424912
     4  Cl  -0.424912
 Sum of Mulliken charges =  -0.00000
 Mulliken charges with hydrogens summed into heavy atoms:
               1
     1  Ga   1.274735
     2  Cl  -0.424912
     3  Cl  -0.424912
     4  Cl  -0.424912
 APT charges:
               1
     1  Ga   1.685204
     2  Cl  -0.561735
     3  Cl  -0.561735
     4  Cl  -0.561735
 Sum of APT charges =  -0.00000
 APT charges with hydrogens summed into heavy atoms:
               1
     1  Ga   1.685204
     2  Cl  -0.561735
     3  Cl  -0.561735
     4  Cl  -0.561735
 Electronic spatial extent (au):  <R**2>=           1023.4977
 Charge=             -0.0000 electrons
 Dipole moment (field-independent basis, Debye):
    X=             -0.0000    Y=              0.0000    Z=             -0.0000  Tot=              0.0000
 Quadrupole moment (field-independent basis, Debye-Ang):
   XX=            -65.7479   YY=            -65.7479   ZZ=            -51.6078
   XY=              0.0000   XZ=              0.0000   YZ=              0.0000
 Traceless Quadrupole moment (field-independent basis, Debye-Ang):
   XX=             -4.7134   YY=             -4.7134   ZZ=              9.4268
   XY=              0.0000   XZ=              0.0000   YZ=              0.0000
 Octapole moment (field-independent basis, Debye-Ang**2):
  XXX=              0.0000  YYY=            -10.6745  ZZZ=             -0.0000  XYY=              0.0000
  XXY=             10.6745  XXZ=             -0.0000  XZZ=              0.0000  YZZ=              0.0000
  YYZ=             -0.0000  XYZ=              0.0000
 Hexadecapole moment (field-independent basis, Debye-Ang**3):
 XXXX=           -680.6586 YYYY=           -680.6586 ZZZZ=            -56.7896 XXXY=              0.0000
 XXXZ=              0.0000 YYYX=              0.0000 YYYZ=              0.0000 ZZZX=              0.0000
 ZZZY=              0.0000 XXYY=           -226.8862 XXZZ=           -120.0096 YYZZ=           -120.0096
 XXYZ=              0.0000 YYXZ=              0.0000 ZZXY=              0.0000
 N-N= 4.990263942047D+02 E-N=-8.850617149508D+03  KE= 3.285488208584D+03
 Symmetry A1   KE= 2.186082296900D+03
 Symmetry A2   KE= 7.116074819173D+01
 Symmetry B1   KE= 6.981667348080D+02
 Symmetry B2   KE= 3.300784286846D+02
  Exact polarizability:      60.099      -0.000      60.099       0.000       0.000      23.316
 Approx polarizability:      43.039      -0.000      43.039      -0.000      -0.000      15.868
 Calling FoFJK, ICntrl=  10100127 FMM=F ISym2X=1 I1Cent= 0 IOpClX= 0 NMat=1 NMatS=1 NMatT=0.
 Full mass-weighted force constant matrix:
 Low frequencies ---   -0.0099   -0.0068   -0.0053    0.3004    0.3144    0.3224
 Low frequencies ---  127.0657  127.0657  129.8321
 Diagonal vibrational polarizability:
       32.9689455      32.9689454      46.2066972
 Harmonic frequencies (cm**-1), IR intensities (KM/Mole), Raman scattering
 activities (A**4/AMU), depolarization ratios for plane and unpolarized
 incident light, reduced masses (AMU), force constants (mDyne/A),
 and normal coordinates:
                           1         2         3         4         5
                          E'        E'        A2"       A1'       E'
       Frequencies ---   127.0657  127.0657  129.8321  357.0913  457.5600
    Reduced masses ---    38.1567   38.1567   49.7647   34.9689   44.4767
   Force constants ---     0.3630    0.3630    0.4942    2.6272    5.4863
    IR Intensities ---    13.5963   13.5963   28.9425    0.0000   80.1851
 Coord Atom Element:
   1     1    31         -0.28689   0.10759   0.00000  -0.00000   0.52913
   2     1    31         -0.10759  -0.28689  -0.00000   0.00000   0.00442
   3     1    31          0.00000  -0.00000   0.66010   0.00000  -0.00000
   1     2    17          0.66731  -0.25026  -0.00000   0.00000  -0.00250
   2     2    17         -0.10888  -0.29033  -0.00000   0.57735  -0.00579
   3     2    17         -0.00000   0.00000  -0.43370  -0.00000   0.00000
   1     3    17          0.10459   0.43377   0.00000   0.50000  -0.51772
   2     3    17          0.57514   0.27239  -0.00000  -0.28868   0.29744
   3     3    17         -0.00000   0.00000  -0.43370  -0.00000   0.00000
   1     4    17         -0.20643  -0.39558  -0.00000  -0.50000  -0.52272
   2     4    17         -0.25420   0.58341   0.00000  -0.28868  -0.30037
   3     4    17         -0.00000   0.00000  -0.43370  -0.00000   0.00000
                           6
                          E'
       Frequencies ---   457.5600
    Reduced masses ---    44.4767
   Force constants ---     5.4863
    IR Intensities ---    80.1851
 Coord Atom Element:
   1     1    31         -0.00442
   2     1    31          0.52913
   3     1    31          0.00000
   1     2    17          0.00002
   2     2    17         -0.69279
   3     2    17         -0.00000
   1     3    17          0.30325
   2     3    17         -0.17757
   3     3    17         -0.00000
   1     4    17         -0.29456
   2     4    17         -0.17258
   3     4    17         -0.00000
 Harmonic frequencies (cm**-1), IR intensities (KM/Mole), Raman scattering
 activities (A**4/AMU), depolarization ratios for plane and unpolarized
 incident light, reduced masses (AMU), force constants (mDyne/A),
 and normal coordinates:
                      1                      2                      3
                     E'                     E'                     A2"
 Frequencies --    127.0657               127.0657               129.8321
 Red. masses --     38.1567                38.1567                49.7647
 Frc consts  --      0.3630                 0.3630                 0.4942
 IR Inten    --     13.5963                13.5963                28.9425
  Atom  AN      X      Y      Z        X      Y      Z        X      Y      Z
     1  31    -0.29  -0.11   0.00     0.11  -0.29  -0.00     0.00  -0.00   0.66
     2  17     0.67  -0.11  -0.00    -0.25  -0.29   0.00    -0.00  -0.00  -0.43
     3  17     0.10   0.58  -0.00     0.43   0.27   0.00     0.00  -0.00  -0.43
     4  17    -0.21  -0.25  -0.00    -0.40   0.58   0.00    -0.00   0.00  -0.43
                      4                      5                      6
                     A1'                    E'                     E'
 Frequencies --    357.0913               457.5600               457.5600
 Red. masses --     34.9689                44.4767                44.4767
 Frc consts  --      2.6272                 5.4863                 5.4863
 IR Inten    --      0.0000                80.1851                80.1851
  Atom  AN      X      Y      Z        X      Y      Z        X      Y      Z
     1  31    -0.00   0.00   0.00     0.53   0.00  -0.00    -0.00   0.53   0.00
     2  17     0.00   0.58  -0.00    -0.00  -0.01   0.00     0.00  -0.69  -0.00
     3  17     0.50  -0.29  -0.00    -0.52   0.30   0.00     0.30  -0.18  -0.00
     4  17    -0.50  -0.29  -0.00    -0.52  -0.30   0.00    -0.29  -0.17  -0.00

 -------------------
 - Thermochemistry -
 -------------------
 Temperature   298.150 Kelvin.  Pressure   1.00000 Atm.
 Atom     1 has atomic number 31 and mass  68.92558
 Atom     2 has atomic number 17 and mass  34.96885
 Atom     3 has atomic number 17 and mass  34.96885
 Atom     4 has atomic number 17 and mass  34.96885
 Molecular mass:   173.83214 amu.
 Principal axes and moments of inertia in atomic units:
                           1         2         3
     Eigenvalues --   912.65071 912.650711825.30142
           X            0.94593   0.32437   0.00000
           Y           -0.32437   0.94593   0.00000
           Z            0.00000  -0.00000   1.00000
 This molecule is an oblate symmetric top.
 Rotational symmetry number  6.
 Warning -- assumption of classical behavior for rotation
           may cause significant error
 Rotational temperatures (Kelvin)      0.09490     0.09490     0.04745
 Rotational constants (GHZ):           1.97747     1.97747     0.98874
 Zero-point vibrational energy       9906.1 (Joules/Mol)
                                    2.36762 (Kcal/Mol)
 Warning -- explicit consideration of   6 degrees of freedom as
           vibrations may cause significant error
 Vibrational temperatures:    182.82   182.82   186.80   513.77   658.33
          (Kelvin)            658.33
 
 Zero-point correction=                           0.003773 (Hartree/Particle)
 Thermal correction to Energy=                    0.009521
 Thermal correction to Enthalpy=                  0.010466
 Thermal correction to Gibbs Free Energy=        -0.026702
 Sum of electronic and zero-point Energies=          -3286.113934
 Sum of electronic and thermal Energies=             -3286.108185
 Sum of electronic and thermal Enthalpies=           -3286.107241
 Sum of electronic and thermal Free Energies=        -3286.144408
 
                     E (Thermal)             CV                S
                      KCal/Mol        Cal/Mol-Kelvin    Cal/Mol-Kelvin
 Total                    5.975             15.986             78.225
 Electronic               0.000              0.000              0.000
 Translational            0.889              2.981             41.366
 Rotational               0.889              2.981             25.249
 Vibrational              4.197             10.025             11.610
 Vibration     1          0.611              1.926              2.990
 Vibration     2          0.611              1.926              2.990
 Vibration     3          0.612              1.923              2.949
 Vibration     4          0.732              1.561              1.135
 Vibration     5          0.816              1.344              0.773
 Vibration     6          0.816              1.344              0.773
                       Q            Log10(Q)             Ln(Q)
 Total Bot       0.191405D+13         12.281953         28.280241
 Total V=0       0.104095D+15         14.017431         32.276327
 Vib (Bot)       0.288827D+00         -0.539363         -1.241928
 Vib (Bot)    1  0.160557D+01          0.205630          0.473481
 Vib (Bot)    2  0.160557D+01          0.205630          0.473481
 Vib (Bot)    3  0.157029D+01          0.195979          0.451259
 Vib (Bot)    4  0.514279D+00         -0.288802         -0.664990
 Vib (Bot)    5  0.372477D+00         -0.428901         -0.987580
 Vib (Bot)    6  0.372477D+00         -0.428901         -0.987580
 Vib (V=0)       0.157078D+02          1.196116          2.754158
 Vib (V=0)    1  0.218163D+01          0.338780          0.780071
 Vib (V=0)    2  0.218163D+01          0.338780          0.780071
 Vib (V=0)    3  0.214797D+01          0.332028          0.764523
 Vib (V=0)    4  0.121727D+01          0.085388          0.196614
 Vib (V=0)    5  0.112349D+01          0.050569          0.116439
 Vib (V=0)    6  0.112349D+01          0.050569          0.116439
 Electronic      0.100000D+01          0.000000          0.000000
 Translational   0.900843D+08          7.954649         18.316256
 Rotational      0.735642D+05          4.866666         11.205913
 ***** Axes restored to original set *****
 -------------------------------------------------------------------
 Center     Atomic                   Forces (Hartrees/Bohr)
 Number     Number              X              Y              Z
 -------------------------------------------------------------------
      1       31           0.000000000    0.000000000   -0.000000000
      2       17           0.000000000   -0.000000564   -0.000000000
      3       17           0.000000488    0.000000282    0.000000000
      4       17          -0.000000488    0.000000282   -0.000000000
 -------------------------------------------------------------------
 Cartesian Forces:  Max     0.000000564 RMS     0.000000282
 FormGI is forming the generalized inverse of G from B-inverse, IUseBI=4.

 GradGradGradGradGradGradGradGradGradGradGradGradGradGradGradGradGradGrad
 Berny optimization.
 Internal  Forces:  Max     0.000000564 RMS     0.000000369
 Search for a local minimum.
 Step number   1 out of a maximum of    2
 All quantities printed in internal units (Hartrees-Bohrs-Radians)
 Second derivative matrix not updated -- analytic derivatives used.
 The second derivative matrix:
                          R1        R2        R3        A1        A2
           R1           0.16269
           R2           0.00303   0.16269
           R3           0.00303   0.00303   0.16269
           A1           0.00476   0.00476  -0.00951   0.05769
           A2           0.00476  -0.00951   0.00476  -0.02885   0.05769
           A3          -0.00951   0.00476   0.00476  -0.02885  -0.02885
           D1           0.00000  -0.00000  -0.00000  -0.00000   0.00000
                          A3        D1
           A3           0.05769
           D1          -0.00000   0.03847
 ITU=  0
     Eigenvalues ---    0.03847   0.08385   0.08385   0.16235   0.16235
     Eigenvalues ---    0.16875
 Angle between quadratic step and forces=   0.00 degrees.
 Linear search not attempted -- first point.
 Iteration  1 RMS(Cart)=  0.00000219 RMS(Int)=  0.00000000
 Iteration  2 RMS(Cart)=  0.00000000 RMS(Int)=  0.00000000
 ClnCor:  largest displacement from symmetrization is 9.56D-13 for atom     2.
 Variable       Old X    -DE/DX   Delta X   Delta X   Delta X     New X
                                 (Linear)    (Quad)   (Total)
    R1        4.17125  -0.00000   0.00000  -0.00000  -0.00000   4.17124
    R2        4.17125  -0.00000   0.00000  -0.00000  -0.00000   4.17124
    R3        4.17125  -0.00000   0.00000  -0.00000  -0.00000   4.17124
    A1        2.09440  -0.00000   0.00000  -0.00000   0.00000   2.09440
    A2        2.09440   0.00000   0.00000   0.00000   0.00000   2.09440
    A3        2.09440   0.00000   0.00000  -0.00000   0.00000   2.09440
    D1        3.14159  -0.00000   0.00000  -0.00000   0.00000   3.14159
         Item               Value     Threshold  Converged?
 Maximum Force            0.000001     0.000015     YES
 RMS     Force            0.000000     0.000010     YES
 Maximum Displacement     0.000003     0.000060     YES
 RMS     Displacement     0.000002     0.000040     YES
 Predicted change in Energy=-2.827048D-12
 Optimization completed.
    -- Stationary point found.
                           ----------------------------
                           !   Optimized Parameters   !
                           ! (Angstroms and Degrees)  !
 --------------------------                            --------------------------
 ! Name  Definition              Value          Derivative Info.                !
 --------------------------------------------------------------------------------
 ! R1    R(1,2)                  2.2073         -DE/DX =    0.0                 !
 ! R2    R(1,3)                  2.2073         -DE/DX =    0.0                 !
 ! R3    R(1,4)                  2.2073         -DE/DX =    0.0                 !
 ! A1    A(2,1,3)              120.0            -DE/DX =    0.0                 !
 ! A2    A(2,1,4)              120.0            -DE/DX =    0.0                 !
 ! A3    A(3,1,4)              120.0            -DE/DX =    0.0                 !
 ! D1    D(2,1,4,3)            180.0            -DE/DX =    0.0                 !
 --------------------------------------------------------------------------------
 GradGradGradGradGradGradGradGradGradGradGradGradGradGradGradGradGradGrad

 Dipole is zero, so no output in dipole orientation.

 ----------------------------------------------------------------------

 Electric dipole moment (input orientation):
 (Debye = 10**-18 statcoulomb cm , SI units = C m)
                  (au)            (Debye)         (10**-30 SI)
   Tot        0.000000D+00      0.000000D+00      0.000000D+00
   x          0.000000D+00      0.000000D+00      0.000000D+00
   y          0.000000D+00      0.000000D+00      0.000000D+00
   z          0.000000D+00      0.000000D+00      0.000000D+00

 Dipole polarizability, Alpha (input orientation).
 (esu units = cm**3 , SI units = C**2 m**2 J**-1)
 Alpha(0;0):
               (au)            (10**-24 esu)      (10**-40 SI)
   iso        0.478381D+02      0.708887D+01      0.788743D+01
   aniso      0.367831D+02      0.545069D+01      0.606471D+01
   xx         0.600991D+02      0.890577D+01      0.990900D+01
   yx         0.000000D+00      0.000000D+00      0.000000D+00
   yy         0.600991D+02      0.890577D+01      0.990900D+01
   zx         0.000000D+00      0.000000D+00      0.000000D+00
   zy         0.000000D+00      0.000000D+00      0.000000D+00
   zz         0.233160D+02      0.345508D+01      0.384429D+01

 ----------------------------------------------------------------------
 Unable to Open any file for archive entry.
 1\1\GINC-BS001\Freq\RMP2-FC\3-21G\Cl3Ga1\PNATT\10-Aug-2026\0\\#N Geom=
 AllCheck Guess=TCheck SCRF=Check GenChk RMP2(FC)/3-21G Freq\\Title Car
 d Required\\0,1\Ga,0.,-0.0000002073,0.\Cl,-0.0000000797,2.207329,0.\Cl
 ,-1.9116031282,-1.10366488,0.\Cl,1.9116032079,-1.103664742,0.\\Version
 =ES64L-G16RevC.01\State=1-A1'\HF=-3285.9494434\MP2=-3286.1177066\RMSD=
 6.887e-10\RMSF=2.820e-07\ZeroPoint=0.003773\Thermal=0.0095213\ETot=-32
 86.1081852\HTot=-3286.1072411\GTot=-3286.1444083\Dipole=0.,0.,0.\Dipol
 eDeriv=1.9721721,0.,0.,0.,1.9721721,0.,0.,0.,1.1112679,-0.4802333,0.,0
 .,0.,-0.8345481,0.,0.,0.,-0.3704226,-0.7459694,-0.1534228,0.,-0.153422
 8,-0.568812,0.,0.,0.,-0.3704226,-0.7459694,0.1534228,0.,0.1534228,-0.5
 68812,0.,0.,0.,-0.3704226\Polar=60.0990986,0.,60.0990986,0.,0.,23.3160
 335\PG=D03H [O(Ga1),3C2(Cl1)]\NImag=0\\0.24409930,0.,0.24409930,0.,0.,
 0.02653435,-0.00899678,0.,0.,0.00994737,0.,-0.15373609,0.,0.,0.1626885
 9,0.,0.,-0.00884478,0.,0.,0.00294835,-0.11755126,-0.06267396,0.,-0.000
 47530,-0.00091240,0.,0.12450328,-0.06267396,-0.04518161,0.,-0.00601745
 ,-0.00447625,0.,0.06613889,0.04813268,0.,0.,-0.00884478,0.,0.,0.002948
 22,0.,0.,0.00294834,-0.11755127,0.06267396,0.,-0.00047530,0.00091240,0
 .,-0.00647672,0.00255253,0.,0.12450329,0.06267396,-0.04518160,0.,0.006
 01745,-0.00447625,0.,-0.00255253,0.00152518,0.,-0.06613888,0.04813267,
 0.,0.,-0.00884478,0.,0.,0.00294822,0.,0.,0.00294822,0.,0.,0.00294834\\
 0.,0.,0.,0.,0.00000056,0.,-0.00000049,-0.00000028,0.,0.00000049,-0.000
 00028,0.\\\@
 The archive entry for this job was punched.


  ON THE CHOICE OF THE CORRECT LANGUAGE -
 I SPEAK SPANISH TO GOD, ITALIAN TO WOMEN,
 FRENCH TO MEN, AND GERMAN TO MY HORSE.
          -- CHARLES V
 Job cpu time:       0 days  0 hours  0 minutes 18.2 seconds.
 Elapsed time:       0 days  0 hours  0 minutes 18.1 seconds.
 File lengths (MBytes):  RWF=    208 Int=      0 D2E=      0 Chk=      2 Scr=      1
 Normal termination of Gaussian 16 at Mon Aug 10 18:20:50 2026.
