 Entering Gaussian System, Link 0=g16
 Input=H2O.com
 Output=H2O.log
 Initial command:
 /opt/g16/g16/l1.exe "/home/pnatt/scratch/Gau-1472843.inp" -scrdir="/home/pnatt/scratch/"
 Entering Link 1 = /opt/g16/g16/l1.exe PID=   1472845.
  
 Copyright (c) 1988-2019, Gaussian, Inc.  All Rights Reserved.
  
 This is part of the Gaussian(R) 16 program.  It is based on
 the Gaussian(R) 09 system (copyright 2009, Gaussian, Inc.),
 the Gaussian(R) 03 system (copyright 2003, Gaussian, Inc.),
 the Gaussian(R) 98 system (copyright 1998, Gaussian, Inc.),
 the Gaussian(R) 94 system (copyright 1995, Gaussian, Inc.),
 the Gaussian 92(TM) system (copyright 1992, Gaussian, Inc.),
 the Gaussian 90(TM) system (copyright 1990, Gaussian, Inc.),
 the Gaussian 88(TM) system (copyright 1988, Gaussian, Inc.),
 the Gaussian 86(TM) system (copyright 1986, Carnegie Mellon
 University), and the Gaussian 82(TM) system (copyright 1983,
 Carnegie Mellon University). Gaussian is a federally registered
 trademark of Gaussian, Inc.
  
 This software contains proprietary and confidential information,
 including trade secrets, belonging to Gaussian, Inc.
  
 This software is provided under written license and may be
 used, copied, transmitted, or stored only in accord with that
 written license.
  
 The following legend is applicable only to US Government
 contracts under FAR:
  
                    RESTRICTED RIGHTS LEGEND
  
 Use, reproduction and disclosure by the US Government is
 subject to restrictions as set forth in subparagraphs (a)
 and (c) of the Commercial Computer Software - Restricted
 Rights clause in FAR 52.227-19.
  
 Gaussian, Inc.
 340 Quinnipiac St., Bldg. 40, Wallingford CT 06492
  
  
 ---------------------------------------------------------------
 Warning -- This program may not be used in any manner that
 competes with the business of Gaussian, Inc. or will provide
 assistance to any competitor of Gaussian, Inc.  The licensee
 of this program is prohibited from giving any competitor of
 Gaussian, Inc. access to this program.  By using this program,
 the user acknowledges that Gaussian, Inc. is engaged in the
 business of creating and licensing software in the field of
 computational chemistry and represents and warrants to the
 licensee that it is not a competitor of Gaussian, Inc. and that
 it will not use this program in any manner prohibited above.
 ---------------------------------------------------------------
  

 Cite this work as:
 Gaussian 16, Revision C.01,
 M. J. Frisch, G. W. Trucks, H. B. Schlegel, G. E. Scuseria, 
 M. A. Robb, J. R. Cheeseman, G. Scalmani, V. Barone, 
 G. A. Petersson, H. Nakatsuji, X. Li, M. Caricato, A. V. Marenich, 
 J. Bloino, B. G. Janesko, R. Gomperts, B. Mennucci, H. P. Hratchian, 
 J. V. Ortiz, A. F. Izmaylov, J. L. Sonnenberg, D. Williams-Young, 
 F. Ding, F. Lipparini, F. Egidi, J. Goings, B. Peng, A. Petrone, 
 T. Henderson, D. Ranasinghe, V. G. Zakrzewski, J. Gao, N. Rega, 
 G. Zheng, W. Liang, M. Hada, M. Ehara, K. Toyota, R. Fukuda, 
 J. Hasegawa, M. Ishida, T. Nakajima, Y. Honda, O. Kitao, H. Nakai, 
 T. Vreven, K. Throssell, J. A. Montgomery, Jr., J. E. Peralta, 
 F. Ogliaro, M. J. Bearpark, J. J. Heyd, E. N. Brothers, K. N. Kudin, 
 V. N. Staroverov, T. A. Keith, R. Kobayashi, J. Normand, 
 K. Raghavachari, A. P. Rendell, J. C. Burant, S. S. Iyengar, 
 J. Tomasi, M. Cossi, J. M. Millam, M. Klene, C. Adamo, R. Cammi, 
 J. W. Ochterski, R. L. Martin, K. Morokuma, O. Farkas, 
 J. B. Foresman, and D. J. Fox, Gaussian, Inc., Wallingford CT, 2019.
 
 ******************************************
 Gaussian 16:  ES64L-G16RevC.01  3-Jul-2019
                10-Aug-2026 
 ******************************************
 %chk=H2O-MP2-321G.chk
 ----------------------------------------------
 # opt freq=hpmodes mp2/3-21g geom=connectivity
 ----------------------------------------------
 1/18=20,19=15,38=1,57=2/1,3;
 2/9=110,12=2,17=6,18=5,40=1/2;
 3/5=5,11=9,25=1,30=1,71=1/1,2,3;
 4//1;
 5/5=2,38=5/2;
 8/6=4,10=1/1;
 9/15=2,16=-3/6;
 10/5=1/2;
 6/7=2,8=2,9=2,10=2/1;
 7/12=2/1,2,3,16;
 1/18=20,19=15/3(2);
 2/9=110/2;
 99//99;
 2/9=110/2;
 3/5=5,11=9,25=1,30=1,71=1/1,2,3;
 4/5=5,16=3,69=1/1;
 5/5=2,38=5/2;
 8/6=4,10=1/1;
 9/15=2,16=-3/6;
 10/5=1/2;
 7/12=2/1,2,3,16;
 1/18=20,19=15/3(-8);
 2/9=110/2;
 6/7=2,8=2,9=2,10=2/1;
 99/9=10/99;
 -------------
 h2o vibration
 -------------
 Symbolic Z-matrix:
 Charge =  0 Multiplicity = 1
 O                     0.        0.       -0.11085 
 H                     0.       -0.78384   0.44341 
 H                     0.        0.78384   0.44341 
 

 GradGradGradGradGradGradGradGradGradGradGradGradGradGradGradGradGradGrad
 Berny optimization.
 Initialization pass.
                           ----------------------------
                           !    Initial Parameters    !
                           ! (Angstroms and Degrees)  !
 --------------------------                            --------------------------
 ! Name  Definition              Value          Derivative Info.                !
 --------------------------------------------------------------------------------
 ! R1    R(1,2)                  0.96           estimate D2E/DX2                !
 ! R2    R(1,3)                  0.96           estimate D2E/DX2                !
 ! A1    A(2,1,3)              109.4712         estimate D2E/DX2                !
 --------------------------------------------------------------------------------
 Trust Radius=3.00D-01 FncErr=1.00D-07 GrdErr=1.00D-07 EigMax=2.50D+02 EigMin=1.00D-04
 Number of steps in this run=     20 maximum allowed number of steps=    100.
 GradGradGradGradGradGradGradGradGradGradGradGradGradGradGradGradGradGrad

                          Input orientation:                          
 ---------------------------------------------------------------------
 Center     Atomic      Atomic             Coordinates (Angstroms)
 Number     Number       Type             X           Y           Z
 ---------------------------------------------------------------------
      1          8           0        0.000000    0.000000   -0.110851
      2          1           0        0.000000   -0.783837    0.443405
      3          1           0        0.000000    0.783837    0.443405
 ---------------------------------------------------------------------
                    Distance matrix (angstroms):
                    1          2          3
     1  O    0.000000
     2  H    0.960000   0.000000
     3  H    0.960000   1.567673   0.000000
 Stoichiometry    H2O
 Framework group  C2V[C2(O),SGV(H2)]
 Deg. of freedom     2
 Full point group                 C2V     NOp   4
 Largest Abelian subgroup         C2V     NOp   4
 Largest concise Abelian subgroup C2      NOp   2
                         Standard orientation:                         
 ---------------------------------------------------------------------
 Center     Atomic      Atomic             Coordinates (Angstroms)
 Number     Number       Type             X           Y           Z
 ---------------------------------------------------------------------
      1          8           0        0.000000    0.000000    0.110851
      2          1           0       -0.000000    0.783837   -0.443405
      3          1           0       -0.000000   -0.783837   -0.443405
 ---------------------------------------------------------------------
 Rotational constants (GHZ):         919.0227249         408.0852063         282.5991538
 Standard basis: 3-21G (6D, 7F)
 There are     7 symmetry adapted cartesian basis functions of A1  symmetry.
 There are     0 symmetry adapted cartesian basis functions of A2  symmetry.
 There are     2 symmetry adapted cartesian basis functions of B1  symmetry.
 There are     4 symmetry adapted cartesian basis functions of B2  symmetry.
 There are     7 symmetry adapted basis functions of A1  symmetry.
 There are     0 symmetry adapted basis functions of A2  symmetry.
 There are     2 symmetry adapted basis functions of B1  symmetry.
 There are     4 symmetry adapted basis functions of B2  symmetry.
    13 basis functions,    21 primitive gaussians,    13 cartesian basis functions
     5 alpha electrons        5 beta electrons
       nuclear repulsion energy         9.1571759236 Hartrees.
 NAtoms=    3 NActive=    3 NUniq=    2 SFac= 2.25D+00 NAtFMM=   60 NAOKFM=F Big=F
 Integral buffers will be    131072 words long.
 Raffenetti 1 integral format.
 Two-electron integral symmetry is turned on.
 One-electron integrals computed using PRISM.
 NBasis=    13 RedAO= T EigKep=  1.10D-01  NBF=     7     0     2     4
 NBsUse=    13 1.00D-06 EigRej= -1.00D+00 NBFU=     7     0     2     4
 ExpMin= 1.83D-01 ExpMax= 3.22D+02 ExpMxC= 3.22D+02 IAcc=3 IRadAn=         5 AccDes= 0.00D+00
 Harris functional with IExCor=  205 and IRadAn=       5 diagonalized for initial guess.
 HarFok:  IExCor=  205 AccDes= 0.00D+00 IRadAn=         5 IDoV= 1 UseB2=F ITyADJ=14
 ICtDFT=  3500011 ScaDFX=  1.000000  1.000000  1.000000  1.000000
 FoFCou: FMM=F IPFlag=           0 FMFlag=      100000 FMFlg1=           0
         NFxFlg=           0 DoJE=T BraDBF=F KetDBF=T FulRan=T
         wScrn=  0.000000 ICntrl=       500 IOpCl=  0 I1Cent=   200000004 NGrid=           0
         NMat0=    1 NMatS0=      1 NMatT0=    0 NMatD0=    1 NMtDS0=    0 NMtDT0=    0
 Petite list used in FoFCou.
 Initial guess orbital symmetries:
       Occupied  (A1) (A1) (B2) (A1) (B1)
       Virtual   (A1) (B2) (B2) (A1) (B1) (A1) (B2) (A1)
 The electronic state of the initial guess is 1-A1.
 Keep R1 ints in memory in symmetry-blocked form, NReq=807533.
 Requested convergence on RMS density matrix=1.00D-08 within 128 cycles.
 Requested convergence on MAX density matrix=1.00D-06.
 Requested convergence on             energy=1.00D-06.
 No special actions if energy rises.
 SCF Done:  E(RHF) =  -75.5858125134     A.U. after   10 cycles
            NFock= 10  Conv=0.41D-09     -V/T= 2.0018
 ExpMin= 1.83D-01 ExpMax= 3.22D+02 ExpMxC= 3.22D+02 IAcc=3 IRadAn=         5 AccDes= 0.00D+00
 HarFok:  IExCor=  205 AccDes= 0.00D+00 IRadAn=         5 IDoV=-2 UseB2=F ITyADJ=14
 ICtDFT= 12500011 ScaDFX=  1.000000  1.000000  1.000000  1.000000
 Range of M.O.s used for correlation:     2    13
 NBasis=    13 NAE=     5 NBE=     5 NFC=     1 NFV=     0
 NROrb=     12 NOA=     4 NOB=     4 NVA=     8 NVB=     8
 Fully direct method using O(ONN) memory.
 JobTyp=1 Pass  1:  I=   2 to   5 NPSUse=  1 ParTrn=F ParDer=F DoDerP=T.
 Spin components of T(2) and E(2):
     alpha-alpha T2 =       0.3219649597D-02 E2=     -0.1362535916D-01
     alpha-beta  T2 =       0.2370062932D-01 E2=     -0.9315711823D-01
     beta-beta   T2 =       0.3219649597D-02 E2=     -0.1362535916D-01
 ANorm=    0.1014958092D+01
 E2 =    -0.1204078366D+00 EUMP2 =    -0.75706220349959D+02
          IDoAtm=111
          Differentiating once with respect to electric field.
                with respect to dipole field.
          Differentiating once with respect to nuclear coordinates.
 Keep R1 ints in memory in symmetry-blocked form, NReq=808036.
          There are     1 degrees of freedom in the 1st order CPHF.  IDoFFX=0 NUNeed=     1.
 LinEq1:  Iter=  0 NonCon=     1 RMS=7.75D-03 Max=3.20D-02 NDo=     1
 AX will form     1 AO Fock derivatives at one time.
 LinEq1:  Iter=  1 NonCon=     1 RMS=1.82D-03 Max=6.56D-03 NDo=     1
 LinEq1:  Iter=  2 NonCon=     1 RMS=5.43D-04 Max=2.17D-03 NDo=     1
 LinEq1:  Iter=  3 NonCon=     1 RMS=3.08D-05 Max=1.10D-04 NDo=     1
 LinEq1:  Iter=  4 NonCon=     1 RMS=1.89D-06 Max=6.48D-06 NDo=     1
 LinEq1:  Iter=  5 NonCon=     1 RMS=8.87D-08 Max=3.04D-07 NDo=     1
 LinEq1:  Iter=  6 NonCon=     1 RMS=8.37D-09 Max=2.85D-08 NDo=     1
 LinEq1:  Iter=  7 NonCon=     1 RMS=5.33D-10 Max=1.63D-09 NDo=     1
 LinEq1:  Iter=  8 NonCon=     0 RMS=4.44D-11 Max=1.42D-10 NDo=     1
 Linear equations converged to 1.000D-10 1.000D-09 after     8 iterations.
 End of Minotr F.D. properties file   721 does not exist.
 End of Minotr F.D. properties file   722 does not exist.
 End of Minotr F.D. properties file   788 does not exist.

 **********************************************************************

            Population analysis using the SCF Density.

 **********************************************************************

 Orbital symmetries:
       Occupied  (A1) (A1) (B2) (A1) (B1)
       Virtual   (A1) (B2) (B2) (A1) (B1) (A1) (B2) (A1)
 The electronic state is 1-A1.
 Alpha  occ. eigenvalues --  -20.42413  -1.32210  -0.69193  -0.52711  -0.47642
 Alpha virt. eigenvalues --    0.26331   0.36339   1.22097   1.27336   1.78508
 Alpha virt. eigenvalues --    1.85837   2.02906   3.10436
          Condensed to atoms (all electrons):
               1          2          3
     1  O    8.207251   0.266195   0.266195
     2  H    0.266195   0.401399  -0.037414
     3  H    0.266195  -0.037414   0.401399
 Mulliken charges:
               1
     1  O   -0.739640
     2  H    0.369820
     3  H    0.369820
 Sum of Mulliken charges =   0.00000
 Mulliken charges with hydrogens summed into heavy atoms:
               1
     1  O    0.000000
 Electronic spatial extent (au):  <R**2>=             18.5143
 Charge=              0.0000 electrons
 Dipole moment (field-independent basis, Debye):
    X=             -0.0000    Y=              0.0000    Z=             -2.3578  Tot=              2.3578
 Quadrupole moment (field-independent basis, Debye-Ang):
   XX=             -6.8230   YY=             -3.9000   ZZ=             -5.9163
   XY=              0.0000   XZ=              0.0000   YZ=              0.0000
 Traceless Quadrupole moment (field-independent basis, Debye-Ang):
   XX=             -1.2765   YY=              1.6464   ZZ=             -0.3699
   XY=              0.0000   XZ=              0.0000   YZ=              0.0000
 Octapole moment (field-independent basis, Debye-Ang**2):
  XXX=              0.0000  YYY=              0.0000  ZZZ=             -1.1680  XYY=             -0.0000
  XXY=             -0.0000  XXZ=             -0.3048  XZZ=             -0.0000  YZZ=              0.0000
  YYZ=             -1.2160  XYZ=             -0.0000
 Hexadecapole moment (field-independent basis, Debye-Ang**3):
 XXXX=             -4.1844 YYYY=             -5.2802 ZZZZ=             -5.2036 XXXY=             -0.0000
 XXXZ=             -0.0000 YYYX=             -0.0000 YYYZ=              0.0000 ZZZX=             -0.0000
 ZZZY=              0.0000 XXYY=             -1.8469 XXZZ=             -1.6026 YYZZ=             -1.4918
 XXYZ=              0.0000 YYXZ=              0.0000 ZZXY=             -0.0000
 N-N= 9.157175923610D+00 E-N=-1.980498235618D+02  KE= 7.544721721855D+01
 Symmetry A1   KE= 6.747165100545D+01
 Symmetry A2   KE= 0.000000000000D+00
 Symmetry B1   KE= 4.650652250606D+00
 Symmetry B2   KE= 3.324913962492D+00
 Calling FoFJK, ICntrl=  10002127 FMM=F ISym2X=1 I1Cent= 0 IOpClX= 0 NMat=1 NMatS=1 NMatT=0.
 ***** Axes restored to original set *****
 -------------------------------------------------------------------
 Center     Atomic                   Forces (Hartrees/Bohr)
 Number     Number              X              Y              Z
 -------------------------------------------------------------------
      1        8          -0.000000000    0.000000000   -0.035111962
      2        1           0.000000000   -0.016283782    0.017555981
      3        1           0.000000000    0.016283782    0.017555981
 -------------------------------------------------------------------
 Cartesian Forces:  Max     0.035111962 RMS     0.016260374

 GradGradGradGradGradGradGradGradGradGradGradGradGradGradGradGradGradGrad
 Berny optimization.
 FormGI is forming the generalized inverse of G from B-inverse, IUseBI=4.
 Internal  Forces:  Max     0.023431603 RMS     0.019817211
 Search for a local minimum.
 Step number   1 out of a maximum of   20
 All quantities printed in internal units (Hartrees-Bohrs-Radians)
 Mixed Optimization -- RFO/linear search
 Second derivative matrix not updated -- first step.
 The second derivative matrix:
                          R1        R2        A1
           R1           0.55473
           R2           0.00000   0.55473
           A1           0.00000   0.00000   0.16000
 ITU=  0
     Eigenvalues ---    0.16000   0.55473   0.55473
 RFO step:  Lambda=-2.46366381D-03 EMin= 1.60000000D-01
 Linear search not attempted -- first point.
 Iteration  1 RMS(Cart)=  0.03100221 RMS(Int)=  0.00091178
 Iteration  2 RMS(Cart)=  0.00104306 RMS(Int)=  0.00000040
 Iteration  3 RMS(Cart)=  0.00000026 RMS(Int)=  0.00000000
 ClnCor:  largest displacement from symmetrization is 8.01D-16 for atom     3.
 Variable       Old X    -DE/DX   Delta X   Delta X   Delta X     New X
                                 (Linear)    (Quad)   (Total)
    R1        1.81414   0.02343   0.00000   0.04205   0.04205   1.85619
    R2        1.81414   0.02343   0.00000   0.04205   0.04205   1.85619
    A1        1.91063  -0.00895   0.00000  -0.05508  -0.05508   1.85555
         Item               Value     Threshold  Converged?
 Maximum Force            0.023432     0.000450     NO 
 RMS     Force            0.019817     0.000300     NO 
 Maximum Displacement     0.043739     0.001800     NO 
 RMS     Displacement     0.031122     0.001200     NO 
 Predicted change in Energy=-1.239926D-03
 GradGradGradGradGradGradGradGradGradGradGradGradGradGradGradGradGradGrad

                          Input orientation:                          
 ---------------------------------------------------------------------
 Center     Atomic      Atomic             Coordinates (Angstroms)
 Number     Number       Type             X           Y           Z
 ---------------------------------------------------------------------
      1          8           0        0.000000   -0.000000   -0.133997
      2          1           0        0.000000   -0.786085    0.454978
      3          1           0       -0.000000    0.786085    0.454978
 ---------------------------------------------------------------------
                    Distance matrix (angstroms):
                    1          2          3
     1  O    0.000000
     2  H    0.982253   0.000000
     3  H    0.982253   1.572170   0.000000
 Stoichiometry    H2O
 Framework group  C2V[C2(O),SGV(H2)]
 Deg. of freedom     2
 Full point group                 C2V     NOp   4
 Largest Abelian subgroup         C2V     NOp   4
 Largest concise Abelian subgroup C2      NOp   2
                         Standard orientation:                         
 ---------------------------------------------------------------------
 Center     Atomic      Atomic             Coordinates (Angstroms)
 Number     Number       Type             X           Y           Z
 ---------------------------------------------------------------------
      1          8           0        0.000000   -0.000000    0.117795
      2          1           0       -0.000000    0.786085   -0.471180
      3          1           0       -0.000000   -0.786085   -0.471180
 ---------------------------------------------------------------------
 Rotational constants (GHZ):         813.8677114         405.7539729         270.7643375
 Standard basis: 3-21G (6D, 7F)
 There are     7 symmetry adapted cartesian basis functions of A1  symmetry.
 There are     0 symmetry adapted cartesian basis functions of A2  symmetry.
 There are     2 symmetry adapted cartesian basis functions of B1  symmetry.
 There are     4 symmetry adapted cartesian basis functions of B2  symmetry.
 There are     7 symmetry adapted basis functions of A1  symmetry.
 There are     0 symmetry adapted basis functions of A2  symmetry.
 There are     2 symmetry adapted basis functions of B1  symmetry.
 There are     4 symmetry adapted basis functions of B2  symmetry.
    13 basis functions,    21 primitive gaussians,    13 cartesian basis functions
     5 alpha electrons        5 beta electrons
       nuclear repulsion energy         8.9563990061 Hartrees.
 NAtoms=    3 NActive=    3 NUniq=    2 SFac= 2.25D+00 NAtFMM=   60 NAOKFM=F Big=F
 Integral buffers will be    131072 words long.
 Raffenetti 1 integral format.
 Two-electron integral symmetry is turned on.
 One-electron integrals computed using PRISM.
 NBasis=    13 RedAO= T EigKep=  1.13D-01  NBF=     7     0     2     4
 NBsUse=    13 1.00D-06 EigRej= -1.00D+00 NBFU=     7     0     2     4
 Initial guess from the checkpoint file:  "H2O-MP2-321G.chk"
 B after Tr=    -0.000000   -0.000000   -0.000000
         Rot=    1.000000    0.000000    0.000000   -0.000000 Ang=   0.00 deg.
 Initial guess orbital symmetries:
       Occupied  (A1) (A1) (B2) (A1) (B1)
       Virtual   (A1) (B2) (B2) (A1) (B1) (A1) (B2) (A1)
 ExpMin= 1.83D-01 ExpMax= 3.22D+02 ExpMxC= 3.22D+02 IAcc=3 IRadAn=         5 AccDes= 0.00D+00
 Harris functional with IExCor=  205 and IRadAn=       5 diagonalized for initial guess.
 HarFok:  IExCor=  205 AccDes= 0.00D+00 IRadAn=         5 IDoV= 1 UseB2=F ITyADJ=14
 ICtDFT=  3500011 ScaDFX=  1.000000  1.000000  1.000000  1.000000
 FoFCou: FMM=F IPFlag=           0 FMFlag=      100000 FMFlg1=           0
         NFxFlg=           0 DoJE=T BraDBF=F KetDBF=T FulRan=T
         wScrn=  0.000000 ICntrl=       500 IOpCl=  0 I1Cent=   200000004 NGrid=           0
         NMat0=    1 NMatS0=      1 NMatT0=    0 NMatD0=    1 NMtDS0=    0 NMtDT0=    0
 Petite list used in FoFCou.
 Keep R1 ints in memory in symmetry-blocked form, NReq=807533.
 Requested convergence on RMS density matrix=1.00D-08 within 128 cycles.
 Requested convergence on MAX density matrix=1.00D-06.
 Requested convergence on             energy=1.00D-06.
 No special actions if energy rises.
 SCF Done:  E(RHF) =  -75.5855166476     A.U. after    9 cycles
            NFock=  9  Conv=0.18D-08     -V/T= 2.0029
 ExpMin= 1.83D-01 ExpMax= 3.22D+02 ExpMxC= 3.22D+02 IAcc=3 IRadAn=         5 AccDes= 0.00D+00
 HarFok:  IExCor=  205 AccDes= 0.00D+00 IRadAn=         5 IDoV=-2 UseB2=F ITyADJ=14
 ICtDFT= 12500011 ScaDFX=  1.000000  1.000000  1.000000  1.000000
 Range of M.O.s used for correlation:     2    13
 NBasis=    13 NAE=     5 NBE=     5 NFC=     1 NFV=     0
 NROrb=     12 NOA=     4 NOB=     4 NVA=     8 NVB=     8
 Fully direct method using O(ONN) memory.
 JobTyp=1 Pass  1:  I=   2 to   5 NPSUse=  1 ParTrn=F ParDer=F DoDerP=T.
 Spin components of T(2) and E(2):
     alpha-alpha T2 =       0.3308048808D-02 E2=     -0.1376708116D-01
     alpha-beta  T2 =       0.2478525309D-01 E2=     -0.9466077814D-01
     beta-beta   T2 =       0.3308048808D-02 E2=     -0.1376708116D-01
 ANorm=    0.1015579318D+01
 E2 =    -0.1221949405D+00 EUMP2 =    -0.75707711588030D+02
          IDoAtm=111
          Differentiating once with respect to electric field.
                with respect to dipole field.
          Differentiating once with respect to nuclear coordinates.
 Keep R1 ints in memory in symmetry-blocked form, NReq=808036.
          There are     1 degrees of freedom in the 1st order CPHF.  IDoFFX=0 NUNeed=     1.
 LinEq1:  Iter=  0 NonCon=     1 RMS=8.23D-03 Max=3.40D-02 NDo=     1
 AX will form     1 AO Fock derivatives at one time.
 LinEq1:  Iter=  1 NonCon=     1 RMS=1.95D-03 Max=7.20D-03 NDo=     1
 LinEq1:  Iter=  2 NonCon=     1 RMS=6.10D-04 Max=2.55D-03 NDo=     1
 LinEq1:  Iter=  3 NonCon=     1 RMS=3.63D-05 Max=1.11D-04 NDo=     1
 LinEq1:  Iter=  4 NonCon=     1 RMS=2.28D-06 Max=8.39D-06 NDo=     1
 LinEq1:  Iter=  5 NonCon=     1 RMS=8.61D-08 Max=2.92D-07 NDo=     1
 LinEq1:  Iter=  6 NonCon=     1 RMS=5.85D-09 Max=2.03D-08 NDo=     1
 LinEq1:  Iter=  7 NonCon=     1 RMS=3.88D-10 Max=1.18D-09 NDo=     1
 LinEq1:  Iter=  8 NonCon=     0 RMS=4.38D-11 Max=1.12D-10 NDo=     1
 Linear equations converged to 1.000D-10 1.000D-09 after     8 iterations.
 End of Minotr F.D. properties file   721 does not exist.
 End of Minotr F.D. properties file   722 does not exist.
 End of Minotr F.D. properties file   788 does not exist.
 Calling FoFJK, ICntrl=  10002127 FMM=F ISym2X=1 I1Cent= 0 IOpClX= 0 NMat=1 NMatS=1 NMatT=0.
 ***** Axes restored to original set *****
 -------------------------------------------------------------------
 Center     Atomic                   Forces (Hartrees/Bohr)
 Number     Number              X              Y              Z
 -------------------------------------------------------------------
      1        8          -0.000000000   -0.000000000   -0.008177121
      2        1           0.000000000   -0.003063126    0.004088560
      3        1           0.000000000    0.003063126    0.004088560
 -------------------------------------------------------------------
 Cartesian Forces:  Max     0.008177121 RMS     0.003637206

 GradGradGradGradGradGradGradGradGradGradGradGradGradGradGradGradGradGrad
 Berny optimization.
 Using GEDIIS/GDIIS optimizer.
 FormGI is forming the generalized inverse of G from B-inverse, IUseBI=4.
 Internal  Forces:  Max     0.004902949 RMS     0.004288588
 Search for a local minimum.
 Step number   2 out of a maximum of   20
 All quantities printed in internal units (Hartrees-Bohrs-Radians)
 Mixed Optimization -- RFO/linear search
 Update second derivatives using D2CorX and points    1    2
 DE= -1.49D-03 DEPred=-1.24D-03 R= 1.20D+00
 TightC=F SS=  1.41D+00  RLast= 8.11D-02 DXNew= 5.0454D-01 2.4319D-01
 Trust test= 1.20D+00 RLast= 8.11D-02 DXMaxT set to 3.00D-01
 The second derivative matrix:
                          R1        R2        A1
           R1           0.51264
           R2          -0.04209   0.51264
           A1           0.02286   0.02286   0.14900
 ITU=  1  0
 Use linear search instead of GDIIS.
     Eigenvalues ---    0.14578   0.47377   0.55473
 RFO step:  Lambda=-8.99661801D-06 EMin= 1.45783964D-01
 Quartic linear search produced a step of  0.31991.
 Iteration  1 RMS(Cart)=  0.01243334 RMS(Int)=  0.00014655
 Iteration  2 RMS(Cart)=  0.00016565 RMS(Int)=  0.00000001
 Iteration  3 RMS(Cart)=  0.00000001 RMS(Int)=  0.00000000
 ClnCor:  largest displacement from symmetrization is 1.11D-16 for atom     3.
 Variable       Old X    -DE/DX   Delta X   Delta X   Delta X     New X
                                 (Linear)    (Quad)   (Total)
    R1        1.85619   0.00490   0.01345  -0.00116   0.01229   1.86848
    R2        1.85619   0.00490   0.01345  -0.00116   0.01229   1.86848
    A1        1.85555  -0.00266  -0.01762  -0.00685  -0.02447   1.83108
         Item               Value     Threshold  Converged?
 Maximum Force            0.004903     0.000450     NO 
 RMS     Force            0.004289     0.000300     NO 
 Maximum Displacement     0.017056     0.001800     NO 
 RMS     Displacement     0.012492     0.001200     NO 
 Predicted change in Energy=-8.377226D-05
 GradGradGradGradGradGradGradGradGradGradGradGradGradGradGradGradGradGrad

                          Input orientation:                          
 ---------------------------------------------------------------------
 Center     Atomic      Atomic             Coordinates (Angstroms)
 Number     Number       Type             X           Y           Z
 ---------------------------------------------------------------------
      1          8           0        0.000000   -0.000000   -0.143023
      2          1           0        0.000000   -0.783976    0.459491
      3          1           0       -0.000000    0.783976    0.459491
 ---------------------------------------------------------------------
                    Distance matrix (angstroms):
                    1          2          3
     1  O    0.000000
     2  H    0.988757   0.000000
     3  H    0.988757   1.567952   0.000000
 Stoichiometry    H2O
 Framework group  C2V[C2(O),SGV(H2)]
 Deg. of freedom     2
 Full point group                 C2V     NOp   4
 Largest Abelian subgroup         C2V     NOp   4
 Largest concise Abelian subgroup C2      NOp   2
                         Standard orientation:                         
 ---------------------------------------------------------------------
 Center     Atomic      Atomic             Coordinates (Angstroms)
 Number     Number       Type             X           Y           Z
 ---------------------------------------------------------------------
      1          8           0       -0.000000    0.000000    0.120503
      2          1           0       -0.000000    0.783976   -0.482011
      3          1           0       -0.000000   -0.783976   -0.482011
 ---------------------------------------------------------------------
 Rotational constants (GHZ):         777.7034393         407.9399624         267.5815606
 Standard basis: 3-21G (6D, 7F)
 There are     7 symmetry adapted cartesian basis functions of A1  symmetry.
 There are     0 symmetry adapted cartesian basis functions of A2  symmetry.
 There are     2 symmetry adapted cartesian basis functions of B1  symmetry.
 There are     4 symmetry adapted cartesian basis functions of B2  symmetry.
 There are     7 symmetry adapted basis functions of A1  symmetry.
 There are     0 symmetry adapted basis functions of A2  symmetry.
 There are     2 symmetry adapted basis functions of B1  symmetry.
 There are     4 symmetry adapted basis functions of B2  symmetry.
    13 basis functions,    21 primitive gaussians,    13 cartesian basis functions
     5 alpha electrons        5 beta electrons
       nuclear repulsion energy         8.9006027503 Hartrees.
 NAtoms=    3 NActive=    3 NUniq=    2 SFac= 2.25D+00 NAtFMM=   60 NAOKFM=F Big=F
 Integral buffers will be    131072 words long.
 Raffenetti 1 integral format.
 Two-electron integral symmetry is turned on.
 One-electron integrals computed using PRISM.
 NBasis=    13 RedAO= T EigKep=  1.14D-01  NBF=     7     0     2     4
 NBsUse=    13 1.00D-06 EigRej= -1.00D+00 NBFU=     7     0     2     4
 Initial guess from the checkpoint file:  "H2O-MP2-321G.chk"
 B after Tr=     0.000000   -0.000000   -0.000000
         Rot=    1.000000    0.000000   -0.000000   -0.000000 Ang=   0.00 deg.
 Initial guess orbital symmetries:
       Occupied  (A1) (A1) (B2) (A1) (B1)
       Virtual   (A1) (B2) (B2) (A1) (B1) (A1) (B2) (A1)
 Keep R1 ints in memory in symmetry-blocked form, NReq=807533.
 Requested convergence on RMS density matrix=1.00D-08 within 128 cycles.
 Requested convergence on MAX density matrix=1.00D-06.
 Requested convergence on             energy=1.00D-06.
 No special actions if energy rises.
 SCF Done:  E(RHF) =  -75.5850135239     A.U. after    8 cycles
            NFock=  8  Conv=0.56D-08     -V/T= 2.0031
 ExpMin= 1.83D-01 ExpMax= 3.22D+02 ExpMxC= 3.22D+02 IAcc=3 IRadAn=         5 AccDes= 0.00D+00
 HarFok:  IExCor=  205 AccDes= 0.00D+00 IRadAn=         5 IDoV=-2 UseB2=F ITyADJ=14
 ICtDFT= 12500011 ScaDFX=  1.000000  1.000000  1.000000  1.000000
 Range of M.O.s used for correlation:     2    13
 NBasis=    13 NAE=     5 NBE=     5 NFC=     1 NFV=     0
 NROrb=     12 NOA=     4 NOB=     4 NVA=     8 NVB=     8
 Fully direct method using O(ONN) memory.
 JobTyp=1 Pass  1:  I=   2 to   5 NPSUse=  1 ParTrn=F ParDer=F DoDerP=T.
 Spin components of T(2) and E(2):
     alpha-alpha T2 =       0.3337822877D-02 E2=     -0.1381287161D-01
     alpha-beta  T2 =       0.2514768365D-01 E2=     -0.9515981523D-01
     beta-beta   T2 =       0.3337822877D-02 E2=     -0.1381287161D-01
 ANorm=    0.1015787049D+01
 E2 =    -0.1227855584D+00 EUMP2 =    -0.75707799082371D+02
          IDoAtm=111
          Differentiating once with respect to electric field.
                with respect to dipole field.
          Differentiating once with respect to nuclear coordinates.
 Keep R1 ints in memory in symmetry-blocked form, NReq=808036.
          There are     1 degrees of freedom in the 1st order CPHF.  IDoFFX=0 NUNeed=     1.
 LinEq1:  Iter=  0 NonCon=     1 RMS=8.39D-03 Max=3.46D-02 NDo=     1
 AX will form     1 AO Fock derivatives at one time.
 LinEq1:  Iter=  1 NonCon=     1 RMS=1.98D-03 Max=7.36D-03 NDo=     1
 LinEq1:  Iter=  2 NonCon=     1 RMS=6.28D-04 Max=2.69D-03 NDo=     1
 LinEq1:  Iter=  3 NonCon=     1 RMS=3.86D-05 Max=1.20D-04 NDo=     1
 LinEq1:  Iter=  4 NonCon=     1 RMS=2.46D-06 Max=9.40D-06 NDo=     1
 LinEq1:  Iter=  5 NonCon=     1 RMS=9.21D-08 Max=2.96D-07 NDo=     1
 LinEq1:  Iter=  6 NonCon=     1 RMS=8.73D-09 Max=3.35D-08 NDo=     1
 LinEq1:  Iter=  7 NonCon=     1 RMS=5.52D-10 Max=2.00D-09 NDo=     1
 LinEq1:  Iter=  8 NonCon=     0 RMS=4.97D-11 Max=1.49D-10 NDo=     1
 Linear equations converged to 1.000D-10 1.000D-09 after     8 iterations.
 End of Minotr F.D. properties file   721 does not exist.
 End of Minotr F.D. properties file   722 does not exist.
 End of Minotr F.D. properties file   788 does not exist.
 Calling FoFJK, ICntrl=  10002127 FMM=F ISym2X=1 I1Cent= 0 IOpClX= 0 NMat=1 NMatS=1 NMatT=0.
 ***** Axes restored to original set *****
 -------------------------------------------------------------------
 Center     Atomic                   Forces (Hartrees/Bohr)
 Number     Number              X              Y              Z
 -------------------------------------------------------------------
      1        8          -0.000000000    0.000000000    0.000176015
      2        1           0.000000000   -0.000659379   -0.000088007
      3        1           0.000000000    0.000659379   -0.000088007
 -------------------------------------------------------------------
 Cartesian Forces:  Max     0.000659379 RMS     0.000319032

 GradGradGradGradGradGradGradGradGradGradGradGradGradGradGradGradGradGrad
 Berny optimization.
 Using GEDIIS/GDIIS optimizer.
 FormGI is forming the generalized inverse of G from B-inverse, IUseBI=4.
 Internal  Forces:  Max     0.000881142 RMS     0.000636837
 Search for a local minimum.
 Step number   3 out of a maximum of   20
 All quantities printed in internal units (Hartrees-Bohrs-Radians)
 Mixed Optimization -- En-DIIS/RFO-DIIS
 Update second derivatives using D2CorX and points    1    2    3
 DE= -8.75D-05 DEPred=-8.38D-05 R= 1.04D+00
 TightC=F SS=  1.41D+00  RLast= 3.00D-02 DXNew= 5.0454D-01 9.0056D-02
 Trust test= 1.04D+00 RLast= 3.00D-02 DXMaxT set to 3.00D-01
 The second derivative matrix:
                          R1        R2        A1
           R1           0.47824
           R2          -0.07649   0.47824
           A1           0.02060   0.02060   0.16555
 ITU=  1  1  0
 Use linear search instead of GDIIS.
     Eigenvalues ---    0.16201   0.40528   0.55473
 RFO step:  Lambda=-4.84083221D-06 EMin= 1.62009277D-01
 Quartic linear search produced a step of -0.05178.
 Iteration  1 RMS(Cart)=  0.00333213 RMS(Int)=  0.00000519
 Iteration  2 RMS(Cart)=  0.00000384 RMS(Int)=  0.00000000
 Iteration  3 RMS(Cart)=  0.00000000 RMS(Int)=  0.00000000
 ClnCor:  largest displacement from symmetrization is 4.00D-16 for atom     3.
 Variable       Old X    -DE/DX   Delta X   Delta X   Delta X     New X
                                 (Linear)    (Quad)   (Total)
    R1        1.86848   0.00047  -0.00064   0.00154   0.00090   1.86938
    R2        1.86848   0.00047  -0.00064   0.00154   0.00090   1.86938
    A1        1.83108   0.00088   0.00127   0.00385   0.00512   1.83619
         Item               Value     Threshold  Converged?
 Maximum Force            0.000881     0.000450     NO 
 RMS     Force            0.000637     0.000300     NO 
 Maximum Displacement     0.003624     0.001800     NO 
 RMS     Displacement     0.003331     0.001200     NO 
 Predicted change in Energy=-2.670905D-06
 GradGradGradGradGradGradGradGradGradGradGradGradGradGradGradGradGradGrad

                          Input orientation:                          
 ---------------------------------------------------------------------
 Center     Atomic      Atomic             Coordinates (Angstroms)
 Number     Number       Type             X           Y           Z
 ---------------------------------------------------------------------
      1          8           0        0.000000   -0.000000   -0.141878
      2          1           0        0.000000   -0.785894    0.458918
      3          1           0       -0.000000    0.785894    0.458918
 ---------------------------------------------------------------------
                    Distance matrix (angstroms):
                    1          2          3
     1  O    0.000000
     2  H    0.989235   0.000000
     3  H    0.989235   1.571788   0.000000
 Stoichiometry    H2O
 Framework group  C2V[C2(O),SGV(H2)]
 Deg. of freedom     2
 Full point group                 C2V     NOp   4
 Largest Abelian subgroup         C2V     NOp   4
 Largest concise Abelian subgroup C2      NOp   2
                         Standard orientation:                         
 ---------------------------------------------------------------------
 Center     Atomic      Atomic             Coordinates (Angstroms)
 Number     Number       Type             X           Y           Z
 ---------------------------------------------------------------------
      1          8           0       -0.000000    0.000000    0.120159
      2          1           0        0.000000    0.785894   -0.480637
      3          1           0       -0.000000   -0.785894   -0.480637
 ---------------------------------------------------------------------
 Rotational constants (GHZ):         782.1552365         405.9515919         267.2463080
 Standard basis: 3-21G (6D, 7F)
 There are     7 symmetry adapted cartesian basis functions of A1  symmetry.
 There are     0 symmetry adapted cartesian basis functions of A2  symmetry.
 There are     2 symmetry adapted cartesian basis functions of B1  symmetry.
 There are     4 symmetry adapted cartesian basis functions of B2  symmetry.
 There are     7 symmetry adapted basis functions of A1  symmetry.
 There are     0 symmetry adapted basis functions of A2  symmetry.
 There are     2 symmetry adapted basis functions of B1  symmetry.
 There are     4 symmetry adapted basis functions of B2  symmetry.
    13 basis functions,    21 primitive gaussians,    13 cartesian basis functions
     5 alpha electrons        5 beta electrons
       nuclear repulsion energy         8.8956470646 Hartrees.
 NAtoms=    3 NActive=    3 NUniq=    2 SFac= 2.25D+00 NAtFMM=   60 NAOKFM=F Big=F
 Integral buffers will be    131072 words long.
 Raffenetti 1 integral format.
 Two-electron integral symmetry is turned on.
 One-electron integrals computed using PRISM.
 NBasis=    13 RedAO= T EigKep=  1.15D-01  NBF=     7     0     2     4
 NBsUse=    13 1.00D-06 EigRej= -1.00D+00 NBFU=     7     0     2     4
 Initial guess from the checkpoint file:  "H2O-MP2-321G.chk"
 B after Tr=    -0.000000   -0.000000    0.000000
         Rot=    1.000000    0.000000   -0.000000    0.000000 Ang=   0.00 deg.
 Initial guess orbital symmetries:
       Occupied  (A1) (A1) (B2) (A1) (B1)
       Virtual   (A1) (B2) (B2) (A1) (B1) (A1) (B2) (A1)
 Keep R1 ints in memory in symmetry-blocked form, NReq=807533.
 Requested convergence on RMS density matrix=1.00D-08 within 128 cycles.
 Requested convergence on MAX density matrix=1.00D-06.
 Requested convergence on             energy=1.00D-06.
 No special actions if energy rises.
 SCF Done:  E(RHF) =  -75.5850080989     A.U. after    7 cycles
            NFock=  7  Conv=0.54D-08     -V/T= 2.0032
 ExpMin= 1.83D-01 ExpMax= 3.22D+02 ExpMxC= 3.22D+02 IAcc=3 IRadAn=         5 AccDes= 0.00D+00
 HarFok:  IExCor=  205 AccDes= 0.00D+00 IRadAn=         5 IDoV=-2 UseB2=F ITyADJ=14
 ICtDFT= 12500011 ScaDFX=  1.000000  1.000000  1.000000  1.000000
 Range of M.O.s used for correlation:     2    13
 NBasis=    13 NAE=     5 NBE=     5 NFC=     1 NFV=     0
 NROrb=     12 NOA=     4 NOB=     4 NVA=     8 NVB=     8
 Fully direct method using O(ONN) memory.
 JobTyp=1 Pass  1:  I=   2 to   5 NPSUse=  1 ParTrn=F ParDer=F DoDerP=T.
 Spin components of T(2) and E(2):
     alpha-alpha T2 =       0.3338412882D-02 E2=     -0.1381521951D-01
     alpha-beta  T2 =       0.2515257069D-01 E2=     -0.9516253322D-01
     beta-beta   T2 =       0.3338412882D-02 E2=     -0.1381521951D-01
 ANorm=    0.1015790036D+01
 E2 =    -0.1227929722D+00 EUMP2 =    -0.75707801071138D+02
          IDoAtm=111
          Differentiating once with respect to electric field.
                with respect to dipole field.
          Differentiating once with respect to nuclear coordinates.
 Keep R1 ints in memory in symmetry-blocked form, NReq=808036.
          There are     1 degrees of freedom in the 1st order CPHF.  IDoFFX=0 NUNeed=     1.
 LinEq1:  Iter=  0 NonCon=     1 RMS=8.39D-03 Max=3.46D-02 NDo=     1
 AX will form     1 AO Fock derivatives at one time.
 LinEq1:  Iter=  1 NonCon=     1 RMS=1.98D-03 Max=7.39D-03 NDo=     1
 LinEq1:  Iter=  2 NonCon=     1 RMS=6.31D-04 Max=2.70D-03 NDo=     1
 LinEq1:  Iter=  3 NonCon=     1 RMS=3.85D-05 Max=1.19D-04 NDo=     1
 LinEq1:  Iter=  4 NonCon=     1 RMS=2.45D-06 Max=9.33D-06 NDo=     1
 LinEq1:  Iter=  5 NonCon=     1 RMS=9.18D-08 Max=2.95D-07 NDo=     1
 LinEq1:  Iter=  6 NonCon=     1 RMS=8.66D-09 Max=3.32D-08 NDo=     1
 LinEq1:  Iter=  7 NonCon=     1 RMS=5.50D-10 Max=1.98D-09 NDo=     1
 LinEq1:  Iter=  8 NonCon=     0 RMS=4.98D-11 Max=1.49D-10 NDo=     1
 Linear equations converged to 1.000D-10 1.000D-09 after     8 iterations.
 End of Minotr F.D. properties file   721 does not exist.
 End of Minotr F.D. properties file   722 does not exist.
 End of Minotr F.D. properties file   788 does not exist.
 Calling FoFJK, ICntrl=  10002127 FMM=F ISym2X=1 I1Cent= 0 IOpClX= 0 NMat=1 NMatS=1 NMatT=0.
 ***** Axes restored to original set *****
 -------------------------------------------------------------------
 Center     Atomic                   Forces (Hartrees/Bohr)
 Number     Number              X              Y              Z
 -------------------------------------------------------------------
      1        8          -0.000000000   -0.000000000    0.000049351
      2        1           0.000000000    0.000211472   -0.000024675
      3        1           0.000000000   -0.000211472   -0.000024675
 -------------------------------------------------------------------
 Cartesian Forces:  Max     0.000211472 RMS     0.000101705

 GradGradGradGradGradGradGradGradGradGradGradGradGradGradGradGradGradGrad
 Berny optimization.
 Using GEDIIS/GDIIS optimizer.
 FormGI is forming the generalized inverse of G from B-inverse, IUseBI=4.
 Internal  Forces:  Max     0.000203447 RMS     0.000190054
 Search for a local minimum.
 Step number   4 out of a maximum of   20
 All quantities printed in internal units (Hartrees-Bohrs-Radians)
 Mixed Optimization -- En-DIIS/RFO-DIIS
 Swapping is turned off.
 Update second derivatives using D2CorX and points    1    2    3    4
 DE= -1.99D-06 DEPred=-2.67D-06 R= 7.45D-01
 TightC=F SS=  1.41D+00  RLast= 5.27D-03 DXNew= 5.0454D-01 1.5815D-02
 Trust test= 7.45D-01 RLast= 5.27D-03 DXMaxT set to 3.00D-01
 The second derivative matrix:
                          R1        R2        A1
           R1           0.50347
           R2          -0.05126   0.50347
           A1           0.04775   0.04775   0.19519
 ITU=  1  1  1  0
     Eigenvalues ---    0.17853   0.46888   0.55473
 En-DIIS/RFO-DIIS/Sim-DIIS IScMMF=       -3 using points:     4    3
 RFO step:  Lambda=-2.94817937D-07.
 DidBck=F Rises=F RFO-DIIS coefs:    0.81597    0.18403
 Iteration  1 RMS(Cart)=  0.00065328 RMS(Int)=  0.00000017
 Iteration  2 RMS(Cart)=  0.00000012 RMS(Int)=  0.00000000
 ClnCor:  largest displacement from symmetrization is 3.14D-16 for atom     3.
 Variable       Old X    -DE/DX   Delta X   Delta X   Delta X     New X
                                 (Linear)    (Quad)   (Total)
    R1        1.86938  -0.00018  -0.00017  -0.00014  -0.00031   1.86907
    R2        1.86938  -0.00018  -0.00017  -0.00014  -0.00031   1.86907
    A1        1.83619  -0.00020  -0.00094   0.00005  -0.00089   1.83530
         Item               Value     Threshold  Converged?
 Maximum Force            0.000203     0.000450     YES
 RMS     Force            0.000190     0.000300     YES
 Maximum Displacement     0.000752     0.001800     YES
 RMS     Displacement     0.000653     0.001200     YES
 Predicted change in Energy=-1.474090D-07
 Optimization completed.
    -- Stationary point found.
                           ----------------------------
                           !   Optimized Parameters   !
                           ! (Angstroms and Degrees)  !
 --------------------------                            --------------------------
 ! Name  Definition              Value          Derivative Info.                !
 --------------------------------------------------------------------------------
 ! R1    R(1,2)                  0.9892         -DE/DX =   -0.0002              !
 ! R2    R(1,3)                  0.9892         -DE/DX =   -0.0002              !
 ! A1    A(2,1,3)              105.206          -DE/DX =   -0.0002              !
 --------------------------------------------------------------------------------
 GradGradGradGradGradGradGradGradGradGradGradGradGradGradGradGradGradGrad

                          Input orientation:                          
 ---------------------------------------------------------------------
 Center     Atomic      Atomic             Coordinates (Angstroms)
 Number     Number       Type             X           Y           Z
 ---------------------------------------------------------------------
      1          8           0        0.000000   -0.000000   -0.141878
      2          1           0        0.000000   -0.785894    0.458918
      3          1           0       -0.000000    0.785894    0.458918
 ---------------------------------------------------------------------
                    Distance matrix (angstroms):
                    1          2          3
     1  O    0.000000
     2  H    0.989235   0.000000
     3  H    0.989235   1.571788   0.000000
 Stoichiometry    H2O
 Framework group  C2V[C2(O),SGV(H2)]
 Deg. of freedom     2
 Full point group                 C2V     NOp   4
 Largest Abelian subgroup         C2V     NOp   4
 Largest concise Abelian subgroup C2      NOp   2
                         Standard orientation:                         
 ---------------------------------------------------------------------
 Center     Atomic      Atomic             Coordinates (Angstroms)
 Number     Number       Type             X           Y           Z
 ---------------------------------------------------------------------
      1          8           0       -0.000000    0.000000    0.120159
      2          1           0        0.000000    0.785894   -0.480637
      3          1           0       -0.000000   -0.785894   -0.480637
 ---------------------------------------------------------------------
 Rotational constants (GHZ):         782.1552365         405.9515919         267.2463080

 **********************************************************************

            Population analysis using the SCF Density.

 **********************************************************************

 Orbital symmetries:
       Occupied  (A1) (A1) (B2) (A1) (B1)
       Virtual   (A1) (B2) (B2) (A1) (B1) (A1) (B2) (A1)
 The electronic state is 1-A1.
 Alpha  occ. eigenvalues --  -20.43428  -1.31317  -0.66976  -0.53176  -0.47790
 Alpha virt. eigenvalues --    0.25361   0.35108   1.18219   1.26436   1.78216
 Alpha virt. eigenvalues --    1.87426   2.02003   3.09331
          Condensed to atoms (all electrons):
               1          2          3
     1  O    8.201477   0.258248   0.258248
     2  H    0.258248   0.421581  -0.038815
     3  H    0.258248  -0.038815   0.421581
 Mulliken charges:
               1
     1  O   -0.717973
     2  H    0.358987
     3  H    0.358987
 Sum of Mulliken charges =  -0.00000
 Mulliken charges with hydrogens summed into heavy atoms:
               1
     1  O   -0.000000
 Electronic spatial extent (au):  <R**2>=             18.9526
 Charge=             -0.0000 electrons
 Dipole moment (field-independent basis, Debye):
    X=             -0.0000    Y=             -0.0000    Z=             -2.4270  Tot=              2.4270
 Quadrupole moment (field-independent basis, Debye-Ang):
   XX=             -6.8878   YY=             -4.0574   ZZ=             -5.8394
   XY=              0.0000   XZ=              0.0000   YZ=             -0.0000
 Traceless Quadrupole moment (field-independent basis, Debye-Ang):
   XX=             -1.2929   YY=              1.5375   ZZ=             -0.2445
   XY=              0.0000   XZ=              0.0000   YZ=             -0.0000
 Octapole moment (field-independent basis, Debye-Ang**2):
  XXX=              0.0000  YYY=             -0.0000  ZZZ=             -1.1966  XYY=             -0.0000
  XXY=              0.0000  XXZ=             -0.2888  XZZ=             -0.0000  YZZ=             -0.0000
  YYZ=             -1.2611  XYZ=             -0.0000
 Hexadecapole moment (field-independent basis, Debye-Ang**3):
 XXXX=             -4.2564 YYYY=             -5.6952 ZZZZ=             -5.4901 XXXY=             -0.0000
 XXXZ=             -0.0000 YYYX=             -0.0000 YYYZ=             -0.0000 ZZZX=             -0.0000
 ZZZY=             -0.0000 XXYY=             -1.9229 XXZZ=             -1.6755 YYZZ=             -1.5299
 XXYZ=              0.0000 YYXZ=              0.0000 ZZXY=              0.0000
 N-N= 8.895647064583D+00 E-N=-1.974538693545D+02  KE= 7.534632488989D+01
 Symmetry A1   KE= 6.741219000738D+01
 Symmetry A2   KE= 0.000000000000D+00
 Symmetry B1   KE= 4.667965265275D+00
 Symmetry B2   KE= 3.266169617239D+00
 Unable to Open any file for archive entry.
 1\1\GINC-BS001\FOpt\RMP2-FC\3-21G\H2O1\PNATT\10-Aug-2026\0\\# opt freq
 =hpmodes mp2/3-21g geom=connectivity\\h2o vibration\\0,1\O,0.,0.,-0.14
 18779471\H,0.,-0.7858938786,0.4589183586\H,0.,0.7858938786,0.458918358
 6\\Version=ES64L-G16RevC.01\State=1-A1\HF=-75.5850081\MP2=-75.7078011\
 RMSD=5.447e-09\RMSF=1.017e-04\Dipole=0.,0.,0.9078842\PG=C02V [C2(O1),S
 GV(H2)]\\@
 The archive entry for this job was punched.


 "MATHEMATICS IS THE ART OF GIVING THE SAME NAME
 TO DIFFERENT THINGS."
                    - H. POINCARE
 Job cpu time:       0 days  0 hours  0 minutes  3.9 seconds.
 Elapsed time:       0 days  0 hours  0 minutes  3.5 seconds.
 File lengths (MBytes):  RWF=      6 Int=      0 D2E=      0 Chk=      1 Scr=      1
 Normal termination of Gaussian 16 at Mon Aug 10 16:19:56 2026.
 Link1:  Proceeding to internal job step number  2.
 -------------------------------------------------------------------
 #N Geom=AllCheck Guess=TCheck SCRF=Check GenChk RMP2(FC)/3-21G Freq
 -------------------------------------------------------------------
 1/10=4,29=7,30=1,38=1,40=1/1,3;
 2/12=2,40=1/2;
 3/5=5,11=1,14=-4,25=1,30=1,70=2,71=2,116=1,140=1/1,2,3;
 4/5=101/1;
 5/5=2,38=6,98=1/2;
 8/6=3,8=1,10=1,19=11,30=-1/1;
 9/15=3,16=-3/6;
 11/6=1,8=1,15=11,17=12,24=-1,27=1,28=-2,29=300,32=6,42=3/1,2,10;
 10/6=2,21=1/2;
 8/6=4,8=1,10=1,19=11,30=-1/11,4;
 10/5=1,20=4/2;
 11/12=2,14=11,16=1,17=2,28=-2,42=3,76=2/2,10,12;
 6/7=2,8=2,9=2,10=2/1;
 7/8=11,10=1,12=2,25=1,44=2/1,2,3,16;
 1/10=4,30=1/3;
 99//99;
 Structure from the checkpoint file:  "H2O-MP2-321G.chk"
 -------------
 h2o vibration
 -------------
 Charge =  0 Multiplicity = 1
 Redundant internal coordinates found in file.  (old form).
 O,0,0.,0.,-0.1418779471
 H,0,0.,-0.7858938786,0.4589183586
 H,0,0.,0.7858938786,0.4589183586
 Recover connectivity data from disk.

 GradGradGradGradGradGradGradGradGradGradGradGradGradGradGradGradGradGrad
 Berny optimization.
 Initialization pass.
                           ----------------------------
                           !    Initial Parameters    !
                           ! (Angstroms and Degrees)  !
 --------------------------                            --------------------------
 ! Name  Definition              Value          Derivative Info.                !
 --------------------------------------------------------------------------------
 ! R1    R(1,2)                  0.9892         calculate D2E/DX2 analytically  !
 ! R2    R(1,3)                  0.9892         calculate D2E/DX2 analytically  !
 ! A1    A(2,1,3)              105.206          calculate D2E/DX2 analytically  !
 --------------------------------------------------------------------------------
 Trust Radius=3.00D-01 FncErr=1.00D-07 GrdErr=1.00D-07 EigMax=2.50D+02 EigMin=1.00D-04
 Number of steps in this run=      2 maximum allowed number of steps=      2.
 GradGradGradGradGradGradGradGradGradGradGradGradGradGradGradGradGradGrad

                          Input orientation:                          
 ---------------------------------------------------------------------
 Center     Atomic      Atomic             Coordinates (Angstroms)
 Number     Number       Type             X           Y           Z
 ---------------------------------------------------------------------
      1          8           0        0.000000   -0.000000   -0.141878
      2          1           0        0.000000   -0.785894    0.458918
      3          1           0       -0.000000    0.785894    0.458918
 ---------------------------------------------------------------------
                    Distance matrix (angstroms):
                    1          2          3
     1  O    0.000000
     2  H    0.989235   0.000000
     3  H    0.989235   1.571788   0.000000
 Stoichiometry    H2O
 Framework group  C2V[C2(O),SGV(H2)]
 Deg. of freedom     2
 Full point group                 C2V     NOp   4
 Largest Abelian subgroup         C2V     NOp   4
 Largest concise Abelian subgroup C2      NOp   2
                         Standard orientation:                         
 ---------------------------------------------------------------------
 Center     Atomic      Atomic             Coordinates (Angstroms)
 Number     Number       Type             X           Y           Z
 ---------------------------------------------------------------------
      1          8           0       -0.000000    0.000000    0.120159
      2          1           0        0.000000    0.785894   -0.480637
      3          1           0       -0.000000   -0.785894   -0.480637
 ---------------------------------------------------------------------
 Rotational constants (GHZ):         782.1552365         405.9515919         267.2463080
 Standard basis: 3-21G (6D, 7F)
 There are     7 symmetry adapted cartesian basis functions of A1  symmetry.
 There are     0 symmetry adapted cartesian basis functions of A2  symmetry.
 There are     2 symmetry adapted cartesian basis functions of B1  symmetry.
 There are     4 symmetry adapted cartesian basis functions of B2  symmetry.
 There are     7 symmetry adapted basis functions of A1  symmetry.
 There are     0 symmetry adapted basis functions of A2  symmetry.
 There are     2 symmetry adapted basis functions of B1  symmetry.
 There are     4 symmetry adapted basis functions of B2  symmetry.
    13 basis functions,    21 primitive gaussians,    13 cartesian basis functions
     5 alpha electrons        5 beta electrons
       nuclear repulsion energy         8.8956470646 Hartrees.
 NAtoms=    3 NActive=    3 NUniq=    2 SFac= 2.25D+00 NAtFMM=   60 NAOKFM=F Big=F
 Integral buffers will be    131072 words long.
 Raffenetti 1 integral format.
 Two-electron integral symmetry is turned on.
 One-electron integrals computed using PRISM.
 NBasis=    13 RedAO= T EigKep=  1.15D-01  NBF=     7     0     2     4
 NBsUse=    13 1.00D-06 EigRej= -1.00D+00 NBFU=     7     0     2     4
 Initial guess from the checkpoint file:  "H2O-MP2-321G.chk"
 B after Tr=    -0.000000    0.000000    0.000000
         Rot=    1.000000   -0.000000   -0.000000    0.000000 Ang=   0.00 deg.
 Initial guess orbital symmetries:
       Occupied  (A1) (A1) (B2) (A1) (B1)
       Virtual   (A1) (B2) (B2) (A1) (B1) (A1) (B2) (A1)
 Keep R1 ints in memory in symmetry-blocked form, NReq=807533.
 Requested convergence on RMS density matrix=1.00D-08 within 128 cycles.
 Requested convergence on MAX density matrix=1.00D-06.
 Requested convergence on             energy=1.00D-06.
 No special actions if energy rises.
 SCF Done:  E(RHF) =  -75.5850080989     A.U. after    1 cycles
            NFock=  1  Conv=0.25D-09     -V/T= 2.0032
 ExpMin= 1.83D-01 ExpMax= 3.22D+02 ExpMxC= 3.22D+02 IAcc=3 IRadAn=         5 AccDes= 0.00D+00
 HarFok:  IExCor=  205 AccDes= 0.00D+00 IRadAn=         5 IDoV=-2 UseB2=F ITyADJ=14
 ICtDFT= 12500011 ScaDFX=  1.000000  1.000000  1.000000  1.000000
 Range of M.O.s used for correlation:     2    13
 NBasis=    13 NAE=     5 NBE=     5 NFC=     1 NFV=     0
 NROrb=     12 NOA=     4 NOB=     4 NVA=     8 NVB=     8
 Disk-based method using ON**2 memory for  4 occupieds at a time.
 Permanent disk used for amplitudes=        1880 words.
 Estimated scratch disk usage=      793291 words.
 Actual    scratch disk usage=      793291 words.
 JobTyp=1 Pass  1:  I=   2 to   5 NPSUse=  1 ParTrn=F ParDer=F DoDerP=T.
 (rs|ai) integrals will be sorted in core.
 Spin components of T(2) and E(2):
     alpha-alpha T2 =       0.3338412882D-02 E2=     -0.1381521951D-01
     alpha-beta  T2 =       0.2515257069D-01 E2=     -0.9516253321D-01
     beta-beta   T2 =       0.3338412882D-02 E2=     -0.1381521951D-01
 ANorm=    0.1015790036D+01
 E2 =    -0.1227929722D+00 EUMP2 =    -0.75707801071127D+02
 G2DrvN: will do     4 centers at a time, making    1 passes.
 Calling FoFCou, ICntrl=  3107 FMM=F I1Cent=   0 AccDes= 0.00D+00.
 End of G2Drv F.D. properties file   721 does not exist.
 End of G2Drv F.D. properties file   722 does not exist.
 End of G2Drv F.D. properties file   788 does not exist.
          IDoAtm=111
          Differentiating once with respect to electric field.
                with respect to dipole field.
          Differentiating once with respect to nuclear coordinates.
 Keep R1 ints in memory in symmetry-blocked form, NReq=808036.
          There are    12 degrees of freedom in the 1st order CPHF.  IDoFFX=6 NUNeed=    12.
      9 vectors produced by pass  0 Test12= 3.33D-16 8.33D-09 XBig12= 1.27D+00 8.50D-01.
 AX will form     9 AO Fock derivatives at one time.
      9 vectors produced by pass  1 Test12= 3.33D-16 8.33D-09 XBig12= 3.57D-02 1.12D-01.
      9 vectors produced by pass  2 Test12= 3.33D-16 8.33D-09 XBig12= 1.56D-04 6.96D-03.
      8 vectors produced by pass  3 Test12= 3.33D-16 8.33D-09 XBig12= 1.19D-06 6.33D-04.
      4 vectors produced by pass  4 Test12= 3.33D-16 8.33D-09 XBig12= 6.01D-09 5.68D-05.
      1 vectors produced by pass  5 Test12= 3.33D-16 8.33D-09 XBig12= 1.30D-13 1.73D-07.
 InvSVY:  IOpt=1 It=  1 EMax= 3.33D-16
 Solved reduced A of dimension    40 with     9 vectors.
 End of Minotr F.D. properties file   721 does not exist.
 End of Minotr F.D. properties file   722 does not exist.
 End of Minotr F.D. properties file   788 does not exist.
 MDV=   104857600.
 Form MO integral derivatives with frozen-active canonical formalism.
 Discarding MO integrals.
 Reordered first order wavefunction length =         3200
 In DefCFB: NBatch=  1 ICI=  5 ICA=  8 LFMax=  8
            Large arrays: LIAPS=       27040 LIARS=       32760 words.
 Semi-Direct transformation.
 ModeAB=           4 MOrb=             5 LenV=     104736280
 LASXX=         3455 LTotXX=        3455 LenRXX=        7860
 LTotAB=        4405 MaxLAS=        5265 LenRXY=           0
 NonZer=       11315 LenScr=      785920 LnRSAI=        5265
 LnScr1=      785920 LExtra=           0 Total=      1584965
 MaxDsk=          -1 SrtSym=           T ITran=            4
 JobTyp=0 Pass  1:  I=   1 to   5.
 (rs|ai) integrals will be sorted in core.
 Spin components of T(2) and E(2):
     alpha-alpha T2 =       0.3338412882D-02 E2=     -0.1381521951D-01
     alpha-beta  T2 =       0.2515257069D-01 E2=     -0.9516253321D-01
     beta-beta   T2 =       0.3338412882D-02 E2=     -0.1381521951D-01
 ANorm=    0.1436544045D+01
 E2 =    -0.1227929722D+00 EUMP2 =    -0.75707801071127D+02
          IDoAtm=111
          Differentiating once with respect to electric field.
                with respect to dipole field.
          Differentiating once with respect to nuclear coordinates.
          There are     1 degrees of freedom in the 1st order CPHF.  IDoFFX=0 NUNeed=     1.
 LinEq1:  Iter=  0 NonCon=     1 RMS=8.39D-03 Max=3.46D-02 NDo=     1
 LinEq1:  Iter=  1 NonCon=     1 RMS=1.98D-03 Max=7.39D-03 NDo=     1
 LinEq1:  Iter=  2 NonCon=     1 RMS=6.31D-04 Max=2.70D-03 NDo=     1
 LinEq1:  Iter=  3 NonCon=     1 RMS=3.85D-05 Max=1.19D-04 NDo=     1
 LinEq1:  Iter=  4 NonCon=     1 RMS=2.45D-06 Max=9.33D-06 NDo=     1
 LinEq1:  Iter=  5 NonCon=     1 RMS=9.18D-08 Max=2.95D-07 NDo=     1
 LinEq1:  Iter=  6 NonCon=     1 RMS=8.66D-09 Max=3.32D-08 NDo=     1
 LinEq1:  Iter=  7 NonCon=     1 RMS=5.50D-10 Max=1.98D-09 NDo=     1
 LinEq1:  Iter=  8 NonCon=     0 RMS=4.98D-11 Max=1.49D-10 NDo=     1
 Linear equations converged to 1.000D-10 1.000D-09 after     8 iterations.
 End of Minotr F.D. properties file   721 does not exist.
 End of Minotr F.D. properties file   722 does not exist.
 End of Minotr F.D. properties file   788 does not exist.
 Symmetrizing basis deriv contribution to polar:
 IMax=3 JMax=2 DiffMx= 0.00D+00
 G2DrvN: will do     4 centers at a time, making    1 passes.
 Calling FoFCou, ICntrl=  3107 FMM=F I1Cent=   0 AccDes= 0.00D+00.
 End of G2Drv F.D. properties file   721 does not exist.
 End of G2Drv F.D. properties file   722 does not exist.
 End of G2Drv F.D. properties file   788 does not exist.
 R2 and R3 integrals will be kept in memory, NReq=      808372.
 DD1Dir will call FoFMem   1 times, MxPair=        30
 NAB=    15 NAA=     0 NBB=     0.
 Discarding MO integrals.

 **********************************************************************

            Population analysis using the SCF Density.

 **********************************************************************

 Orbital symmetries:
       Occupied  (A1) (A1) (B2) (A1) (B1)
       Virtual   (A1) (B2) (B2) (A1) (B1) (A1) (B2) (A1)
 The electronic state is 1-A1.
 Alpha  occ. eigenvalues --  -20.43428  -1.31317  -0.66976  -0.53176  -0.47790
 Alpha virt. eigenvalues --    0.25361   0.35108   1.18219   1.26436   1.78216
 Alpha virt. eigenvalues --    1.87426   2.02003   3.09331
          Condensed to atoms (all electrons):
               1          2          3
     1  O    8.201477   0.258248   0.258248
     2  H    0.258248   0.421581  -0.038815
     3  H    0.258248  -0.038815   0.421581
 Mulliken charges:
               1
     1  O   -0.717973
     2  H    0.358987
     3  H    0.358987
 Sum of Mulliken charges =  -0.00000
 Mulliken charges with hydrogens summed into heavy atoms:
               1
     1  O   -0.000000
 APT charges:
               1
     1  O   -0.423134
     2  H    0.211567
     3  H    0.211567
 Sum of APT charges =  -0.00000
 APT charges with hydrogens summed into heavy atoms:
               1
     1  O   -0.000000
 Electronic spatial extent (au):  <R**2>=             18.9526
 Charge=             -0.0000 electrons
 Dipole moment (field-independent basis, Debye):
    X=             -0.0000    Y=             -0.0000    Z=             -2.4270  Tot=              2.4270
 Quadrupole moment (field-independent basis, Debye-Ang):
   XX=             -6.8878   YY=             -4.0574   ZZ=             -5.8394
   XY=              0.0000   XZ=              0.0000   YZ=             -0.0000
 Traceless Quadrupole moment (field-independent basis, Debye-Ang):
   XX=             -1.2929   YY=              1.5375   ZZ=             -0.2445
   XY=              0.0000   XZ=              0.0000   YZ=             -0.0000
 Octapole moment (field-independent basis, Debye-Ang**2):
  XXX=              0.0000  YYY=             -0.0000  ZZZ=             -1.1966  XYY=             -0.0000
  XXY=             -0.0000  XXZ=             -0.2888  XZZ=             -0.0000  YZZ=             -0.0000
  YYZ=             -1.2611  XYZ=             -0.0000
 Hexadecapole moment (field-independent basis, Debye-Ang**3):
 XXXX=             -4.2564 YYYY=             -5.6952 ZZZZ=             -5.4901 XXXY=             -0.0000
 XXXZ=             -0.0000 YYYX=             -0.0000 YYYZ=             -0.0000 ZZZX=             -0.0000
 ZZZY=             -0.0000 XXYY=             -1.9229 XXZZ=             -1.6755 YYZZ=             -1.5299
 XXYZ=              0.0000 YYXZ=              0.0000 ZZXY=              0.0000
 N-N= 8.895647064583D+00 E-N=-1.974538693609D+02  KE= 7.534632489486D+01
 Symmetry A1   KE= 6.741219000162D+01
 Symmetry A2   KE= 0.000000000000D+00
 Symmetry B1   KE= 4.667965281019D+00
 Symmetry B2   KE= 3.266169612215D+00
  Exact polarizability:       0.778       0.000       7.164       0.000       0.000       4.115
 Approx polarizability:       0.559       0.000       5.130       0.000       0.000       3.183
 Calling FoFJK, ICntrl=  10100127 FMM=F ISym2X=1 I1Cent= 0 IOpClX= 0 NMat=1 NMatS=1 NMatT=0.
 Full mass-weighted force constant matrix:
 Low frequencies ---   -0.0024   -0.0021   -0.0017   25.3308   51.7388   61.1021
 Low frequencies --- 1722.4570 3501.5073 3660.7973
 Diagonal vibrational polarizability:
        0.0000000       0.0000144       0.4546295
 Harmonic frequencies (cm**-1), IR intensities (KM/Mole), Raman scattering
 activities (A**4/AMU), depolarization ratios for plane and unpolarized
 incident light, reduced masses (AMU), force constants (mDyne/A),
 and normal coordinates:
                           1         2         3
                          A1        A1        B2
       Frequencies ---  1722.4570 3501.5073 3660.7973
    Reduced masses ---     1.0916    1.0369    1.0826
   Force constants ---     1.9082    7.4906    8.5478
    IR Intensities ---    48.2783    7.6157    0.0072
 Coord Atom Element:
   1     1     8         -0.00000   0.00000  -0.00000
   2     1     8          0.00000   0.00000  -0.07062
   3     1     8         -0.07478   0.04408   0.00000
   1     2     1          0.00000   0.00000   0.00000
   2     2     1          0.38084   0.61374   0.56036
   3     2     1          0.59343  -0.34979  -0.42838
   1     3     1          0.00000  -0.00000   0.00000
   2     3     1         -0.38084  -0.61374   0.56036
   3     3     1          0.59343  -0.34979   0.42838
 Harmonic frequencies (cm**-1), IR intensities (KM/Mole), Raman scattering
 activities (A**4/AMU), depolarization ratios for plane and unpolarized
 incident light, reduced masses (AMU), force constants (mDyne/A),
 and normal coordinates:
                      1                      2                      3
                     A1                     A1                     B2
 Frequencies --   1722.4570              3501.5073              3660.7973
 Red. masses --      1.0916                 1.0369                 1.0826
 Frc consts  --      1.9082                 7.4906                 8.5478
 IR Inten    --     48.2783                 7.6157                 0.0072
  Atom  AN      X      Y      Z        X      Y      Z        X      Y      Z
     1   8    -0.00   0.00  -0.07     0.00   0.00   0.04    -0.00  -0.07   0.00
     2   1     0.00   0.38   0.59     0.00   0.61  -0.35     0.00   0.56  -0.43
     3   1     0.00  -0.38   0.59    -0.00  -0.61  -0.35     0.00   0.56   0.43

 -------------------
 - Thermochemistry -
 -------------------
 Temperature   298.150 Kelvin.  Pressure   1.00000 Atm.
 Atom     1 has atomic number  8 and mass  15.99491
 Atom     2 has atomic number  1 and mass   1.00783
 Atom     3 has atomic number  1 and mass   1.00783
 Molecular mass:    18.01056 amu.
 Principal axes and moments of inertia in atomic units:
                           1         2         3
     Eigenvalues --     2.30740   4.44571   6.75310
           X            0.00000   0.00000   1.00000
           Y            1.00000   0.00000   0.00000
           Z            0.00000   1.00000   0.00000
 This molecule is an asymmetric top.
 Rotational symmetry number  2.
 Rotational temperatures (Kelvin)     37.53753    19.48260    12.82580
 Rotational constants (GHZ):         782.15524   405.95159   267.24631
 Zero-point vibrational energy      53142.7 (Joules/Mol)
                                   12.70140 (Kcal/Mol)
 Vibrational temperatures:   2478.23  5037.89  5267.07
          (Kelvin)
 
 Zero-point correction=                           0.020241 (Hartree/Particle)
 Thermal correction to Energy=                    0.023075
 Thermal correction to Enthalpy=                  0.024020
 Thermal correction to Gibbs Free Energy=         0.002520
 Sum of electronic and zero-point Energies=            -75.687560
 Sum of electronic and thermal Energies=               -75.684726
 Sum of electronic and thermal Enthalpies=             -75.683781
 Sum of electronic and thermal Free Energies=          -75.705281
 
                     E (Thermal)             CV                S
                      KCal/Mol        Cal/Mol-Kelvin    Cal/Mol-Kelvin
 Total                   14.480              5.995             45.249
 Electronic               0.000              0.000              0.000
 Translational            0.889              2.981             34.608
 Rotational               0.889              2.981             10.636
 Vibrational             12.703              0.034              0.005
                       Q            Log10(Q)             Ln(Q)
 Total Bot       0.693036D-01         -1.159244         -2.669259
 Total V=0       0.141563D+09          8.150950         18.768256
 Vib (Bot)       0.489680D-09         -9.310088        -21.437269
 Vib (V=0)       0.100025D+01          0.000107          0.000246
 Electronic      0.100000D+01          0.000000          0.000000
 Translational   0.300431D+07          6.477745         14.915559
 Rotational      0.471084D+02          1.673099          3.852452
 ***** Axes restored to original set *****
 -------------------------------------------------------------------
 Center     Atomic                   Forces (Hartrees/Bohr)
 Number     Number              X              Y              Z
 -------------------------------------------------------------------
      1        8          -0.000000000   -0.000000000    0.000049351
      2        1          -0.000000000    0.000211472   -0.000024675
      3        1           0.000000000   -0.000211472   -0.000024675
 -------------------------------------------------------------------
 Cartesian Forces:  Max     0.000211472 RMS     0.000101704
 FormGI is forming the generalized inverse of G from B-inverse, IUseBI=4.

 GradGradGradGradGradGradGradGradGradGradGradGradGradGradGradGradGradGrad
 Berny optimization.
 Internal  Forces:  Max     0.000203447 RMS     0.000190053
 Search for a local minimum.
 Step number   1 out of a maximum of    2
 All quantities printed in internal units (Hartrees-Bohrs-Radians)
 Second derivative matrix not updated -- analytic derivatives used.
 The second derivative matrix:
                          R1        R2        A1
           R1           0.45980
           R2          -0.01368   0.45980
           A1           0.04853   0.04853   0.19441
 ITU=  0
     Eigenvalues ---    0.17692   0.46361   0.47347
 Angle between quadratic step and forces=  25.36 degrees.
 Linear search not attempted -- first point.
 Iteration  1 RMS(Cart)=  0.00065454 RMS(Int)=  0.00000017
 Iteration  2 RMS(Cart)=  0.00000012 RMS(Int)=  0.00000000
 ClnCor:  largest displacement from symmetrization is 3.32D-17 for atom     1.
 Variable       Old X    -DE/DX   Delta X   Delta X   Delta X     New X
                                 (Linear)    (Quad)   (Total)
    R1        1.86938  -0.00018   0.00000  -0.00031  -0.00031   1.86907
    R2        1.86938  -0.00018   0.00000  -0.00031  -0.00031   1.86907
    A1        1.83619  -0.00020   0.00000  -0.00089  -0.00089   1.83530
         Item               Value     Threshold  Converged?
 Maximum Force            0.000203     0.000450     YES
 RMS     Force            0.000190     0.000300     YES
 Maximum Displacement     0.000754     0.001800     YES
 RMS     Displacement     0.000655     0.001200     YES
 Predicted change in Energy=-1.478816D-07
 Optimization completed.
    -- Stationary point found.
                           ----------------------------
                           !   Optimized Parameters   !
                           ! (Angstroms and Degrees)  !
 --------------------------                            --------------------------
 ! Name  Definition              Value          Derivative Info.                !
 --------------------------------------------------------------------------------
 ! R1    R(1,2)                  0.9892         -DE/DX =   -0.0002              !
 ! R2    R(1,3)                  0.9892         -DE/DX =   -0.0002              !
 ! A1    A(2,1,3)              105.206          -DE/DX =   -0.0002              !
 --------------------------------------------------------------------------------
 GradGradGradGradGradGradGradGradGradGradGradGradGradGradGradGradGradGrad


 ----------------------------------------------------------------------

 Electric dipole moment (input orientation):
 (Debye = 10**-18 statcoulomb cm , SI units = C m)
                  (au)            (Debye)         (10**-30 SI)
   Tot        0.907884D+00      0.230761D+01      0.769736D+01
   x          0.000000D+00      0.000000D+00      0.000000D+00
   y          0.000000D+00      0.000000D+00      0.000000D+00
   z          0.907884D+00      0.230761D+01      0.769736D+01

 Dipole polarizability, Alpha (input orientation).
 (esu units = cm**3 , SI units = C**2 m**2 J**-1)
 Alpha(0;0):
               (au)            (10**-24 esu)      (10**-40 SI)
   iso        0.401892D+01      0.595542D+00      0.662630D+00
   aniso      0.553277D+01      0.819872D+00      0.912231D+00
   xx         0.777561D+00      0.115223D+00      0.128202D+00
   yx         0.000000D+00      0.000000D+00      0.000000D+00
   yy         0.716408D+01      0.106161D+01      0.118120D+01
   zx         0.000000D+00      0.000000D+00      0.000000D+00
   zy         0.000000D+00      0.000000D+00      0.000000D+00
   zz         0.411511D+01      0.609797D+00      0.678490D+00

 ----------------------------------------------------------------------

 Dipole orientation:
     8         -0.00000000          0.00000000         -0.26811046
     1          0.00000000         -1.48512419          0.86723001
     1         -0.00000000          1.48512419          0.86723001

 Electric dipole moment (dipole orientation):
 (Debye = 10**-18 statcoulomb cm , SI units = C m)
                  (au)            (Debye)         (10**-30 SI)
   Tot        0.907884D+00      0.230761D+01      0.769736D+01
   x          0.000000D+00      0.000000D+00      0.000000D+00
   y          0.000000D+00      0.000000D+00      0.000000D+00
   z          0.907884D+00      0.230761D+01      0.769736D+01

 Dipole polarizability, Alpha (dipole orientation).
 (esu units = cm**3 , SI units = C**2 m**2 J**-1)
 Alpha(0;0):
               (au)            (10**-24 esu)      (10**-40 SI)
   iso        0.401892D+01      0.595542D+00      0.662630D+00
   aniso      0.553277D+01      0.819872D+00      0.912231D+00
   xx         0.777561D+00      0.115223D+00      0.128202D+00
   yx         0.000000D+00      0.000000D+00      0.000000D+00
   yy         0.716408D+01      0.106161D+01      0.118120D+01
   zx         0.000000D+00      0.000000D+00      0.000000D+00
   zy         0.000000D+00      0.000000D+00      0.000000D+00
   zz         0.411511D+01      0.609797D+00      0.678490D+00

 ----------------------------------------------------------------------
 Unable to Open any file for archive entry.
 1\1\GINC-BS001\Freq\RMP2-FC\3-21G\H2O1\PNATT\10-Aug-2026\0\\#N Geom=Al
 lCheck Guess=TCheck SCRF=Check GenChk RMP2(FC)/3-21G Freq\\h2o vibrati
 on\\0,1\O,0.,0.,-0.1418779471\H,0.,-0.7858938786,0.4589183586\H,0.,0.7
 858938786,0.4589183586\\Version=ES64L-G16RevC.01\State=1-A1\HF=-75.585
 0081\MP2=-75.7078011\RMSD=2.522e-10\RMSF=1.017e-04\ZeroPoint=0.020241\
 Thermal=0.0230755\ETot=-75.6847256\HTot=-75.6837814\GTot=-75.7052808\D
 ipole=0.,0.,0.9078842\DipoleDeriv=-0.7996581,0.,0.,0.,-0.2761715,0.,0.
 ,0.,-0.1935722,0.3998291,0.,0.,0.,0.1380857,0.1354378,0.,0.2000963,0.0
 967861,0.3998291,0.,0.,0.,0.1380857,-0.1354378,0.,-0.2000963,0.0967861
 \Polar=0.7775606,0.,7.1640816,0.,0.,4.1151128\PG=C02V [C2(O1),SGV(H2)]
 \NImag=0\\0.00004347,0.,0.59762198,0.,0.,0.36959059,-0.00002173,0.,0.,
 0.00008206,0.,-0.29881099,0.14791709,0.,0.33574806,0.,0.22841695,-0.18
 479530,0.,-0.18816702,0.17977838,-0.00002173,0.,0.,-0.00006033,0.,0.,0
 .00008206,0.,-0.29881099,-0.14791709,0.,-0.03693707,-0.04024993,0.,0.3
 3574806,0.,-0.22841695,-0.18479530,0.,0.04024993,0.00501692,0.,0.18816
 702,0.17977838\\0.,0.,-0.00004935,0.,-0.00021147,0.00002468,0.,0.00021
 147,0.00002468\\\@
 The archive entry for this job was punched.


 THE TEST OF A FIRST RATE INTELLIGENCE IS THE ABILITY TO HOLD TWO OPPOSED
 IDEAS IN THE MIND AT THE SAME TIME, AND STILL RETAIN THE ABILITY TO FUNCTION.
 ONE SHOULD, FOR EXAMPLE, BE ABLE TO SEE THAT THINGS ARE HOPELESS AND YET BE
 DETERMINED TO MAKE THEM OTHERWISE.

                                                       -- F. SCOTT FITZGERALD
 Job cpu time:       0 days  0 hours  0 minutes  2.0 seconds.
 Elapsed time:       0 days  0 hours  0 minutes  1.8 seconds.
 File lengths (MBytes):  RWF=     19 Int=      0 D2E=      0 Chk=      1 Scr=      1
 Normal termination of Gaussian 16 at Mon Aug 10 16:19:58 2026.
