 Entering Gaussian System, Link 0=g16
 Input=H2Se.gjf
 Output=H2Se.log
 Initial command:
 /opt/g16/g16/l1.exe "/home/pnatt/scratch/Gau-1472835.inp" -scrdir="/home/pnatt/scratch/"
 Entering Link 1 = /opt/g16/g16/l1.exe PID=   1472842.
  
 Copyright (c) 1988-2019, Gaussian, Inc.  All Rights Reserved.
  
 This is part of the Gaussian(R) 16 program.  It is based on
 the Gaussian(R) 09 system (copyright 2009, Gaussian, Inc.),
 the Gaussian(R) 03 system (copyright 2003, Gaussian, Inc.),
 the Gaussian(R) 98 system (copyright 1998, Gaussian, Inc.),
 the Gaussian(R) 94 system (copyright 1995, Gaussian, Inc.),
 the Gaussian 92(TM) system (copyright 1992, Gaussian, Inc.),
 the Gaussian 90(TM) system (copyright 1990, Gaussian, Inc.),
 the Gaussian 88(TM) system (copyright 1988, Gaussian, Inc.),
 the Gaussian 86(TM) system (copyright 1986, Carnegie Mellon
 University), and the Gaussian 82(TM) system (copyright 1983,
 Carnegie Mellon University). Gaussian is a federally registered
 trademark of Gaussian, Inc.
  
 This software contains proprietary and confidential information,
 including trade secrets, belonging to Gaussian, Inc.
  
 This software is provided under written license and may be
 used, copied, transmitted, or stored only in accord with that
 written license.
  
 The following legend is applicable only to US Government
 contracts under FAR:
  
                    RESTRICTED RIGHTS LEGEND
  
 Use, reproduction and disclosure by the US Government is
 subject to restrictions as set forth in subparagraphs (a)
 and (c) of the Commercial Computer Software - Restricted
 Rights clause in FAR 52.227-19.
  
 Gaussian, Inc.
 340 Quinnipiac St., Bldg. 40, Wallingford CT 06492
  
  
 ---------------------------------------------------------------
 Warning -- This program may not be used in any manner that
 competes with the business of Gaussian, Inc. or will provide
 assistance to any competitor of Gaussian, Inc.  The licensee
 of this program is prohibited from giving any competitor of
 Gaussian, Inc. access to this program.  By using this program,
 the user acknowledges that Gaussian, Inc. is engaged in the
 business of creating and licensing software in the field of
 computational chemistry and represents and warrants to the
 licensee that it is not a competitor of Gaussian, Inc. and that
 it will not use this program in any manner prohibited above.
 ---------------------------------------------------------------
  

 Cite this work as:
 Gaussian 16, Revision C.01,
 M. J. Frisch, G. W. Trucks, H. B. Schlegel, G. E. Scuseria, 
 M. A. Robb, J. R. Cheeseman, G. Scalmani, V. Barone, 
 G. A. Petersson, H. Nakatsuji, X. Li, M. Caricato, A. V. Marenich, 
 J. Bloino, B. G. Janesko, R. Gomperts, B. Mennucci, H. P. Hratchian, 
 J. V. Ortiz, A. F. Izmaylov, J. L. Sonnenberg, D. Williams-Young, 
 F. Ding, F. Lipparini, F. Egidi, J. Goings, B. Peng, A. Petrone, 
 T. Henderson, D. Ranasinghe, V. G. Zakrzewski, J. Gao, N. Rega, 
 G. Zheng, W. Liang, M. Hada, M. Ehara, K. Toyota, R. Fukuda, 
 J. Hasegawa, M. Ishida, T. Nakajima, Y. Honda, O. Kitao, H. Nakai, 
 T. Vreven, K. Throssell, J. A. Montgomery, Jr., J. E. Peralta, 
 F. Ogliaro, M. J. Bearpark, J. J. Heyd, E. N. Brothers, K. N. Kudin, 
 V. N. Staroverov, T. A. Keith, R. Kobayashi, J. Normand, 
 K. Raghavachari, A. P. Rendell, J. C. Burant, S. S. Iyengar, 
 J. Tomasi, M. Cossi, J. M. Millam, M. Klene, C. Adamo, R. Cammi, 
 J. W. Ochterski, R. L. Martin, K. Morokuma, O. Farkas, 
 J. B. Foresman, and D. J. Fox, Gaussian, Inc., Wallingford CT, 2019.
 
 ******************************************
 Gaussian 16:  ES64L-G16RevC.01  3-Jul-2019
                10-Aug-2026 
 ******************************************
 %chk=H2Se.chk
 ----------------------------------------------
 # opt freq=hpmodes mp2/3-21g geom=connectivity
 ----------------------------------------------
 1/18=20,19=15,38=1,57=2/1,3;
 2/9=110,12=2,17=6,18=5,40=1/2;
 3/5=5,11=9,25=1,30=1,71=1/1,2,3;
 4//1;
 5/5=2,38=5/2;
 8/6=4,10=1/1;
 9/15=2,16=-3/6;
 10/5=1/2;
 6/7=2,8=2,9=2,10=2/1;
 7/12=2/1,2,3,16;
 1/18=20,19=15/3(2);
 2/9=110/2;
 99//99;
 2/9=110/2;
 3/5=5,11=9,25=1,30=1,71=1/1,2,3;
 4/5=5,16=3,69=1/1;
 5/5=2,38=5/2;
 8/6=4,10=1/1;
 9/15=2,16=-3/6;
 10/5=1/2;
 7/12=2/1,2,3,16;
 1/18=20,19=15/3(-8);
 2/9=110/2;
 6/7=2,8=2,9=2,10=2/1;
 99/9=10/99;
 -------------------
 Title Card Required
 -------------------
 Symbolic Z-matrix:
 Charge =  0 Multiplicity = 1
 Se                    0.        0.        0.04715 
 H                     0.       -1.20025  -0.80155 
 H                     0.        1.20025  -0.80155 
 

 GradGradGradGradGradGradGradGradGradGradGradGradGradGradGradGradGradGrad
 Berny optimization.
 Initialization pass.
                           ----------------------------
                           !    Initial Parameters    !
                           ! (Angstroms and Degrees)  !
 --------------------------                            --------------------------
 ! Name  Definition              Value          Derivative Info.                !
 --------------------------------------------------------------------------------
 ! R1    R(1,2)                  1.47           estimate D2E/DX2                !
 ! R2    R(1,3)                  1.47           estimate D2E/DX2                !
 ! A1    A(2,1,3)              109.4712         estimate D2E/DX2                !
 --------------------------------------------------------------------------------
 Trust Radius=3.00D-01 FncErr=1.00D-07 GrdErr=1.00D-07 EigMax=2.50D+02 EigMin=1.00D-04
 Number of steps in this run=     20 maximum allowed number of steps=    100.
 GradGradGradGradGradGradGradGradGradGradGradGradGradGradGradGradGradGrad

                          Input orientation:                          
 ---------------------------------------------------------------------
 Center     Atomic      Atomic             Coordinates (Angstroms)
 Number     Number       Type             X           Y           Z
 ---------------------------------------------------------------------
      1         34           0        0.000000    0.000000    0.047150
      2          1           0        0.000000   -1.200250   -0.801555
      3          1           0        0.000000    1.200250   -0.801555
 ---------------------------------------------------------------------
                    Distance matrix (angstroms):
                    1          2          3
     1  Se   0.000000
     2  H    1.470000   0.000000
     3  H    1.470000   2.400500   0.000000
 Stoichiometry    H2Se
 Framework group  C2V[C2(Se),SGV(H2)]
 Deg. of freedom     2
 Full point group                 C2V     NOp   4
 Largest Abelian subgroup         C2V     NOp   4
 Largest concise Abelian subgroup C2      NOp   2
                         Standard orientation:                         
 ---------------------------------------------------------------------
 Center     Atomic      Atomic             Coordinates (Angstroms)
 Number     Number       Type             X           Y           Z
 ---------------------------------------------------------------------
      1         34           0        0.000000    0.000000    0.047150
      2          1           0        0.000000    1.200250   -0.801555
      3          1           0       -0.000000   -1.200250   -0.801555
 ---------------------------------------------------------------------
 Rotational constants (GHZ):         356.8671194         174.0438386         116.9885880
 Standard basis: 3-21G (6D, 7F)
 There are    14 symmetry adapted cartesian basis functions of A1  symmetry.
 There are     1 symmetry adapted cartesian basis functions of A2  symmetry.
 There are     5 symmetry adapted cartesian basis functions of B1  symmetry.
 There are     7 symmetry adapted cartesian basis functions of B2  symmetry.
 There are    14 symmetry adapted basis functions of A1  symmetry.
 There are     1 symmetry adapted basis functions of A2  symmetry.
 There are     5 symmetry adapted basis functions of B1  symmetry.
 There are     7 symmetry adapted basis functions of B2  symmetry.
    27 basis functions,    63 primitive gaussians,    27 cartesian basis functions
    18 alpha electrons       18 beta electrons
       nuclear repulsion energy        24.6993904080 Hartrees.
 NAtoms=    3 NActive=    3 NUniq=    2 SFac= 2.25D+00 NAtFMM=   60 NAOKFM=F Big=F
 Integral buffers will be    131072 words long.
 Raffenetti 1 integral format.
 Two-electron integral symmetry is turned on.
 One-electron integrals computed using PRISM.
 NBasis=    27 RedAO= T EigKep=  6.50D-03  NBF=    14     1     5     7
 NBsUse=    27 1.00D-06 EigRej= -1.00D+00 NBFU=    14     1     5     7
 ExpMin= 1.37D-01 ExpMax= 5.75D+03 ExpMxC= 5.75D+03 IAcc=3 IRadAn=         5 AccDes= 0.00D+00
 Harris functional with IExCor=  205 and IRadAn=       5 diagonalized for initial guess.
 HarFok:  IExCor=  205 AccDes= 0.00D+00 IRadAn=         5 IDoV= 1 UseB2=F ITyADJ=14
 ICtDFT=  3500011 ScaDFX=  1.000000  1.000000  1.000000  1.000000
 FoFCou: FMM=F IPFlag=           0 FMFlag=      100000 FMFlg1=           0
         NFxFlg=           0 DoJE=T BraDBF=F KetDBF=T FulRan=T
         wScrn=  0.000000 ICntrl=       500 IOpCl=  0 I1Cent=   200000004 NGrid=           0
         NMat0=    1 NMatS0=      1 NMatT0=    0 NMatD0=    1 NMtDS0=    0 NMtDT0=    0
 Petite list used in FoFCou.
 Initial guess orbital symmetries:
       Occupied  (A1) (A1) (B2) (A1) (B1) (A1) (B2) (A1) (B1) (B2)
                 (A1) (A2) (A1) (B1) (A1) (B2) (A1) (B1)
       Virtual   (A1) (B2) (B2) (A1) (B1) (A1) (A1) (B2) (A1)
 The electronic state of the initial guess is 1-A1.
 Keep R1 ints in memory in symmetry-blocked form, NReq=899398.
 Requested convergence on RMS density matrix=1.00D-08 within 128 cycles.
 Requested convergence on MAX density matrix=1.00D-06.
 Requested convergence on             energy=1.00D-06.
 No special actions if energy rises.
 SCF Done:  E(RHF) =  -2389.61418982     A.U. after    9 cycles
            NFock=  9  Conv=0.18D-08     -V/T= 1.9989
 ExpMin= 1.37D-01 ExpMax= 5.75D+03 ExpMxC= 5.75D+03 IAcc=3 IRadAn=         5 AccDes= 0.00D+00
 HarFok:  IExCor=  205 AccDes= 0.00D+00 IRadAn=         5 IDoV=-2 UseB2=F ITyADJ=14
 ICtDFT= 12500011 ScaDFX=  1.000000  1.000000  1.000000  1.000000
 Range of M.O.s used for correlation:    10    27
 NBasis=    27 NAE=    18 NBE=    18 NFC=     9 NFV=     0
 NROrb=     18 NOA=     9 NOB=     9 NVA=     9 NVB=     9
 Fully direct method using O(ONN) memory.
 JobTyp=1 Pass  1:  I=  10 to  18 NPSUse=  1 ParTrn=F ParDer=F DoDerP=T.
 Spin components of T(2) and E(2):
     alpha-alpha T2 =       0.1382373102D-02 E2=     -0.3229368578D-02
     alpha-beta  T2 =       0.2314604766D-01 E2=     -0.4762963128D-01
     beta-beta   T2 =       0.1382373102D-02 E2=     -0.3229368578D-02
 ANorm=    0.1012872546D+01
 E2 =    -0.5408836843D-01 EUMP2 =    -0.23896682781864D+04
          IDoAtm=111
          Differentiating once with respect to electric field.
                with respect to dipole field.
          Differentiating once with respect to nuclear coordinates.
 Keep R1 ints in memory in symmetry-blocked form, NReq=899991.
          There are     1 degrees of freedom in the 1st order CPHF.  IDoFFX=0 NUNeed=     1.
 LinEq1:  Iter=  0 NonCon=     1 RMS=2.65D-03 Max=1.71D-02 NDo=     1
 AX will form     1 AO Fock derivatives at one time.
 LinEq1:  Iter=  1 NonCon=     1 RMS=3.22D-04 Max=2.86D-03 NDo=     1
 LinEq1:  Iter=  2 NonCon=     1 RMS=6.97D-05 Max=5.32D-04 NDo=     1
 LinEq1:  Iter=  3 NonCon=     1 RMS=1.11D-05 Max=7.30D-05 NDo=     1
 LinEq1:  Iter=  4 NonCon=     1 RMS=5.67D-07 Max=4.35D-06 NDo=     1
 LinEq1:  Iter=  5 NonCon=     1 RMS=4.95D-08 Max=2.46D-07 NDo=     1
 LinEq1:  Iter=  6 NonCon=     1 RMS=3.40D-09 Max=2.81D-08 NDo=     1
 LinEq1:  Iter=  7 NonCon=     1 RMS=2.81D-10 Max=1.89D-09 NDo=     1
 LinEq1:  Iter=  8 NonCon=     0 RMS=1.09D-11 Max=6.95D-11 NDo=     1
 Linear equations converged to 1.000D-10 1.000D-09 after     8 iterations.
 End of Minotr F.D. properties file   721 does not exist.
 End of Minotr F.D. properties file   722 does not exist.
 End of Minotr F.D. properties file   788 does not exist.

 **********************************************************************

            Population analysis using the SCF Density.

 **********************************************************************

 Orbital symmetries:
       Occupied  (A1) (A1) (B2) (A1) (B1) (A1) (B2) (A1) (B1) (B2)
                 (A1) (A2) (B1) (A1) (A1) (B2) (A1) (B1)
       Virtual   (A1) (B2) (B2) (A1) (B1) (A1) (A1) (B2) (A1)
 The electronic state is 1-A1.
 Alpha  occ. eigenvalues -- -457.94622 -60.37166 -53.87252 -53.87178 -53.87071
 Alpha  occ. eigenvalues --   -8.86256  -6.57180  -6.56631  -6.55925  -2.54328
 Alpha  occ. eigenvalues --   -2.54289  -2.53419  -2.52904  -2.52787  -0.92621
 Alpha  occ. eigenvalues --   -0.57928  -0.43724  -0.35421
 Alpha virt. eigenvalues --    0.15767   0.18238   0.67073   0.68920   0.70899
 Alpha virt. eigenvalues --    0.71230   1.13394   1.21639  17.40073
          Condensed to atoms (all electrons):
               1          2          3
     1  Se  33.497180   0.258782   0.258782
     2  H    0.258782   0.746168  -0.012322
     3  H    0.258782  -0.012322   0.746168
 Mulliken charges:
               1
     1  Se  -0.014745
     2  H    0.007372
     3  H    0.007372
 Sum of Mulliken charges =   0.00000
 Mulliken charges with hydrogens summed into heavy atoms:
               1
     1  Se   0.000000
 Electronic spatial extent (au):  <R**2>=             59.4895
 Charge=              0.0000 electrons
 Dipole moment (field-independent basis, Debye):
    X=              0.0000    Y=              0.0000    Z=             -1.4332  Tot=              1.4332
 Quadrupole moment (field-independent basis, Debye-Ang):
   XX=            -22.2207   YY=            -17.5489   ZZ=            -19.8718
   XY=              0.0000   XZ=             -0.0000   YZ=              0.0000
 Traceless Quadrupole moment (field-independent basis, Debye-Ang):
   XX=             -2.3402   YY=              2.3316   ZZ=              0.0086
   XY=              0.0000   XZ=             -0.0000   YZ=              0.0000
 Octapole moment (field-independent basis, Debye-Ang**2):
  XXX=              0.0000  YYY=             -0.0000  ZZZ=              0.7970  XYY=              0.0000
  XXY=              0.0000  XXZ=              0.0230  XZZ=              0.0000  YZZ=              0.0000
  YYZ=              0.3237  XYZ=             -0.0000
 Hexadecapole moment (field-independent basis, Debye-Ang**3):
 XXXX=            -29.4732 YYYY=            -34.0594 ZZZZ=            -31.5755 XXXY=             -0.0000
 XXXZ=             -0.0000 YYYX=             -0.0000 YYYZ=              0.0000 ZZZX=             -0.0000
 ZZZY=              0.0000 XXYY=            -10.8687 XXZZ=            -10.2020 YYZZ=            -10.8032
 XXYZ=             -0.0000 YYXZ=             -0.0000 ZZXY=             -0.0000
 N-N= 2.469939040801D+01 E-N=-5.773957524299D+03  KE= 2.392264445475D+03
 Symmetry A1   KE= 1.735478359942D+03
 Symmetry A2   KE= 3.841755319966D+01
 Symmetry B1   KE= 3.098001537093D+02
 Symmetry B2   KE= 3.085683786232D+02
 Calling FoFJK, ICntrl=  10002127 FMM=F ISym2X=1 I1Cent= 0 IOpClX= 0 NMat=1 NMatS=1 NMatT=0.
 ***** Axes restored to original set *****
 -------------------------------------------------------------------
 Center     Atomic                   Forces (Hartrees/Bohr)
 Number     Number              X              Y              Z
 -------------------------------------------------------------------
      1       34           0.000000000   -0.000000000    0.035061155
      2        1          -0.000000000    0.006502090   -0.017530577
      3        1          -0.000000000   -0.006502090   -0.017530577
 -------------------------------------------------------------------
 Cartesian Forces:  Max     0.035061155 RMS     0.014638159

 GradGradGradGradGradGradGradGradGradGradGradGradGradGradGradGradGradGrad
 Berny optimization.
 FormGI is forming the generalized inverse of G from B-inverse, IUseBI=4.
 Internal  Forces:  Max     0.050190050 RMS     0.029242427
 Search for a local minimum.
 Step number   1 out of a maximum of   20
 All quantities printed in internal units (Hartrees-Bohrs-Radians)
 Mixed Optimization -- RFO/linear search
 Second derivative matrix not updated -- first step.
 The second derivative matrix:
                          R1        R2        A1
           R1           0.19683
           R2           0.00000   0.19683
           A1           0.00000   0.00000   0.16000
 ITU=  0
     Eigenvalues ---    0.16000   0.19683   0.19683
 RFO step:  Lambda=-1.46429611D-02 EMin= 1.60000000D-01
 Linear search not attempted -- first point.
 Iteration  1 RMS(Cart)=  0.15971719 RMS(Int)=  0.05431747
 Iteration  2 RMS(Cart)=  0.08816812 RMS(Int)=  0.00246267
 Iteration  3 RMS(Cart)=  0.00188400 RMS(Int)=  0.00000023
 Iteration  4 RMS(Cart)=  0.00000038 RMS(Int)=  0.00000000
 ClnCor:  largest displacement from symmetrization is 1.92D-14 for atom     3.
 Variable       Old X    -DE/DX   Delta X   Delta X   Delta X     New X
                                 (Linear)    (Quad)   (Total)
    R1        2.77790   0.00481   0.00000   0.02276   0.02276   2.80065
    R2        2.77790   0.00481   0.00000   0.02276   0.02276   2.80065
    A1        1.91063  -0.05019   0.00000  -0.28739  -0.28739   1.62325
         Item               Value     Threshold  Converged?
 Maximum Force            0.050190     0.000450     NO 
 RMS     Force            0.029242     0.000300     NO 
 Maximum Displacement     0.236534     0.001800     NO 
 RMS     Displacement     0.246205     0.001200     NO 
 Predicted change in Energy=-7.933755D-03
 GradGradGradGradGradGradGradGradGradGradGradGradGradGradGradGradGradGrad

                          Input orientation:                          
 ---------------------------------------------------------------------
 Center     Atomic      Atomic             Coordinates (Angstroms)
 Number     Number       Type             X           Y           Z
 ---------------------------------------------------------------------
      1         34           0       -0.000000    0.000000    0.161428
      2          1           0       -0.000000   -1.075081   -0.858693
      3          1           0        0.000000    1.075081   -0.858693
 ---------------------------------------------------------------------
                    Distance matrix (angstroms):
                    1          2          3
     1  Se   0.000000
     2  H    1.482042   0.000000
     3  H    1.482042   2.150163   0.000000
 Stoichiometry    H2Se
 Framework group  C2V[C2(Se),SGV(H2)]
 Deg. of freedom     2
 Full point group                 C2V     NOp   4
 Largest Abelian subgroup         C2V     NOp   4
 Largest concise Abelian subgroup C2      NOp   2
                         Standard orientation:                         
 ---------------------------------------------------------------------
 Center     Atomic      Atomic             Coordinates (Angstroms)
 Number     Number       Type             X           Y           Z
 ---------------------------------------------------------------------
      1         34           0        0.000000   -0.000000    0.056673
      2          1           0       -0.000000    1.075081   -0.963448
      3          1           0       -0.000000   -1.075081   -0.963448
 ---------------------------------------------------------------------
 Rotational constants (GHZ):         247.0108179         216.9299122         115.4975874
 Standard basis: 3-21G (6D, 7F)
 There are    14 symmetry adapted cartesian basis functions of A1  symmetry.
 There are     1 symmetry adapted cartesian basis functions of A2  symmetry.
 There are     5 symmetry adapted cartesian basis functions of B1  symmetry.
 There are     7 symmetry adapted cartesian basis functions of B2  symmetry.
 There are    14 symmetry adapted basis functions of A1  symmetry.
 There are     1 symmetry adapted basis functions of A2  symmetry.
 There are     5 symmetry adapted basis functions of B1  symmetry.
 There are     7 symmetry adapted basis functions of B2  symmetry.
    27 basis functions,    63 primitive gaussians,    27 cartesian basis functions
    18 alpha electrons       18 beta electrons
       nuclear repulsion energy        24.5261599991 Hartrees.
 NAtoms=    3 NActive=    3 NUniq=    2 SFac= 2.25D+00 NAtFMM=   60 NAOKFM=F Big=F
 Integral buffers will be    131072 words long.
 Raffenetti 1 integral format.
 Two-electron integral symmetry is turned on.
 One-electron integrals computed using PRISM.
 NBasis=    27 RedAO= T EigKep=  6.46D-03  NBF=    14     1     5     7
 NBsUse=    27 1.00D-06 EigRej= -1.00D+00 NBFU=    14     1     5     7
 Initial guess from the checkpoint file:  "H2Se.chk"
 B after Tr=     0.000000    0.000000    0.000000
         Rot=    1.000000    0.000000   -0.000000   -0.000000 Ang=   0.00 deg.
 Initial guess orbital symmetries:
       Occupied  (A1) (A1) (B2) (A1) (B1) (A1) (B2) (A1) (B1) (B2)
                 (A1) (A2) (B1) (A1) (A1) (B2) (A1) (B1)
       Virtual   (A1) (B2) (B2) (A1) (B1) (A1) (A1) (B2) (A1)
 ExpMin= 1.37D-01 ExpMax= 5.75D+03 ExpMxC= 5.75D+03 IAcc=3 IRadAn=         5 AccDes= 0.00D+00
 Harris functional with IExCor=  205 and IRadAn=       5 diagonalized for initial guess.
 HarFok:  IExCor=  205 AccDes= 0.00D+00 IRadAn=         5 IDoV= 1 UseB2=F ITyADJ=14
 ICtDFT=  3500011 ScaDFX=  1.000000  1.000000  1.000000  1.000000
 FoFCou: FMM=F IPFlag=           0 FMFlag=      100000 FMFlg1=           0
         NFxFlg=           0 DoJE=T BraDBF=F KetDBF=T FulRan=T
         wScrn=  0.000000 ICntrl=       500 IOpCl=  0 I1Cent=   200000004 NGrid=           0
         NMat0=    1 NMatS0=      1 NMatT0=    0 NMatD0=    1 NMtDS0=    0 NMtDT0=    0
 Petite list used in FoFCou.
 Keep R1 ints in memory in symmetry-blocked form, NReq=899398.
 Requested convergence on RMS density matrix=1.00D-08 within 128 cycles.
 Requested convergence on MAX density matrix=1.00D-06.
 Requested convergence on             energy=1.00D-06.
 No special actions if energy rises.
 SCF Done:  E(RHF) =  -2389.62161385     A.U. after    9 cycles
            NFock=  9  Conv=0.53D-09     -V/T= 1.9989
 ExpMin= 1.37D-01 ExpMax= 5.75D+03 ExpMxC= 5.75D+03 IAcc=3 IRadAn=         5 AccDes= 0.00D+00
 HarFok:  IExCor=  205 AccDes= 0.00D+00 IRadAn=         5 IDoV=-2 UseB2=F ITyADJ=14
 ICtDFT= 12500011 ScaDFX=  1.000000  1.000000  1.000000  1.000000
 Range of M.O.s used for correlation:    10    27
 NBasis=    27 NAE=    18 NBE=    18 NFC=     9 NFV=     0
 NROrb=     18 NOA=     9 NOB=     9 NVA=     9 NVB=     9
 Fully direct method using O(ONN) memory.
 JobTyp=1 Pass  1:  I=  10 to  18 NPSUse=  1 ParTrn=F ParDer=F DoDerP=T.
 Spin components of T(2) and E(2):
     alpha-alpha T2 =       0.1322215239D-02 E2=     -0.3126911880D-02
     alpha-beta  T2 =       0.2363008582D-01 E2=     -0.4811068433D-01
     beta-beta   T2 =       0.1322215239D-02 E2=     -0.3126911880D-02
 ANorm=    0.1013052080D+01
 E2 =    -0.5436450809D-01 EUMP2 =    -0.23896759783570D+04
          IDoAtm=111
          Differentiating once with respect to electric field.
                with respect to dipole field.
          Differentiating once with respect to nuclear coordinates.
 Keep R1 ints in memory in symmetry-blocked form, NReq=900005.
          There are     1 degrees of freedom in the 1st order CPHF.  IDoFFX=0 NUNeed=     1.
 LinEq1:  Iter=  0 NonCon=     1 RMS=2.83D-03 Max=2.01D-02 NDo=     1
 AX will form     1 AO Fock derivatives at one time.
 LinEq1:  Iter=  1 NonCon=     1 RMS=3.99D-04 Max=4.39D-03 NDo=     1
 LinEq1:  Iter=  2 NonCon=     1 RMS=7.38D-05 Max=4.89D-04 NDo=     1
 LinEq1:  Iter=  3 NonCon=     1 RMS=1.22D-05 Max=7.52D-05 NDo=     1
 LinEq1:  Iter=  4 NonCon=     1 RMS=6.95D-07 Max=4.84D-06 NDo=     1
 LinEq1:  Iter=  5 NonCon=     1 RMS=5.82D-08 Max=2.43D-07 NDo=     1
 LinEq1:  Iter=  6 NonCon=     1 RMS=3.45D-09 Max=2.14D-08 NDo=     1
 LinEq1:  Iter=  7 NonCon=     1 RMS=2.00D-10 Max=1.34D-09 NDo=     1
 LinEq1:  Iter=  8 NonCon=     0 RMS=1.48D-11 Max=9.10D-11 NDo=     1
 Linear equations converged to 1.000D-10 1.000D-09 after     8 iterations.
 End of Minotr F.D. properties file   721 does not exist.
 End of Minotr F.D. properties file   722 does not exist.
 End of Minotr F.D. properties file   788 does not exist.
 Calling FoFJK, ICntrl=  10002127 FMM=F ISym2X=1 I1Cent= 0 IOpClX= 0 NMat=1 NMatS=1 NMatT=0.
 ***** Axes restored to original set *****
 -------------------------------------------------------------------
 Center     Atomic                   Forces (Hartrees/Bohr)
 Number     Number              X              Y              Z
 -------------------------------------------------------------------
      1       34           0.000000000   -0.000000000    0.003976110
      2        1          -0.000000000   -0.001102270   -0.001988055
      3        1          -0.000000000    0.001102270   -0.001988055
 -------------------------------------------------------------------
 Cartesian Forces:  Max     0.003976110 RMS     0.001704379

 GradGradGradGradGradGradGradGradGradGradGradGradGradGradGradGradGradGrad
 Berny optimization.
 Using GEDIIS/GDIIS optimizer.
 FormGI is forming the generalized inverse of G from B-inverse, IUseBI=4.
 Internal  Forces:  Max     0.002168014 RMS     0.002086796
 Search for a local minimum.
 Step number   2 out of a maximum of   20
 All quantities printed in internal units (Hartrees-Bohrs-Radians)
 Mixed Optimization -- RFO/linear search
 Update second derivatives using D2CorX and points    1    2
 DE= -7.70D-03 DEPred=-7.93D-03 R= 9.71D-01
 TightC=F SS=  1.41D+00  RLast= 2.89D-01 DXNew= 5.0454D-01 8.6755D-01
 Trust test= 9.71D-01 RLast= 2.89D-01 DXMaxT set to 5.05D-01
 The second derivative matrix:
                          R1        R2        A1
           R1           0.19584
           R2          -0.00100   0.19584
           A1           0.00623   0.00623   0.16897
 ITU=  1  0
 Use linear search instead of GDIIS.
     Eigenvalues ---    0.16626   0.19683   0.19756
 RFO step:  Lambda=-4.31120690D-05 EMin= 1.66256272D-01
 Quartic linear search produced a step of  0.04525.
 Iteration  1 RMS(Cart)=  0.00972636 RMS(Int)=  0.00004613
 Iteration  2 RMS(Cart)=  0.00007378 RMS(Int)=  0.00000000
 Iteration  3 RMS(Cart)=  0.00000000 RMS(Int)=  0.00000000
 ClnCor:  largest displacement from symmetrization is 4.78D-16 for atom     1.
 Variable       Old X    -DE/DX   Delta X   Delta X   Delta X     New X
                                 (Linear)    (Quad)   (Total)
    R1        2.80065   0.00217   0.00103   0.01045   0.01148   2.81214
    R2        2.80065   0.00217   0.00103   0.01045   0.01148   2.81214
    A1        1.62325  -0.00191  -0.01300   0.00115  -0.01186   1.61139
         Item               Value     Threshold  Converged?
 Maximum Force            0.002168     0.000450     NO 
 RMS     Force            0.002087     0.000300     NO 
 Maximum Displacement     0.013310     0.001800     NO 
 RMS     Displacement     0.009764     0.001200     NO 
 Predicted change in Energy=-3.661177D-05
 GradGradGradGradGradGradGradGradGradGradGradGradGradGradGradGradGradGrad

                          Input orientation:                          
 ---------------------------------------------------------------------
 Center     Atomic      Atomic             Coordinates (Angstroms)
 Number     Number       Type             X           Y           Z
 ---------------------------------------------------------------------
      1         34           0       -0.000000   -0.000000    0.168472
      2          1           0       -0.000000   -1.073396   -0.862215
      3          1           0        0.000000    1.073396   -0.862215
 ---------------------------------------------------------------------
                    Distance matrix (angstroms):
                    1          2          3
     1  Se   0.000000
     2  H    1.488118   0.000000
     3  H    1.488118   2.146792   0.000000
 Stoichiometry    H2Se
 Framework group  C2V[C2(Se),SGV(H2)]
 Deg. of freedom     2
 Full point group                 C2V     NOp   4
 Largest Abelian subgroup         C2V     NOp   4
 Largest concise Abelian subgroup C2      NOp   2
                         Standard orientation:                         
 ---------------------------------------------------------------------
 Center     Atomic      Atomic             Coordinates (Angstroms)
 Number     Number       Type             X           Y           Z
 ---------------------------------------------------------------------
      1         34           0        0.000000    0.000000    0.057260
      2          1           0        0.000000    1.073396   -0.973427
      3          1           0       -0.000000   -1.073396   -0.973427
 ---------------------------------------------------------------------
 Rotational constants (GHZ):         241.9726692         217.6116157         114.5732464
 Standard basis: 3-21G (6D, 7F)
 There are    14 symmetry adapted cartesian basis functions of A1  symmetry.
 There are     1 symmetry adapted cartesian basis functions of A2  symmetry.
 There are     5 symmetry adapted cartesian basis functions of B1  symmetry.
 There are     7 symmetry adapted cartesian basis functions of B2  symmetry.
 There are    14 symmetry adapted basis functions of A1  symmetry.
 There are     1 symmetry adapted basis functions of A2  symmetry.
 There are     5 symmetry adapted basis functions of B1  symmetry.
 There are     7 symmetry adapted basis functions of B2  symmetry.
    27 basis functions,    63 primitive gaussians,    27 cartesian basis functions
    18 alpha electrons       18 beta electrons
       nuclear repulsion energy        24.4274103203 Hartrees.
 NAtoms=    3 NActive=    3 NUniq=    2 SFac= 2.25D+00 NAtFMM=   60 NAOKFM=F Big=F
 Integral buffers will be    131072 words long.
 Raffenetti 1 integral format.
 Two-electron integral symmetry is turned on.
 One-electron integrals computed using PRISM.
 NBasis=    27 RedAO= T EigKep=  6.46D-03  NBF=    14     1     5     7
 NBsUse=    27 1.00D-06 EigRej= -1.00D+00 NBFU=    14     1     5     7
 Initial guess from the checkpoint file:  "H2Se.chk"
 B after Tr=     0.000000   -0.000000   -0.000000
         Rot=    1.000000    0.000000    0.000000    0.000000 Ang=   0.00 deg.
 Initial guess orbital symmetries:
       Occupied  (A1) (A1) (B2) (A1) (B1) (A1) (B2) (A1) (B1) (B2)
                 (A1) (A2) (B1) (A1) (A1) (B2) (A1) (B1)
       Virtual   (B2) (A1) (B2) (A1) (B1) (A1) (A1) (B2) (A1)
 Keep R1 ints in memory in symmetry-blocked form, NReq=899398.
 Requested convergence on RMS density matrix=1.00D-08 within 128 cycles.
 Requested convergence on MAX density matrix=1.00D-06.
 Requested convergence on             energy=1.00D-06.
 No special actions if energy rises.
 SCF Done:  E(RHF) =  -2389.62147195     A.U. after    7 cycles
            NFock=  7  Conv=0.89D-08     -V/T= 1.9989
 ExpMin= 1.37D-01 ExpMax= 5.75D+03 ExpMxC= 5.75D+03 IAcc=3 IRadAn=         5 AccDes= 0.00D+00
 HarFok:  IExCor=  205 AccDes= 0.00D+00 IRadAn=         5 IDoV=-2 UseB2=F ITyADJ=14
 ICtDFT= 12500011 ScaDFX=  1.000000  1.000000  1.000000  1.000000
 Range of M.O.s used for correlation:    10    27
 NBasis=    27 NAE=    18 NBE=    18 NFC=     9 NFV=     0
 NROrb=     18 NOA=     9 NOB=     9 NVA=     9 NVB=     9
 Fully direct method using O(ONN) memory.
 JobTyp=1 Pass  1:  I=  10 to  18 NPSUse=  1 ParTrn=F ParDer=F DoDerP=T.
 Spin components of T(2) and E(2):
     alpha-alpha T2 =       0.1327789170D-02 E2=     -0.3131801898D-02
     alpha-beta  T2 =       0.2383795586D-01 E2=     -0.4828096107D-01
     beta-beta   T2 =       0.1327789170D-02 E2=     -0.3131801898D-02
 ANorm=    0.1013160172D+01
 E2 =    -0.5454456486D-01 EUMP2 =    -0.23896760165191D+04
          IDoAtm=111
          Differentiating once with respect to electric field.
                with respect to dipole field.
          Differentiating once with respect to nuclear coordinates.
 Keep R1 ints in memory in symmetry-blocked form, NReq=900005.
          There are     1 degrees of freedom in the 1st order CPHF.  IDoFFX=0 NUNeed=     1.
 LinEq1:  Iter=  0 NonCon=     1 RMS=2.87D-03 Max=2.05D-02 NDo=     1
 AX will form     1 AO Fock derivatives at one time.
 LinEq1:  Iter=  1 NonCon=     1 RMS=4.08D-04 Max=4.52D-03 NDo=     1
 LinEq1:  Iter=  2 NonCon=     1 RMS=7.51D-05 Max=5.02D-04 NDo=     1
 LinEq1:  Iter=  3 NonCon=     1 RMS=1.26D-05 Max=7.88D-05 NDo=     1
 LinEq1:  Iter=  4 NonCon=     1 RMS=7.24D-07 Max=5.02D-06 NDo=     1
 LinEq1:  Iter=  5 NonCon=     1 RMS=6.03D-08 Max=2.51D-07 NDo=     1
 LinEq1:  Iter=  6 NonCon=     1 RMS=3.60D-09 Max=2.15D-08 NDo=     1
 LinEq1:  Iter=  7 NonCon=     1 RMS=2.12D-10 Max=1.50D-09 NDo=     1
 LinEq1:  Iter=  8 NonCon=     0 RMS=1.53D-11 Max=9.36D-11 NDo=     1
 Linear equations converged to 1.000D-10 1.000D-09 after     8 iterations.
 End of Minotr F.D. properties file   721 does not exist.
 End of Minotr F.D. properties file   722 does not exist.
 End of Minotr F.D. properties file   788 does not exist.
 Calling FoFJK, ICntrl=  10002127 FMM=F ISym2X=1 I1Cent= 0 IOpClX= 0 NMat=1 NMatS=1 NMatT=0.
 ***** Axes restored to original set *****
 -------------------------------------------------------------------
 Center     Atomic                   Forces (Hartrees/Bohr)
 Number     Number              X              Y              Z
 -------------------------------------------------------------------
      1       34           0.000000000    0.000000000    0.000225832
      2        1          -0.000000000   -0.000060955   -0.000112916
      3        1          -0.000000000    0.000060955   -0.000112916
 -------------------------------------------------------------------
 Cartesian Forces:  Max     0.000225832 RMS     0.000096570

 GradGradGradGradGradGradGradGradGradGradGradGradGradGradGradGradGradGrad
 Berny optimization.
 Using GEDIIS/GDIIS optimizer.
 FormGI is forming the generalized inverse of G from B-inverse, IUseBI=4.
 Internal  Forces:  Max     0.000122174 RMS     0.000118355
 Search for a local minimum.
 Step number   3 out of a maximum of   20
 All quantities printed in internal units (Hartrees-Bohrs-Radians)
 Mixed Optimization -- En-DIIS/RFO-DIIS
 Update second derivatives using D2CorX and points    1    2    3
 DE= -3.82D-05 DEPred=-3.66D-05 R= 1.04D+00
 TightC=F SS=  1.41D+00  RLast= 2.01D-02 DXNew= 8.4853D-01 6.0323D-02
 Trust test= 1.04D+00 RLast= 2.01D-02 DXMaxT set to 5.05D-01
 The second derivative matrix:
                          R1        R2        A1
           R1           0.19189
           R2          -0.00495   0.19189
           A1           0.00849   0.00849   0.16852
 ITU=  1  1  0
 Use linear search instead of GDIIS.
     Eigenvalues ---    0.16261   0.19286   0.19683
 RFO step:  Lambda= 0.00000000D+00 EMin= 1.62605198D-01
 Quartic linear search produced a step of  0.06095.
 Iteration  1 RMS(Cart)=  0.00060345 RMS(Int)=  0.00000018
 Iteration  2 RMS(Cart)=  0.00000028 RMS(Int)=  0.00000000
 ClnCor:  largest displacement from symmetrization is 6.28D-16 for atom     3.
 Variable       Old X    -DE/DX   Delta X   Delta X   Delta X     New X
                                 (Linear)    (Quad)   (Total)
    R1        2.81214   0.00012   0.00070  -0.00000   0.00069   2.81283
    R2        2.81214   0.00012   0.00070  -0.00000   0.00069   2.81283
    A1        1.61139  -0.00011  -0.00072  -0.00001  -0.00073   1.61065
         Item               Value     Threshold  Converged?
 Maximum Force            0.000122     0.000450     YES
 RMS     Force            0.000118     0.000300     YES
 Maximum Displacement     0.000817     0.001800     YES
 RMS     Displacement     0.000604     0.001200     YES
 Predicted change in Energy=-1.237604D-07
 Optimization completed.
    -- Stationary point found.
                           ----------------------------
                           !   Optimized Parameters   !
                           ! (Angstroms and Degrees)  !
 --------------------------                            --------------------------
 ! Name  Definition              Value          Derivative Info.                !
 --------------------------------------------------------------------------------
 ! R1    R(1,2)                  1.4881         -DE/DX =    0.0001              !
 ! R2    R(1,3)                  1.4881         -DE/DX =    0.0001              !
 ! A1    A(2,1,3)               92.3257         -DE/DX =   -0.0001              !
 --------------------------------------------------------------------------------
 GradGradGradGradGradGradGradGradGradGradGradGradGradGradGradGradGradGrad

                          Input orientation:                          
 ---------------------------------------------------------------------
 Center     Atomic      Atomic             Coordinates (Angstroms)
 Number     Number       Type             X           Y           Z
 ---------------------------------------------------------------------
      1         34           0       -0.000000   -0.000000    0.168472
      2          1           0       -0.000000   -1.073396   -0.862215
      3          1           0        0.000000    1.073396   -0.862215
 ---------------------------------------------------------------------
                    Distance matrix (angstroms):
                    1          2          3
     1  Se   0.000000
     2  H    1.488118   0.000000
     3  H    1.488118   2.146792   0.000000
 Stoichiometry    H2Se
 Framework group  C2V[C2(Se),SGV(H2)]
 Deg. of freedom     2
 Full point group                 C2V     NOp   4
 Largest Abelian subgroup         C2V     NOp   4
 Largest concise Abelian subgroup C2      NOp   2
                         Standard orientation:                         
 ---------------------------------------------------------------------
 Center     Atomic      Atomic             Coordinates (Angstroms)
 Number     Number       Type             X           Y           Z
 ---------------------------------------------------------------------
      1         34           0        0.000000    0.000000    0.057260
      2          1           0       -0.000000    1.073396   -0.973427
      3          1           0       -0.000000   -1.073396   -0.973427
 ---------------------------------------------------------------------
 Rotational constants (GHZ):         241.9726692         217.6116157         114.5732464

 **********************************************************************

            Population analysis using the SCF Density.

 **********************************************************************

 Orbital symmetries:
       Occupied  (A1) (A1) (B2) (A1) (B1) (A1) (B2) (A1) (B1) (B2)
                 (A1) (A2) (B1) (A1) (A1) (B2) (A1) (B1)
       Virtual   (B2) (A1) (B2) (A1) (B1) (A1) (A1) (B2) (A1)
 The electronic state is 1-A1.
 Alpha  occ. eigenvalues -- -457.95032 -60.37533 -53.87606 -53.87556 -53.87432
 Alpha  occ. eigenvalues --   -8.86581  -6.57405  -6.57046  -6.56221  -2.54674
 Alpha  occ. eigenvalues --   -2.54579  -2.53658  -2.53288  -2.53125  -0.92620
 Alpha  occ. eigenvalues --   -0.54749  -0.46385  -0.35615
 Alpha virt. eigenvalues --    0.14923   0.18707   0.67587   0.69149   0.70745
 Alpha virt. eigenvalues --    0.74160   1.13830   1.21086  17.43959
          Condensed to atoms (all electrons):
               1          2          3
     1  Se  33.476611   0.261016   0.261016
     2  H    0.261016   0.762102  -0.022440
     3  H    0.261016  -0.022440   0.762102
 Mulliken charges:
               1
     1  Se   0.001356
     2  H   -0.000678
     3  H   -0.000678
 Sum of Mulliken charges =  -0.00000
 Mulliken charges with hydrogens summed into heavy atoms:
               1
     1  Se  -0.000000
 Electronic spatial extent (au):  <R**2>=             59.9113
 Charge=             -0.0000 electrons
 Dipole moment (field-independent basis, Debye):
    X=              0.0000    Y=             -0.0000    Z=             -1.1404  Tot=              1.1404
 Quadrupole moment (field-independent basis, Debye-Ang):
   XX=            -22.2489   YY=            -18.1615   ZZ=            -19.4660
   XY=             -0.0000   XZ=             -0.0000   YZ=              0.0000
 Traceless Quadrupole moment (field-independent basis, Debye-Ang):
   XX=             -2.2901   YY=              1.7973   ZZ=              0.4928
   XY=             -0.0000   XZ=             -0.0000   YZ=              0.0000
 Octapole moment (field-independent basis, Debye-Ang**2):
  XXX=              0.0000  YYY=              0.0000  ZZZ=              1.6863  XYY=              0.0000
  XXY=             -0.0000  XXZ=              0.3238  XZZ=              0.0000  YZZ=             -0.0000
  YYZ=              0.8355  XYZ=             -0.0000
 Hexadecapole moment (field-independent basis, Debye-Ang**3):
 XXXX=            -29.4894 YYYY=            -32.9668 ZZZZ=            -34.1748 XXXY=             -0.0000
 XXXZ=             -0.0000 YYYX=             -0.0000 YYYZ=             -0.0000 ZZZX=             -0.0000
 ZZZY=              0.0000 XXYY=            -10.5073 XXZZ=            -10.7101 YYZZ=            -10.9183
 XXYZ=              0.0000 YYXZ=             -0.0000 ZZXY=             -0.0000
 N-N= 2.442741032031D+01 E-N=-5.773302080793D+03  KE= 2.392226435187D+03
 Symmetry A1   KE= 1.735456872891D+03
 Symmetry A2   KE= 3.841755319966D+01
 Symmetry B1   KE= 3.098112481883D+02
 Symmetry B2   KE= 3.085407609081D+02
 Unable to Open any file for archive entry.
 1\1\GINC-BS001\FOpt\RMP2-FC\3-21G\H2Se1\PNATT\10-Aug-2026\0\\# opt fre
 q=hpmodes mp2/3-21g geom=connectivity\\Title Card Required\\0,1\Se,0.,
 0.,0.1684717737\H,0.,-1.0733960523,-0.8622152768\H,0.,1.0733960523,-0.
 8622152768\\Version=ES64L-G16RevC.01\State=1-A1\HF=-2389.621472\MP2=-2
 389.6760165\RMSD=8.890e-09\RMSF=9.657e-05\Dipole=0.,0.,-0.4326265\PG=C
 02V [C2(Se1),SGV(H2)]\\@
 The archive entry for this job was punched.


 THE TEST OF A FIRST RATE INTELLIGENCE IS THE ABILITY TO HOLD TWO OPPOSED
 IDEAS IN THE MIND AT THE SAME TIME, AND STILL RETAIN THE ABILITY TO FUNCTION.
 ONE SHOULD, FOR EXAMPLE, BE ABLE TO SEE THAT THINGS ARE HOPELESS AND YET BE
 DETERMINED TO MAKE THEM OTHERWISE.

                                                       -- F. SCOTT FITZGERALD
 Job cpu time:       0 days  0 hours  0 minutes  5.6 seconds.
 Elapsed time:       0 days  0 hours  0 minutes  5.4 seconds.
 File lengths (MBytes):  RWF=      6 Int=      0 D2E=      0 Chk=      1 Scr=      1
 Normal termination of Gaussian 16 at Mon Aug 10 16:19:58 2026.
 Link1:  Proceeding to internal job step number  2.
 -------------------------------------------------------------------
 #N Geom=AllCheck Guess=TCheck SCRF=Check GenChk RMP2(FC)/3-21G Freq
 -------------------------------------------------------------------
 1/10=4,29=7,30=1,38=1,40=1/1,3;
 2/12=2,40=1/2;
 3/5=5,11=1,14=-4,25=1,30=1,70=2,71=2,116=1,140=1/1,2,3;
 4/5=101/1;
 5/5=2,38=6,98=1/2;
 8/6=3,8=1,10=1,19=11,30=-1/1;
 9/15=3,16=-3/6;
 11/6=1,8=1,15=11,17=12,24=-1,27=1,28=-2,29=300,32=6,42=3/1,2,10;
 10/6=2,21=1/2;
 8/6=4,8=1,10=1,19=11,30=-1/11,4;
 10/5=1,20=4/2;
 11/12=2,14=11,16=1,17=2,28=-2,42=3,76=2/2,10,12;
 6/7=2,8=2,9=2,10=2/1;
 7/8=11,10=1,12=2,25=1,44=2/1,2,3,16;
 1/10=4,30=1/3;
 99//99;
 Structure from the checkpoint file:  "H2Se.chk"
 -------------------
 Title Card Required
 -------------------
 Charge =  0 Multiplicity = 1
 Redundant internal coordinates found in file.  (old form).
 Se,0,0.,0.,0.1684717737
 H,0,0.,-1.0733960523,-0.8622152768
 H,0,0.,1.0733960523,-0.8622152768
 Recover connectivity data from disk.

 GradGradGradGradGradGradGradGradGradGradGradGradGradGradGradGradGradGrad
 Berny optimization.
 Initialization pass.
                           ----------------------------
                           !    Initial Parameters    !
                           ! (Angstroms and Degrees)  !
 --------------------------                            --------------------------
 ! Name  Definition              Value          Derivative Info.                !
 --------------------------------------------------------------------------------
 ! R1    R(1,2)                  1.4881         calculate D2E/DX2 analytically  !
 ! R2    R(1,3)                  1.4881         calculate D2E/DX2 analytically  !
 ! A1    A(2,1,3)               92.3257         calculate D2E/DX2 analytically  !
 --------------------------------------------------------------------------------
 Trust Radius=3.00D-01 FncErr=1.00D-07 GrdErr=1.00D-07 EigMax=2.50D+02 EigMin=1.00D-04
 Number of steps in this run=      2 maximum allowed number of steps=      2.
 GradGradGradGradGradGradGradGradGradGradGradGradGradGradGradGradGradGrad

                          Input orientation:                          
 ---------------------------------------------------------------------
 Center     Atomic      Atomic             Coordinates (Angstroms)
 Number     Number       Type             X           Y           Z
 ---------------------------------------------------------------------
      1         34           0       -0.000000   -0.000000    0.168472
      2          1           0       -0.000000   -1.073396   -0.862215
      3          1           0        0.000000    1.073396   -0.862215
 ---------------------------------------------------------------------
                    Distance matrix (angstroms):
                    1          2          3
     1  Se   0.000000
     2  H    1.488118   0.000000
     3  H    1.488118   2.146792   0.000000
 Stoichiometry    H2Se
 Framework group  C2V[C2(Se),SGV(H2)]
 Deg. of freedom     2
 Full point group                 C2V     NOp   4
 Largest Abelian subgroup         C2V     NOp   4
 Largest concise Abelian subgroup C2      NOp   2
                         Standard orientation:                         
 ---------------------------------------------------------------------
 Center     Atomic      Atomic             Coordinates (Angstroms)
 Number     Number       Type             X           Y           Z
 ---------------------------------------------------------------------
      1         34           0       -0.000000    0.000000    0.057260
      2          1           0       -0.000000    1.073396   -0.973427
      3          1           0       -0.000000   -1.073396   -0.973427
 ---------------------------------------------------------------------
 Rotational constants (GHZ):         241.9726692         217.6116157         114.5732464
 Standard basis: 3-21G (6D, 7F)
 There are    14 symmetry adapted cartesian basis functions of A1  symmetry.
 There are     1 symmetry adapted cartesian basis functions of A2  symmetry.
 There are     5 symmetry adapted cartesian basis functions of B1  symmetry.
 There are     7 symmetry adapted cartesian basis functions of B2  symmetry.
 There are    14 symmetry adapted basis functions of A1  symmetry.
 There are     1 symmetry adapted basis functions of A2  symmetry.
 There are     5 symmetry adapted basis functions of B1  symmetry.
 There are     7 symmetry adapted basis functions of B2  symmetry.
    27 basis functions,    63 primitive gaussians,    27 cartesian basis functions
    18 alpha electrons       18 beta electrons
       nuclear repulsion energy        24.4274103203 Hartrees.
 NAtoms=    3 NActive=    3 NUniq=    2 SFac= 2.25D+00 NAtFMM=   60 NAOKFM=F Big=F
 Integral buffers will be    131072 words long.
 Raffenetti 1 integral format.
 Two-electron integral symmetry is turned on.
 One-electron integrals computed using PRISM.
 NBasis=    27 RedAO= T EigKep=  6.46D-03  NBF=    14     1     5     7
 NBsUse=    27 1.00D-06 EigRej= -1.00D+00 NBFU=    14     1     5     7
 Initial guess from the checkpoint file:  "H2Se.chk"
 B after Tr=     0.000000    0.000000   -0.000000
         Rot=    1.000000   -0.000000    0.000000   -0.000000 Ang=   0.00 deg.
 Initial guess orbital symmetries:
       Occupied  (A1) (A1) (B2) (A1) (B1) (A1) (B2) (A1) (B1) (B2)
                 (A1) (A2) (B1) (A1) (A1) (B2) (A1) (B1)
       Virtual   (B2) (A1) (B2) (A1) (B1) (A1) (A1) (B2) (A1)
 Keep R1 ints in memory in symmetry-blocked form, NReq=899398.
 Requested convergence on RMS density matrix=1.00D-08 within 128 cycles.
 Requested convergence on MAX density matrix=1.00D-06.
 Requested convergence on             energy=1.00D-06.
 No special actions if energy rises.
 SCF Done:  E(RHF) =  -2389.62147195     A.U. after    1 cycles
            NFock=  1  Conv=0.69D-09     -V/T= 1.9989
 ExpMin= 1.37D-01 ExpMax= 5.75D+03 ExpMxC= 5.75D+03 IAcc=3 IRadAn=         5 AccDes= 0.00D+00
 HarFok:  IExCor=  205 AccDes= 0.00D+00 IRadAn=         5 IDoV=-2 UseB2=F ITyADJ=14
 ICtDFT= 12500011 ScaDFX=  1.000000  1.000000  1.000000  1.000000
 Range of M.O.s used for correlation:    10    27
 NBasis=    27 NAE=    18 NBE=    18 NFC=     9 NFV=     0
 NROrb=     18 NOA=     9 NOB=     9 NVA=     9 NVB=     9
 Disk-based method using ON**2 memory for  9 occupieds at a time.
 Permanent disk used for amplitudes=       31752 words.
 Estimated scratch disk usage=      954373 words.
 Actual    scratch disk usage=      954373 words.
 JobTyp=1 Pass  1:  I=  10 to  18 NPSUse=  1 ParTrn=F ParDer=F DoDerP=T.
 (rs|ai) integrals will be sorted in core.
 Spin components of T(2) and E(2):
     alpha-alpha T2 =       0.1327789174D-02 E2=     -0.3131801908D-02
     alpha-beta  T2 =       0.2383795600D-01 E2=     -0.4828096122D-01
     beta-beta   T2 =       0.1327789174D-02 E2=     -0.3131801908D-02
 ANorm=    0.1013160172D+01
 E2 =    -0.5454456504D-01 EUMP2 =    -0.23896760165193D+04
 G2DrvN: will do     4 centers at a time, making    1 passes.
 Calling FoFCou, ICntrl=  3107 FMM=F I1Cent=   0 AccDes= 0.00D+00.
 End of G2Drv F.D. properties file   721 does not exist.
 End of G2Drv F.D. properties file   722 does not exist.
 End of G2Drv F.D. properties file   788 does not exist.
          IDoAtm=111
          Differentiating once with respect to electric field.
                with respect to dipole field.
          Differentiating once with respect to nuclear coordinates.
 Keep R1 ints in memory in symmetry-blocked form, NReq=899877.
          There are    12 degrees of freedom in the 1st order CPHF.  IDoFFX=6 NUNeed=    12.
      9 vectors produced by pass  0 Test12= 1.35D-15 8.33D-09 XBig12= 7.04D+00 2.05D+00.
 AX will form     9 AO Fock derivatives at one time.
      9 vectors produced by pass  1 Test12= 1.35D-15 8.33D-09 XBig12= 1.19D-01 2.13D-01.
      9 vectors produced by pass  2 Test12= 1.35D-15 8.33D-09 XBig12= 1.09D-03 1.98D-02.
      9 vectors produced by pass  3 Test12= 1.35D-15 8.33D-09 XBig12= 3.26D-06 8.72D-04.
      9 vectors produced by pass  4 Test12= 1.35D-15 8.33D-09 XBig12= 1.36D-08 4.27D-05.
      7 vectors produced by pass  5 Test12= 1.35D-15 8.33D-09 XBig12= 3.40D-11 2.47D-06.
      2 vectors produced by pass  6 Test12= 1.35D-15 8.33D-09 XBig12= 5.12D-14 1.10D-07.
 InvSVY:  IOpt=1 It=  1 EMax= 2.22D-16
 Solved reduced A of dimension    54 with     9 vectors.
 End of Minotr F.D. properties file   721 does not exist.
 End of Minotr F.D. properties file   722 does not exist.
 End of Minotr F.D. properties file   788 does not exist.
 MDV=   104857600.
 Form MO integral derivatives with frozen-active canonical formalism.
 Discarding MO integrals.
 Reordered first order wavefunction length =        52488
 In DefCFB: NBatch=  1 ICI= 18 ICA=  9 LFMax= 18
            Large arrays: LIAPS=      472392 LIARS=      704214 words.
 Semi-Direct transformation.
 ModeAB=           4 MOrb=            18 LenV=     104675772
 LASXX=        74151 LTotXX=       74151 LenRXX=      172323
 LTotAB=       98172 MaxLAS=      178362 LenRXY=           0
 NonZer=      246474 LenScr=      785920 LnRSAI=      178362
 LnScr1=      785920 LExtra=           0 Total=      1922525
 MaxDsk=          -1 SrtSym=           T ITran=            4
 JobTyp=0 Pass  1:  I=   1 to  18.
 (rs|ai) integrals will be sorted in core.
 Spin components of T(2) and E(2):
     alpha-alpha T2 =       0.1327789174D-02 E2=     -0.3131801908D-02
     alpha-beta  T2 =       0.2383795600D-01 E2=     -0.4828096122D-01
     beta-beta   T2 =       0.1327789174D-02 E2=     -0.3131801908D-02
 ANorm=    0.1432824856D+01
 E2 =    -0.5454456504D-01 EUMP2 =    -0.23896760165193D+04
          IDoAtm=111
          Differentiating once with respect to electric field.
                with respect to dipole field.
          Differentiating once with respect to nuclear coordinates.
          There are     1 degrees of freedom in the 1st order CPHF.  IDoFFX=0 NUNeed=     1.
 LinEq1:  Iter=  0 NonCon=     1 RMS=2.87D-03 Max=2.05D-02 NDo=     1
 LinEq1:  Iter=  1 NonCon=     1 RMS=4.08D-04 Max=4.52D-03 NDo=     1
 LinEq1:  Iter=  2 NonCon=     1 RMS=7.51D-05 Max=5.02D-04 NDo=     1
 LinEq1:  Iter=  3 NonCon=     1 RMS=1.26D-05 Max=7.88D-05 NDo=     1
 LinEq1:  Iter=  4 NonCon=     1 RMS=7.24D-07 Max=5.02D-06 NDo=     1
 LinEq1:  Iter=  5 NonCon=     1 RMS=6.03D-08 Max=2.51D-07 NDo=     1
 LinEq1:  Iter=  6 NonCon=     1 RMS=3.60D-09 Max=2.15D-08 NDo=     1
 LinEq1:  Iter=  7 NonCon=     1 RMS=2.12D-10 Max=1.50D-09 NDo=     1
 LinEq1:  Iter=  8 NonCon=     0 RMS=1.53D-11 Max=9.36D-11 NDo=     1
 Linear equations converged to 1.000D-10 1.000D-09 after     8 iterations.
 End of Minotr F.D. properties file   721 does not exist.
 End of Minotr F.D. properties file   722 does not exist.
 End of Minotr F.D. properties file   788 does not exist.
 Symmetrizing basis deriv contribution to polar:
 IMax=3 JMax=2 DiffMx= 0.00D+00
 G2DrvN: will do     4 centers at a time, making    1 passes.
 Calling FoFCou, ICntrl=  3107 FMM=F I1Cent=   0 AccDes= 0.00D+00.
 End of G2Drv F.D. properties file   721 does not exist.
 End of G2Drv F.D. properties file   722 does not exist.
 End of G2Drv F.D. properties file   788 does not exist.
 R2 and R3 integrals will be kept in memory, NReq=      963262.
 DD1Dir will call FoFMem   1 times, MxPair=       342
 NAB=   171 NAA=     0 NBB=     0.
 Discarding MO integrals.

 **********************************************************************

            Population analysis using the SCF Density.

 **********************************************************************

 Orbital symmetries:
       Occupied  (A1) (A1) (B2) (A1) (B1) (A1) (B2) (A1) (B1) (B2)
                 (A1) (A2) (B1) (A1) (A1) (B2) (A1) (B1)
       Virtual   (B2) (A1) (B2) (A1) (B1) (A1) (A1) (B2) (A1)
 The electronic state is 1-A1.
 Alpha  occ. eigenvalues -- -457.95032 -60.37533 -53.87606 -53.87556 -53.87432
 Alpha  occ. eigenvalues --   -8.86581  -6.57405  -6.57046  -6.56221  -2.54674
 Alpha  occ. eigenvalues --   -2.54579  -2.53658  -2.53288  -2.53125  -0.92620
 Alpha  occ. eigenvalues --   -0.54749  -0.46385  -0.35615
 Alpha virt. eigenvalues --    0.14923   0.18707   0.67587   0.69149   0.70745
 Alpha virt. eigenvalues --    0.74160   1.13830   1.21086  17.43959
          Condensed to atoms (all electrons):
               1          2          3
     1  Se  33.476611   0.261016   0.261016
     2  H    0.261016   0.762102  -0.022440
     3  H    0.261016  -0.022440   0.762102
 Mulliken charges:
               1
     1  Se   0.001356
     2  H   -0.000678
     3  H   -0.000678
 Sum of Mulliken charges =   0.00000
 Mulliken charges with hydrogens summed into heavy atoms:
               1
     1  Se   0.000000
 APT charges:
               1
     1  Se   0.102428
     2  H   -0.051214
     3  H   -0.051214
 Sum of APT charges =   0.00000
 APT charges with hydrogens summed into heavy atoms:
               1
     1  Se   0.000000
 Electronic spatial extent (au):  <R**2>=             59.9113
 Charge=              0.0000 electrons
 Dipole moment (field-independent basis, Debye):
    X=              0.0000    Y=              0.0000    Z=             -1.1404  Tot=              1.1404
 Quadrupole moment (field-independent basis, Debye-Ang):
   XX=            -22.2489   YY=            -18.1615   ZZ=            -19.4660
   XY=             -0.0000   XZ=             -0.0000   YZ=              0.0000
 Traceless Quadrupole moment (field-independent basis, Debye-Ang):
   XX=             -2.2901   YY=              1.7973   ZZ=              0.4928
   XY=             -0.0000   XZ=             -0.0000   YZ=              0.0000
 Octapole moment (field-independent basis, Debye-Ang**2):
  XXX=              0.0000  YYY=              0.0000  ZZZ=              1.6863  XYY=              0.0000
  XXY=             -0.0000  XXZ=              0.3238  XZZ=              0.0000  YZZ=              0.0000
  YYZ=              0.8355  XYZ=             -0.0000
 Hexadecapole moment (field-independent basis, Debye-Ang**3):
 XXXX=            -29.4894 YYYY=            -32.9668 ZZZZ=            -34.1748 XXXY=             -0.0000
 XXXZ=             -0.0000 YYYX=             -0.0000 YYYZ=             -0.0000 ZZZX=             -0.0000
 ZZZY=              0.0000 XXYY=            -10.5073 XXZZ=            -10.7101 YYZZ=            -10.9183
 XXYZ=              0.0000 YYXZ=             -0.0000 ZZXY=             -0.0000
 N-N= 2.442741032031D+01 E-N=-5.773302080767D+03  KE= 2.392226435173D+03
 Symmetry A1   KE= 1.735456872898D+03
 Symmetry A2   KE= 3.841755319966D+01
 Symmetry B1   KE= 3.098112481517D+02
 Symmetry B2   KE= 3.085407609237D+02
  Exact polarizability:       6.430       0.000      21.872       0.000       0.000      18.691
 Approx polarizability:       4.903       0.000      18.730       0.000      -0.000      15.899
 Calling FoFJK, ICntrl=  10100127 FMM=F ISym2X=1 I1Cent= 0 IOpClX= 0 NMat=1 NMatS=1 NMatT=0.
 Full mass-weighted force constant matrix:
 Low frequencies ---  -39.4764  -33.9526  -28.0680    0.0100    0.0128    0.0169
 Low frequencies --- 1076.7089 2231.4967 2245.5847
 Diagonal vibrational polarizability:
        0.0000000       0.3075091       0.9373989
 Harmonic frequencies (cm**-1), IR intensities (KM/Mole), Raman scattering
 activities (A**4/AMU), depolarization ratios for plane and unpolarized
 incident light, reduced masses (AMU), force constants (mDyne/A),
 and normal coordinates:
                           1         2         3
                          A1        A1        B2
       Frequencies ---  1076.7089 2231.4967 2245.5847
    Reduced masses ---     1.0219    1.0185    1.0209
   Force constants ---     0.6980    2.9882    3.0331
    IR Intensities ---    29.2355   47.8777   57.6214
 Coord Atom Element:
   1     1    34         -0.00000   0.00000  -0.00000
   2     1    34         -0.00000  -0.00000  -0.01286
   3     1    34         -0.01337   0.01164  -0.00000
   1     2     1          0.00000   0.00000  -0.00000
   2     2     1          0.46791   0.53581   0.51000
   3     2     1          0.53007  -0.46134  -0.48971
   1     3     1          0.00000  -0.00000   0.00000
   2     3     1         -0.46791  -0.53581   0.51000
   3     3     1          0.53007  -0.46134   0.48971
 Harmonic frequencies (cm**-1), IR intensities (KM/Mole), Raman scattering
 activities (A**4/AMU), depolarization ratios for plane and unpolarized
 incident light, reduced masses (AMU), force constants (mDyne/A),
 and normal coordinates:
                      1                      2                      3
                     A1                     A1                     B2
 Frequencies --   1076.7089              2231.4967              2245.5847
 Red. masses --      1.0219                 1.0185                 1.0209
 Frc consts  --      0.6980                 2.9882                 3.0331
 IR Inten    --     29.2355                47.8777                57.6214
  Atom  AN      X      Y      Z        X      Y      Z        X      Y      Z
     1  34    -0.00  -0.00  -0.01     0.00  -0.00   0.01    -0.00  -0.01  -0.00
     2   1     0.00   0.47   0.53     0.00   0.54  -0.46    -0.00   0.51  -0.49
     3   1     0.00  -0.47   0.53    -0.00  -0.54  -0.46     0.00   0.51   0.49

 -------------------
 - Thermochemistry -
 -------------------
 Temperature   298.150 Kelvin.  Pressure   1.00000 Atm.
 Atom     1 has atomic number 34 and mass  79.91652
 Atom     2 has atomic number  1 and mass   1.00783
 Atom     3 has atomic number  1 and mass   1.00783
 Molecular mass:    81.93217 amu.
 Principal axes and moments of inertia in atomic units:
                           1         2         3
     Eigenvalues --     7.45845   8.29340  15.75186
           X            0.00000   0.00000   1.00000
           Y            1.00000   0.00000  -0.00000
           Z            0.00000   1.00000   0.00000
 This molecule is an asymmetric top.
 Rotational symmetry number  2.
 Rotational temperatures (Kelvin)     11.61286    10.44371     5.49865
 Rotational constants (GHZ):         241.97267   217.61162   114.57325
 Zero-point vibrational energy      33219.0 (Joules/Mol)
                                    7.93954 (Kcal/Mol)
 Vibrational temperatures:   1549.14  3210.63  3230.90
          (Kelvin)
 
 Zero-point correction=                           0.012652 (Hartree/Particle)
 Thermal correction to Energy=                    0.015513
 Thermal correction to Enthalpy=                  0.016457
 Thermal correction to Gibbs Free Energy=        -0.008467
 Sum of electronic and zero-point Energies=          -2389.663364
 Sum of electronic and thermal Energies=             -2389.660504
 Sum of electronic and thermal Enthalpies=           -2389.659560
 Sum of electronic and thermal Free Energies=        -2389.684483
 
                     E (Thermal)             CV                S
                      KCal/Mol        Cal/Mol-Kelvin    Cal/Mol-Kelvin
 Total                    9.734              6.272             52.457
 Electronic               0.000              0.000              0.000
 Translational            0.889              2.981             39.124
 Rotational               0.889              2.981             13.263
 Vibrational              7.957              0.310              0.070
                       Q            Log10(Q)             Ln(Q)
 Total Bot       0.784356D+04          3.894513          8.967448
 Total V=0       0.517890D+10          9.714238         22.367859
 Vib (Bot)       0.152302D-05         -5.817295        -13.394816
 Vib (V=0)       0.100561D+01          0.002430          0.005596
 Electronic      0.100000D+01          0.000000          0.000000
 Translational   0.291498D+08          7.464636         17.187959
 Rotational      0.176674D+03          2.247172          5.174305
 ***** Axes restored to original set *****
 -------------------------------------------------------------------
 Center     Atomic                   Forces (Hartrees/Bohr)
 Number     Number              X              Y              Z
 -------------------------------------------------------------------
      1       34           0.000000000    0.000000000    0.000225834
      2        1          -0.000000000   -0.000060955   -0.000112917
      3        1          -0.000000000    0.000060955   -0.000112917
 -------------------------------------------------------------------
 Cartesian Forces:  Max     0.000225834 RMS     0.000096570
 FormGI is forming the generalized inverse of G from B-inverse, IUseBI=4.

 GradGradGradGradGradGradGradGradGradGradGradGradGradGradGradGradGradGrad
 Berny optimization.
 Internal  Forces:  Max     0.000122175 RMS     0.000118356
 Search for a local minimum.
 Step number   1 out of a maximum of    2
 All quantities printed in internal units (Hartrees-Bohrs-Radians)
 Second derivative matrix not updated -- analytic derivatives used.
 The second derivative matrix:
                          R1        R2        A1
           R1           0.18863
           R2          -0.00120   0.18863
           A1           0.01176   0.01176   0.17444
 ITU=  0
     Eigenvalues ---    0.16308   0.18983   0.19878
 Angle between quadratic step and forces=   3.81 degrees.
 Linear search not attempted -- first point.
 Iteration  1 RMS(Cart)=  0.00059871 RMS(Int)=  0.00000017
 Iteration  2 RMS(Cart)=  0.00000028 RMS(Int)=  0.00000000
 ClnCor:  largest displacement from symmetrization is 5.61D-18 for atom     1.
 Variable       Old X    -DE/DX   Delta X   Delta X   Delta X     New X
                                 (Linear)    (Quad)   (Total)
    R1        2.81214   0.00012   0.00000   0.00070   0.00070   2.81283
    R2        2.81214   0.00012   0.00000   0.00070   0.00070   2.81283
    A1        1.61139  -0.00011   0.00000  -0.00073  -0.00073   1.61066
         Item               Value     Threshold  Converged?
 Maximum Force            0.000122     0.000450     YES
 RMS     Force            0.000118     0.000300     YES
 Maximum Displacement     0.000813     0.001800     YES
 RMS     Displacement     0.000599     0.001200     YES
 Predicted change in Energy=-1.252804D-07
 Optimization completed.
    -- Stationary point found.
                           ----------------------------
                           !   Optimized Parameters   !
                           ! (Angstroms and Degrees)  !
 --------------------------                            --------------------------
 ! Name  Definition              Value          Derivative Info.                !
 --------------------------------------------------------------------------------
 ! R1    R(1,2)                  1.4881         -DE/DX =    0.0001              !
 ! R2    R(1,3)                  1.4881         -DE/DX =    0.0001              !
 ! A1    A(2,1,3)               92.3257         -DE/DX =   -0.0001              !
 --------------------------------------------------------------------------------
 GradGradGradGradGradGradGradGradGradGradGradGradGradGradGradGradGradGrad


 ----------------------------------------------------------------------

 Electric dipole moment (input orientation):
 (Debye = 10**-18 statcoulomb cm , SI units = C m)
                  (au)            (Debye)         (10**-30 SI)
   Tot        0.432627D+00      0.109963D+01      0.366796D+01
   x          0.000000D+00      0.000000D+00      0.000000D+00
   y          0.000000D+00      0.000000D+00      0.000000D+00
   z         -0.432627D+00     -0.109963D+01     -0.366796D+01

 Dipole polarizability, Alpha (input orientation).
 (esu units = cm**3 , SI units = C**2 m**2 J**-1)
 Alpha(0;0):
               (au)            (10**-24 esu)      (10**-40 SI)
   iso        0.156645D+02      0.232124D+01      0.258273D+01
   aniso      0.141230D+02      0.209282D+01      0.232858D+01
   xx         0.643002D+01      0.952830D+00      0.106017D+01
   yx         0.000000D+00      0.000000D+00      0.000000D+00
   yy         0.218723D+02      0.324115D+01      0.360626D+01
   zx         0.000000D+00      0.000000D+00      0.000000D+00
   zy         0.000000D+00      0.000000D+00      0.000000D+00
   zz         0.186911D+02      0.276974D+01      0.308175D+01

 ----------------------------------------------------------------------

 Dipole orientation:
    34          0.00000000         -0.00000000         -0.31836551
     1         -0.00000000          2.02842456          1.62935073
     1          0.00000000         -2.02842456          1.62935073

 Electric dipole moment (dipole orientation):
 (Debye = 10**-18 statcoulomb cm , SI units = C m)
                  (au)            (Debye)         (10**-30 SI)
   Tot        0.432627D+00      0.109963D+01      0.366796D+01
   x          0.000000D+00      0.000000D+00      0.000000D+00
   y          0.000000D+00      0.000000D+00      0.000000D+00
   z          0.432627D+00      0.109963D+01      0.366796D+01

 Dipole polarizability, Alpha (dipole orientation).
 (esu units = cm**3 , SI units = C**2 m**2 J**-1)
 Alpha(0;0):
               (au)            (10**-24 esu)      (10**-40 SI)
   iso        0.156645D+02      0.232124D+01      0.258273D+01
   aniso      0.141230D+02      0.209282D+01      0.232858D+01
   xx         0.643002D+01      0.952830D+00      0.106017D+01
   yx         0.000000D+00      0.000000D+00      0.000000D+00
   yy         0.218723D+02      0.324115D+01      0.360626D+01
   zx         0.000000D+00      0.000000D+00      0.000000D+00
   zy         0.000000D+00      0.000000D+00      0.000000D+00
   zz         0.186911D+02      0.276974D+01      0.308175D+01

 ----------------------------------------------------------------------
 Unable to Open any file for archive entry.
 1\1\GINC-BS001\Freq\RMP2-FC\3-21G\H2Se1\PNATT\10-Aug-2026\0\\#N Geom=A
 llCheck Guess=TCheck SCRF=Check GenChk RMP2(FC)/3-21G Freq\\Title Card
  Required\\0,1\Se,0.,0.,0.1684717737\H,0.,-1.0733960523,-0.8622152768\
 H,0.,1.0733960523,-0.8622152768\\Version=ES64L-G16RevC.01\State=1-A1\H
 F=-2389.621472\MP2=-2389.6760165\RMSD=6.853e-10\RMSF=9.657e-05\ZeroPoi
 nt=0.0126525\Thermal=0.0155128\ETot=-2389.6605038\HTot=-2389.6595596\G
 Tot=-2389.6844834\Dipole=0.,0.,-0.4326265\DipoleDeriv=-0.2221199,0.,0.
 ,0.,0.142179,0.,0.,0.,0.3872236,0.1110599,0.,0.,0.,-0.0710895,-0.03779
 7,0.,-0.1749019,-0.1936118,0.1110599,0.,0.,0.,-0.0710895,0.037797,0.,0
 .1749019,-0.1936118\Polar=6.4300176,0.,21.8723488,0.,0.,18.6911492\PG=
 C02V [C2(Se1),SGV(H2)]\NImag=0\\-0.00011595,0.,0.19746792,0.,0.,0.2089
 9825,0.00005797,0.,0.,-0.00004401,0.,-0.09873396,-0.07127841,0.,0.1128
 6691,0.,-0.09486113,-0.10449912,0.,0.08306977,0.09777790,0.00005797,0.
 ,0.,-0.00001396,0.,0.,-0.00004401,0.,-0.09873396,0.07127841,0.,-0.0141
 3295,0.01179136,0.,0.11286691,0.,0.09486113,-0.10449912,0.,-0.01179136
 ,0.00672122,0.,-0.08306977,0.09777790\\0.,0.,-0.00022583,0.,0.00006096
 ,0.00011292,0.,-0.00006096,0.00011292\\\@
 The archive entry for this job was punched.


 THERE ONCE WAS A GIRL NAMED IRENE,
 WHO LIVED ON DISTILLED KEROSENE,
      BUT SHE STARTED ABSORBIN'
      A NEW HYDROCARBON,
 AND SINCE THEN HAS NEVER BENZENE.
 Job cpu time:       0 days  0 hours  0 minutes  5.1 seconds.
 Elapsed time:       0 days  0 hours  0 minutes  4.9 seconds.
 File lengths (MBytes):  RWF=     22 Int=      0 D2E=      0 Chk=      1 Scr=      1
 Normal termination of Gaussian 16 at Mon Aug 10 16:20:03 2026.
