 Entering Gaussian System, Link 0=g16
 Input=InH3.gjf
 Output=InH3.log
 Initial command:
 /opt/g16/g16/l1.exe "/home/pnatt/scratch/Gau-1472906.inp" -scrdir="/home/pnatt/scratch/"
 Entering Link 1 = /opt/g16/g16/l1.exe PID=   1472908.
  
 Copyright (c) 1988-2019, Gaussian, Inc.  All Rights Reserved.
  
 This is part of the Gaussian(R) 16 program.  It is based on
 the Gaussian(R) 09 system (copyright 2009, Gaussian, Inc.),
 the Gaussian(R) 03 system (copyright 2003, Gaussian, Inc.),
 the Gaussian(R) 98 system (copyright 1998, Gaussian, Inc.),
 the Gaussian(R) 94 system (copyright 1995, Gaussian, Inc.),
 the Gaussian 92(TM) system (copyright 1992, Gaussian, Inc.),
 the Gaussian 90(TM) system (copyright 1990, Gaussian, Inc.),
 the Gaussian 88(TM) system (copyright 1988, Gaussian, Inc.),
 the Gaussian 86(TM) system (copyright 1986, Carnegie Mellon
 University), and the Gaussian 82(TM) system (copyright 1983,
 Carnegie Mellon University). Gaussian is a federally registered
 trademark of Gaussian, Inc.
  
 This software contains proprietary and confidential information,
 including trade secrets, belonging to Gaussian, Inc.
  
 This software is provided under written license and may be
 used, copied, transmitted, or stored only in accord with that
 written license.
  
 The following legend is applicable only to US Government
 contracts under FAR:
  
                    RESTRICTED RIGHTS LEGEND
  
 Use, reproduction and disclosure by the US Government is
 subject to restrictions as set forth in subparagraphs (a)
 and (c) of the Commercial Computer Software - Restricted
 Rights clause in FAR 52.227-19.
  
 Gaussian, Inc.
 340 Quinnipiac St., Bldg. 40, Wallingford CT 06492
  
  
 ---------------------------------------------------------------
 Warning -- This program may not be used in any manner that
 competes with the business of Gaussian, Inc. or will provide
 assistance to any competitor of Gaussian, Inc.  The licensee
 of this program is prohibited from giving any competitor of
 Gaussian, Inc. access to this program.  By using this program,
 the user acknowledges that Gaussian, Inc. is engaged in the
 business of creating and licensing software in the field of
 computational chemistry and represents and warrants to the
 licensee that it is not a competitor of Gaussian, Inc. and that
 it will not use this program in any manner prohibited above.
 ---------------------------------------------------------------
  

 Cite this work as:
 Gaussian 16, Revision C.01,
 M. J. Frisch, G. W. Trucks, H. B. Schlegel, G. E. Scuseria, 
 M. A. Robb, J. R. Cheeseman, G. Scalmani, V. Barone, 
 G. A. Petersson, H. Nakatsuji, X. Li, M. Caricato, A. V. Marenich, 
 J. Bloino, B. G. Janesko, R. Gomperts, B. Mennucci, H. P. Hratchian, 
 J. V. Ortiz, A. F. Izmaylov, J. L. Sonnenberg, D. Williams-Young, 
 F. Ding, F. Lipparini, F. Egidi, J. Goings, B. Peng, A. Petrone, 
 T. Henderson, D. Ranasinghe, V. G. Zakrzewski, J. Gao, N. Rega, 
 G. Zheng, W. Liang, M. Hada, M. Ehara, K. Toyota, R. Fukuda, 
 J. Hasegawa, M. Ishida, T. Nakajima, Y. Honda, O. Kitao, H. Nakai, 
 T. Vreven, K. Throssell, J. A. Montgomery, Jr., J. E. Peralta, 
 F. Ogliaro, M. J. Bearpark, J. J. Heyd, E. N. Brothers, K. N. Kudin, 
 V. N. Staroverov, T. A. Keith, R. Kobayashi, J. Normand, 
 K. Raghavachari, A. P. Rendell, J. C. Burant, S. S. Iyengar, 
 J. Tomasi, M. Cossi, J. M. Millam, M. Klene, C. Adamo, R. Cammi, 
 J. W. Ochterski, R. L. Martin, K. Morokuma, O. Farkas, 
 J. B. Foresman, and D. J. Fox, Gaussian, Inc., Wallingford CT, 2019.
 
 ******************************************
 Gaussian 16:  ES64L-G16RevC.01  3-Jul-2019
                10-Aug-2026 
 ******************************************
 %chk=InH3.chk
 ----------------------------------------------
 # opt freq=hpmodes mp2/3-21g geom=connectivity
 ----------------------------------------------
 1/18=20,19=15,38=1,57=2/1,3;
 2/9=110,12=2,17=6,18=5,40=1/2;
 3/5=5,11=9,25=1,30=1,71=1/1,2,3;
 4//1;
 5/5=2,38=5/2;
 8/6=4,10=1/1;
 9/15=2,16=-3/6;
 10/5=1/2;
 6/7=2,8=2,9=2,10=2/1;
 7/12=2/1,2,3,16;
 1/18=20,19=15/3(2);
 2/9=110/2;
 99//99;
 2/9=110/2;
 3/5=5,11=9,25=1,30=1,71=1/1,2,3;
 4/5=5,16=3,69=1/1;
 5/5=2,38=5/2;
 8/6=4,10=1/1;
 9/15=2,16=-3/6;
 10/5=1/2;
 7/12=2/1,2,3,16;
 1/18=20,19=15/3(-8);
 2/9=110/2;
 6/7=2,8=2,9=2,10=2/1;
 99/9=10/99;
 -------------------
 Title Card Required
 -------------------
 Symbolic Z-matrix:
 Charge =  0 Multiplicity = 1
 In                    0.        0.        0. 
 H                     0.        1.8       0. 
 H                    -1.55885  -0.9       0. 
 H                     1.55885  -0.9       0. 
 

 GradGradGradGradGradGradGradGradGradGradGradGradGradGradGradGradGradGrad
 Berny optimization.
 Initialization pass.
                           ----------------------------
                           !    Initial Parameters    !
                           ! (Angstroms and Degrees)  !
 --------------------------                            --------------------------
 ! Name  Definition              Value          Derivative Info.                !
 --------------------------------------------------------------------------------
 ! R1    R(1,2)                  1.8            estimate D2E/DX2                !
 ! R2    R(1,3)                  1.8            estimate D2E/DX2                !
 ! R3    R(1,4)                  1.8            estimate D2E/DX2                !
 ! A1    A(2,1,3)              120.0            estimate D2E/DX2                !
 ! A2    A(2,1,4)              120.0            estimate D2E/DX2                !
 ! A3    A(3,1,4)              120.0            estimate D2E/DX2                !
 ! D1    D(2,1,4,3)            180.0            estimate D2E/DX2                !
 --------------------------------------------------------------------------------
 Trust Radius=3.00D-01 FncErr=1.00D-07 GrdErr=1.00D-07 EigMax=2.50D+02 EigMin=1.00D-04
 Number of steps in this run=     20 maximum allowed number of steps=    100.
 GradGradGradGradGradGradGradGradGradGradGradGradGradGradGradGradGradGrad

                          Input orientation:                          
 ---------------------------------------------------------------------
 Center     Atomic      Atomic             Coordinates (Angstroms)
 Number     Number       Type             X           Y           Z
 ---------------------------------------------------------------------
      1         49           0        0.000000    0.000000    0.000000
      2          1           0        0.000000    1.800000    0.000000
      3          1           0       -1.558846   -0.900000    0.000000
      4          1           0        1.558846   -0.900000    0.000000
 ---------------------------------------------------------------------
                    Distance matrix (angstroms):
                    1          2          3          4
     1  In   0.000000
     2  H    1.800000   0.000000
     3  H    1.800000   3.117691   0.000000
     4  H    1.800000   3.117691   3.117691   0.000000
 Stoichiometry    H3In
 Framework group  D3H[O(In),3C2(H)]
 Deg. of freedom     1
 Full point group                 D3H     NOp  12
 Largest Abelian subgroup         C2V     NOp   4
 Largest concise Abelian subgroup C2      NOp   2
                         Standard orientation:                         
 ---------------------------------------------------------------------
 Center     Atomic      Atomic             Coordinates (Angstroms)
 Number     Number       Type             X           Y           Z
 ---------------------------------------------------------------------
      1         49           0        0.000000    0.000000    0.000000
      2          1           0        0.000000    1.800000    0.000000
      3          1           0        1.558846   -0.900000   -0.000000
      4          1           0       -1.558846   -0.900000   -0.000000
 ---------------------------------------------------------------------
 Rotational constants (GHZ):         103.1800626         103.1800626          51.5900313
 Standard basis: 3-21G (6D, 7F)
 There are    21 symmetry adapted cartesian basis functions of A1  symmetry.
 There are     2 symmetry adapted cartesian basis functions of A2  symmetry.
 There are     9 symmetry adapted cartesian basis functions of B1  symmetry.
 There are     7 symmetry adapted cartesian basis functions of B2  symmetry.
 There are    21 symmetry adapted basis functions of A1  symmetry.
 There are     2 symmetry adapted basis functions of A2  symmetry.
 There are     9 symmetry adapted basis functions of B1  symmetry.
 There are     7 symmetry adapted basis functions of B2  symmetry.
    39 basis functions,    96 primitive gaussians,    39 cartesian basis functions
    26 alpha electrons       26 beta electrons
       nuclear repulsion energy        43.7253399004 Hartrees.
 NAtoms=    4 NActive=    4 NUniq=    2 SFac= 4.00D+00 NAtFMM=   60 NAOKFM=F Big=F
 Integral buffers will be    131072 words long.
 Raffenetti 1 integral format.
 Two-electron integral symmetry is turned on.
 One-electron integrals computed using PRISM.
 NBasis=    39 RedAO= T EigKep=  1.27D-03  NBF=    21     2     9     7
 NBsUse=    39 1.00D-06 EigRej= -1.00D+00 NBFU=    21     2     9     7
 ExpMin= 5.43D-02 ExpMax= 1.22D+04 ExpMxC= 1.22D+04 IAcc=3 IRadAn=         5 AccDes= 0.00D+00
 Harris functional with IExCor=  205 and IRadAn=       5 diagonalized for initial guess.
 HarFok:  IExCor=  205 AccDes= 0.00D+00 IRadAn=         5 IDoV= 1 UseB2=F ITyADJ=14
 ICtDFT=  3500011 ScaDFX=  1.000000  1.000000  1.000000  1.000000
 Defaulting to unpruned grid for atomic number  49.
 FoFCou: FMM=F IPFlag=           0 FMFlag=      100000 FMFlg1=           0
         NFxFlg=           0 DoJE=T BraDBF=F KetDBF=T FulRan=T
         wScrn=  0.000000 ICntrl=       500 IOpCl=  0 I1Cent=   200000004 NGrid=           0
         NMat0=    1 NMatS0=      1 NMatT0=    0 NMatD0=    1 NMtDS0=    0 NMtDT0=    0
 Petite list used in FoFCou.
 Initial guess orbital symmetries:
       Occupied  (A1') (A1') (E') (E') (A2") (A1') (E') (E') (A2")
                 (E') (E') (A1') (E") (E") (A1') (E') (E') (A2")
                 (E') (E') (A1') (E") (E") (A1') (E') (E')
       Virtual   (A2") (A1') (E') (E') (A1') (E') (E') (A2") (A1')
                 (E') (E') (A1') (A1')
 The electronic state of the initial guess is 1-A1'.
 Keep R1 ints in memory in symmetry-blocked form, NReq=1137866.
 Requested convergence on RMS density matrix=1.00D-08 within 128 cycles.
 Requested convergence on MAX density matrix=1.00D-06.
 Requested convergence on             energy=1.00D-06.
 No special actions if energy rises.
 SCF Done:  E(RHF) =  -5716.77368557     A.U. after    9 cycles
            NFock=  9  Conv=0.65D-09     -V/T= 2.0028
 ExpMin= 5.43D-02 ExpMax= 1.22D+04 ExpMxC= 1.22D+04 IAcc=3 IRadAn=         5 AccDes= 0.00D+00
 HarFok:  IExCor=  205 AccDes= 0.00D+00 IRadAn=         5 IDoV=-2 UseB2=F ITyADJ=14
 ICtDFT= 12500011 ScaDFX=  1.000000  1.000000  1.000000  1.000000
 Defaulting to unpruned grid for atomic number  49.
 Range of M.O.s used for correlation:    19    39
 NBasis=    39 NAE=    26 NBE=    26 NFC=    18 NFV=     0
 NROrb=     21 NOA=     8 NOB=     8 NVA=    13 NVB=    13

 **** Warning!!: The largest alpha MO coefficient is  0.21183024D+02

 Fully direct method using O(ONN) memory.
 JobTyp=1 Pass  1:  I=  19 to  26 NPSUse=  1 ParTrn=F ParDer=F DoDerP=T.
 Spin components of T(2) and E(2):
     alpha-alpha T2 =       0.8597327894D-03 E2=     -0.1541162413D-02
     alpha-beta  T2 =       0.2487675411D-01 E2=     -0.4366378008D-01
     beta-beta   T2 =       0.8597327894D-03 E2=     -0.1541162413D-02
 ANorm=    0.1013210847D+01
 E2 =    -0.4674610490D-01 EUMP2 =    -0.57168204316757D+04
          IDoAtm=1111
          Differentiating once with respect to electric field.
                with respect to dipole field.
          Differentiating once with respect to nuclear coordinates.
 Keep R1 ints in memory in symmetry-blocked form, NReq=1138636.
          There are     1 degrees of freedom in the 1st order CPHF.  IDoFFX=0 NUNeed=     1.
 LinEq1:  Iter=  0 NonCon=     1 RMS=3.43D-03 Max=4.05D-02 NDo=     1
 AX will form     1 AO Fock derivatives at one time.
 LinEq1:  Iter=  1 NonCon=     1 RMS=2.24D-04 Max=1.73D-03 NDo=     1
 LinEq1:  Iter=  2 NonCon=     1 RMS=9.62D-06 Max=8.07D-05 NDo=     1
 LinEq1:  Iter=  3 NonCon=     1 RMS=1.36D-06 Max=1.22D-05 NDo=     1
 LinEq1:  Iter=  4 NonCon=     1 RMS=1.21D-07 Max=9.92D-07 NDo=     1
 LinEq1:  Iter=  5 NonCon=     1 RMS=6.13D-09 Max=4.15D-08 NDo=     1
 LinEq1:  Iter=  6 NonCon=     1 RMS=3.96D-10 Max=3.01D-09 NDo=     1
 LinEq1:  Iter=  7 NonCon=     0 RMS=2.26D-11 Max=1.32D-10 NDo=     1
 Linear equations converged to 1.000D-10 1.000D-09 after     7 iterations.
 End of Minotr F.D. properties file   721 does not exist.
 End of Minotr F.D. properties file   722 does not exist.
 End of Minotr F.D. properties file   788 does not exist.

 **********************************************************************

            Population analysis using the SCF Density.

 **********************************************************************

 Orbital symmetries:
       Occupied  (A1') (A1') (A2") (E') (E') (A1') (A2") (E') (E')
                 (A1') (E") (E") (E') (E') (A1') (A2") (E') (E')
                 (A1') (E") (E") (E') (E') (A1') (E') (E')
       Virtual   (A2") (A1') (E') (E') (A1') (A2") (E') (E') (A1')
                 (E') (E') (A1') (A1')
 The electronic state is 1-A1'.
 Alpha  occ. eigenvalues -- -991.98139-148.69827-138.13412-138.13301-138.13301
 Alpha  occ. eigenvalues --  -29.56632 -25.11041 -25.10585 -25.10585 -17.50933
 Alpha  occ. eigenvalues --  -17.50800 -17.50800 -17.50425 -17.50425  -5.00422
 Alpha  occ. eigenvalues --   -3.47851  -3.47023  -3.47023  -1.10715  -1.10146
 Alpha  occ. eigenvalues --   -1.10146  -1.09549  -1.09549  -0.53565  -0.39789
 Alpha  occ. eigenvalues --   -0.39789
 Alpha virt. eigenvalues --    0.02105   0.15622   0.16437   0.16437   0.24106
 Alpha virt. eigenvalues --    0.31967   0.34574   0.34574   1.32914   1.34108
 Alpha virt. eigenvalues --    1.34108   2.41042 199.63192
          Condensed to atoms (all electrons):
               1          2          3          4
     1  In  47.257354   0.348556   0.348556   0.348556
     2  H    0.348556   0.892425  -0.004327  -0.004327
     3  H    0.348556  -0.004327   0.892425  -0.004327
     4  H    0.348556  -0.004327  -0.004327   0.892425
 Mulliken charges:
               1
     1  In   0.696978
     2  H   -0.232326
     3  H   -0.232326
     4  H   -0.232326
 Sum of Mulliken charges =  -0.00000
 Mulliken charges with hydrogens summed into heavy atoms:
               1
     1  In  -0.000000
 Electronic spatial extent (au):  <R**2>=            101.2789
 Charge=             -0.0000 electrons
 Dipole moment (field-independent basis, Debye):
    X=              0.0000    Y=              0.0000    Z=              0.0000  Tot=              0.0000
 Quadrupole moment (field-independent basis, Debye-Ang):
   XX=            -33.0720   YY=            -33.0720   ZZ=            -23.3923
   XY=              0.0000   XZ=              0.0000   YZ=              0.0000
 Traceless Quadrupole moment (field-independent basis, Debye-Ang):
   XX=             -3.2266   YY=             -3.2266   ZZ=              6.4531
   XY=              0.0000   XZ=              0.0000   YZ=              0.0000
 Octapole moment (field-independent basis, Debye-Ang**2):
  XXX=              0.0000  YYY=             -5.3306  ZZZ=              0.0000  XYY=             -0.0000
  XXY=              5.3306  XXZ=              0.0000  XZZ=              0.0000  YZZ=              0.0000
  YYZ=              0.0000  XYZ=             -0.0000
 Hexadecapole moment (field-independent basis, Debye-Ang**3):
 XXXX=            -96.5591 YYYY=            -96.5591 ZZZZ=            -22.4672 XXXY=              0.0000
 XXXZ=              0.0000 YYYX=              0.0000 YYYZ=              0.0000 ZZZX=              0.0000
 ZZZY=              0.0000 XXYY=            -32.1864 XXZZ=            -18.0944 YYZZ=            -18.0944
 XXYZ=              0.0000 YYXZ=              0.0000 ZZXY=              0.0000
 N-N= 4.372533990042D+01 E-N=-1.368219661867D+04  KE= 5.700713994085D+03
 Symmetry A1   KE= 3.923969787326D+03
 Symmetry A2   KE= 1.482169732137D+02
 Symmetry B1   KE= 8.150277523720D+02
 Symmetry B2   KE= 8.134994811731D+02
 Calling FoFJK, ICntrl=  10002127 FMM=F ISym2X=1 I1Cent= 0 IOpClX= 0 NMat=1 NMatS=1 NMatT=0.
 ***** Axes restored to original set *****
 -------------------------------------------------------------------
 Center     Atomic                   Forces (Hartrees/Bohr)
 Number     Number              X              Y              Z
 -------------------------------------------------------------------
      1       49           0.000000000    0.000000000    0.000000000
      2        1           0.000000000   -0.004364537    0.000000000
      3        1           0.003779800    0.002182269   -0.000000000
      4        1          -0.003779800    0.002182269   -0.000000000
 -------------------------------------------------------------------
 Cartesian Forces:  Max     0.004364537 RMS     0.002182269

 GradGradGradGradGradGradGradGradGradGradGradGradGradGradGradGradGradGrad
 Berny optimization.
 FormGI is forming the generalized inverse of G from B-inverse, IUseBI=4.
 Internal  Forces:  Max     0.004364537 RMS     0.002857260
 Search for a local minimum.
 Step number   1 out of a maximum of   20
 All quantities printed in internal units (Hartrees-Bohrs-Radians)
 Mixed Optimization -- RFO/linear search
 Second derivative matrix not updated -- first step.
 The second derivative matrix:
                          R1        R2        R3        A1        A2
           R1           0.10239
           R2           0.00000   0.10239
           R3           0.00000   0.00000   0.10239
           A1           0.00000   0.00000   0.00000   0.16000
           A2           0.00000   0.00000   0.00000   0.00000   0.16000
           A3           0.00000   0.00000   0.00000   0.00000   0.00000
           D1           0.00000   0.00000   0.00000   0.00000   0.00000
                          A3        D1
           A3           0.16000
           D1           0.00000   0.00230
 ITU=  0
     Eigenvalues ---    0.00230   0.10239   0.10239   0.10239   0.16000
     Eigenvalues ---    0.16000
 RFO step:  Lambda=-5.55122802D-04 EMin= 2.30000000D-03
 Linear search not attempted -- first point.
 Iteration  1 RMS(Cart)=  0.02775499 RMS(Int)=  0.00000000
 Iteration  2 RMS(Cart)=  0.00000000 RMS(Int)=  0.00000000
 ClnCor:  largest displacement from symmetrization is 1.40D-11 for atom     1.
 Variable       Old X    -DE/DX   Delta X   Delta X   Delta X     New X
                                 (Linear)    (Quad)   (Total)
    R1        3.40151  -0.00436   0.00000  -0.04240  -0.04240   3.35911
    R2        3.40151  -0.00436   0.00000  -0.04240  -0.04240   3.35911
    R3        3.40151  -0.00436   0.00000  -0.04240  -0.04240   3.35911
    A1        2.09440   0.00000   0.00000   0.00000   0.00000   2.09440
    A2        2.09440   0.00000   0.00000   0.00000   0.00000   2.09440
    A3        2.09440  -0.00000   0.00000  -0.00000   0.00000   2.09440
    D1        3.14159   0.00000   0.00000   0.00000   0.00000   3.14159
         Item               Value     Threshold  Converged?
 Maximum Force            0.004365     0.000450     NO 
 RMS     Force            0.002857     0.000300     NO 
 Maximum Displacement     0.042396     0.001800     NO 
 RMS     Displacement     0.027755     0.001200     NO 
 Predicted change in Energy=-2.790581D-04
 GradGradGradGradGradGradGradGradGradGradGradGradGradGradGradGradGradGrad

                          Input orientation:                          
 ---------------------------------------------------------------------
 Center     Atomic      Atomic             Coordinates (Angstroms)
 Number     Number       Type             X           Y           Z
 ---------------------------------------------------------------------
      1         49           0        0.000000   -0.000000    0.000000
      2          1           0       -0.000000    1.777565   -0.000000
      3          1           0       -1.539416   -0.888782   -0.000000
      4          1           0        1.539416   -0.888782    0.000000
 ---------------------------------------------------------------------
                    Distance matrix (angstroms):
                    1          2          3          4
     1  In   0.000000
     2  H    1.777565   0.000000
     3  H    1.777565   3.078832   0.000000
     4  H    1.777565   3.078832   3.078832   0.000000
 Stoichiometry    H3In
 Framework group  D3H[O(In),3C2(H)]
 Deg. of freedom     1
 Full point group                 D3H     NOp  12
 Largest Abelian subgroup         C2V     NOp   4
 Largest concise Abelian subgroup C2      NOp   2
                         Standard orientation:                         
 ---------------------------------------------------------------------
 Center     Atomic      Atomic             Coordinates (Angstroms)
 Number     Number       Type             X           Y           Z
 ---------------------------------------------------------------------
      1         49           0        0.000000    0.000000    0.000000
      2          1           0        0.000000    1.777565    0.000000
      3          1           0        1.539416   -0.888782    0.000000
      4          1           0       -1.539416   -0.888782    0.000000
 ---------------------------------------------------------------------
 Rotational constants (GHZ):         105.8010389         105.8010389          52.9005195
 Standard basis: 3-21G (6D, 7F)
 There are    21 symmetry adapted cartesian basis functions of A1  symmetry.
 There are     2 symmetry adapted cartesian basis functions of A2  symmetry.
 There are     9 symmetry adapted cartesian basis functions of B1  symmetry.
 There are     7 symmetry adapted cartesian basis functions of B2  symmetry.
 There are    21 symmetry adapted basis functions of A1  symmetry.
 There are     2 symmetry adapted basis functions of A2  symmetry.
 There are     9 symmetry adapted basis functions of B1  symmetry.
 There are     7 symmetry adapted basis functions of B2  symmetry.
    39 basis functions,    96 primitive gaussians,    39 cartesian basis functions
    26 alpha electrons       26 beta electrons
       nuclear repulsion energy        44.2772119788 Hartrees.
 NAtoms=    4 NActive=    4 NUniq=    2 SFac= 4.00D+00 NAtFMM=   60 NAOKFM=F Big=F
 Integral buffers will be    131072 words long.
 Raffenetti 1 integral format.
 Two-electron integral symmetry is turned on.
 One-electron integrals computed using PRISM.
 NBasis=    39 RedAO= T EigKep=  1.27D-03  NBF=    21     2     9     7
 NBsUse=    39 1.00D-06 EigRej= -1.00D+00 NBFU=    21     2     9     7
 Initial guess from the checkpoint file:  "InH3.chk"
 B after Tr=     0.000000   -0.000000    0.000000
         Rot=    1.000000    0.000000    0.000000    0.000000 Ang=   0.00 deg.
 Initial guess orbital symmetries:
       Occupied  (A1') (A1') (A2") (E') (E') (A1') (A2") (E') (E')
                 (A1') (E") (E") (E') (E') (A1') (A2") (E') (E')
                 (A1') (E") (E") (E') (E') (A1') (E') (E')
       Virtual   (A2") (A1') (E') (E') (A1') (A2") (E') (E') (A1')
                 (E') (E') (A1') (A1')
 ExpMin= 5.43D-02 ExpMax= 1.22D+04 ExpMxC= 1.22D+04 IAcc=3 IRadAn=         5 AccDes= 0.00D+00
 Harris functional with IExCor=  205 and IRadAn=       5 diagonalized for initial guess.
 HarFok:  IExCor=  205 AccDes= 0.00D+00 IRadAn=         5 IDoV= 1 UseB2=F ITyADJ=14
 ICtDFT=  3500011 ScaDFX=  1.000000  1.000000  1.000000  1.000000
 Defaulting to unpruned grid for atomic number  49.
 FoFCou: FMM=F IPFlag=           0 FMFlag=      100000 FMFlg1=           0
         NFxFlg=           0 DoJE=T BraDBF=F KetDBF=T FulRan=T
         wScrn=  0.000000 ICntrl=       500 IOpCl=  0 I1Cent=   200000004 NGrid=           0
         NMat0=    1 NMatS0=      1 NMatT0=    0 NMatD0=    1 NMtDS0=    0 NMtDT0=    0
 Petite list used in FoFCou.
 Keep R1 ints in memory in symmetry-blocked form, NReq=1137866.
 Requested convergence on RMS density matrix=1.00D-08 within 128 cycles.
 Requested convergence on MAX density matrix=1.00D-06.
 Requested convergence on             energy=1.00D-06.
 No special actions if energy rises.
 SCF Done:  E(RHF) =  -5716.77420850     A.U. after    7 cycles
            NFock=  7  Conv=0.16D-08     -V/T= 2.0028
 ExpMin= 5.43D-02 ExpMax= 1.22D+04 ExpMxC= 1.22D+04 IAcc=3 IRadAn=         5 AccDes= 0.00D+00
 HarFok:  IExCor=  205 AccDes= 0.00D+00 IRadAn=         5 IDoV=-2 UseB2=F ITyADJ=14
 ICtDFT= 12500011 ScaDFX=  1.000000  1.000000  1.000000  1.000000
 Defaulting to unpruned grid for atomic number  49.
 Range of M.O.s used for correlation:    19    39
 NBasis=    39 NAE=    26 NBE=    26 NFC=    18 NFV=     0
 NROrb=     21 NOA=     8 NOB=     8 NVA=    13 NVB=    13

 **** Warning!!: The largest alpha MO coefficient is  0.21183047D+02

 Fully direct method using O(ONN) memory.
 JobTyp=1 Pass  1:  I=  19 to  26 NPSUse=  1 ParTrn=F ParDer=F DoDerP=T.
 Spin components of T(2) and E(2):
     alpha-alpha T2 =       0.8663467912D-03 E2=     -0.1566083419D-02
     alpha-beta  T2 =       0.2432619757D-01 E2=     -0.4333008899D-01
     beta-beta   T2 =       0.8663467912D-03 E2=     -0.1566083419D-02
 ANorm=    0.1012945651D+01
 E2 =    -0.4646225583D-01 EUMP2 =    -0.57168206707540D+04
          IDoAtm=1111
          Differentiating once with respect to electric field.
                with respect to dipole field.
          Differentiating once with respect to nuclear coordinates.
 Keep R1 ints in memory in symmetry-blocked form, NReq=1138636.
          There are     1 degrees of freedom in the 1st order CPHF.  IDoFFX=0 NUNeed=     1.
 LinEq1:  Iter=  0 NonCon=     1 RMS=3.39D-03 Max=3.85D-02 NDo=     1
 AX will form     1 AO Fock derivatives at one time.
 LinEq1:  Iter=  1 NonCon=     1 RMS=2.16D-04 Max=1.73D-03 NDo=     1
 LinEq1:  Iter=  2 NonCon=     1 RMS=9.31D-06 Max=7.35D-05 NDo=     1
 LinEq1:  Iter=  3 NonCon=     1 RMS=1.33D-06 Max=1.24D-05 NDo=     1
 LinEq1:  Iter=  4 NonCon=     1 RMS=1.23D-07 Max=1.13D-06 NDo=     1
 LinEq1:  Iter=  5 NonCon=     1 RMS=5.92D-09 Max=4.09D-08 NDo=     1
 LinEq1:  Iter=  6 NonCon=     1 RMS=3.61D-10 Max=3.04D-09 NDo=     1
 LinEq1:  Iter=  7 NonCon=     0 RMS=2.11D-11 Max=1.24D-10 NDo=     1
 Linear equations converged to 1.000D-10 1.000D-09 after     7 iterations.
 End of Minotr F.D. properties file   721 does not exist.
 End of Minotr F.D. properties file   722 does not exist.
 End of Minotr F.D. properties file   788 does not exist.
 Calling FoFJK, ICntrl=  10002127 FMM=F ISym2X=1 I1Cent= 0 IOpClX= 0 NMat=1 NMatS=1 NMatT=0.
 ***** Axes restored to original set *****
 -------------------------------------------------------------------
 Center     Atomic                   Forces (Hartrees/Bohr)
 Number     Number              X              Y              Z
 -------------------------------------------------------------------
      1       49           0.000000000    0.000000000    0.000000000
      2        1          -0.000000000    0.000672845    0.000000000
      3        1          -0.000582701   -0.000336423   -0.000000000
      4        1           0.000582701   -0.000336423   -0.000000000
 -------------------------------------------------------------------
 Cartesian Forces:  Max     0.000672845 RMS     0.000336423

 GradGradGradGradGradGradGradGradGradGradGradGradGradGradGradGradGradGrad
 Berny optimization.
 Using GEDIIS/GDIIS optimizer.
 FormGI is forming the generalized inverse of G from B-inverse, IUseBI=4.
 Internal  Forces:  Max     0.000672845 RMS     0.000440481
 Search for a local minimum.
 Step number   2 out of a maximum of   20
 All quantities printed in internal units (Hartrees-Bohrs-Radians)
 Mixed Optimization -- En-DIIS/RFO-DIIS
 Update second derivatives using D2CorX and points    1    2
 DE= -2.39D-04 DEPred=-2.79D-04 R= 8.57D-01
 TightC=F SS=  1.41D+00  RLast= 7.34D-02 DXNew= 5.0454D-01 2.2030D-01
 Trust test= 8.57D-01 RLast= 7.34D-02 DXMaxT set to 3.00D-01
 The second derivative matrix:
                          R1        R2        R3        A1        A2
           R1           0.10787
           R2           0.00548   0.10787
           R3           0.00548   0.00548   0.10787
           A1          -0.00000  -0.00000  -0.00000   0.16000
           A2          -0.00000  -0.00000  -0.00000   0.00000   0.16000
           A3           0.00000   0.00000   0.00000  -0.00000  -0.00000
           D1          -0.00000  -0.00000  -0.00000   0.00000   0.00000
                          A3        D1
           A3           0.16000
           D1          -0.00000   0.00230
 ITU=  1  0
 Use linear search instead of GDIIS.
     Eigenvalues ---    0.00230   0.10239   0.10239   0.11882   0.16000
     Eigenvalues ---    0.16000
 RFO step:  Lambda= 0.00000000D+00 EMin= 2.30000000D-03
 Quartic linear search produced a step of -0.12902.
 Iteration  1 RMS(Cart)=  0.00358084 RMS(Int)=  0.00000000
 Iteration  2 RMS(Cart)=  0.00000000 RMS(Int)=  0.00000000
 ClnCor:  largest displacement from symmetrization is 4.62D-13 for atom     4.
 Variable       Old X    -DE/DX   Delta X   Delta X   Delta X     New X
                                 (Linear)    (Quad)   (Total)
    R1        3.35911   0.00067   0.00547  -0.00000   0.00547   3.36458
    R2        3.35911   0.00067   0.00547   0.00000   0.00547   3.36458
    R3        3.35911   0.00067   0.00547   0.00000   0.00547   3.36458
    A1        2.09440   0.00000   0.00000   0.00000   0.00000   2.09440
    A2        2.09440   0.00000   0.00000   0.00000   0.00000   2.09440
    A3        2.09440  -0.00000   0.00000  -0.00000   0.00000   2.09440
    D1        3.14159   0.00000   0.00000   0.00000   0.00000   3.14159
         Item               Value     Threshold  Converged?
 Maximum Force            0.000673     0.000450     NO 
 RMS     Force            0.000440     0.000300     NO 
 Maximum Displacement     0.005470     0.001800     NO 
 RMS     Displacement     0.003581     0.001200     NO 
 Predicted change in Energy=-5.708754D-06
 GradGradGradGradGradGradGradGradGradGradGradGradGradGradGradGradGradGrad

                          Input orientation:                          
 ---------------------------------------------------------------------
 Center     Atomic      Atomic             Coordinates (Angstroms)
 Number     Number       Type             X           Y           Z
 ---------------------------------------------------------------------
      1         49           0        0.000000   -0.000000    0.000000
      2          1           0       -0.000000    1.780459    0.000000
      3          1           0       -1.541923   -0.890230   -0.000000
      4          1           0        1.541923   -0.890230    0.000000
 ---------------------------------------------------------------------
                    Distance matrix (angstroms):
                    1          2          3          4
     1  In   0.000000
     2  H    1.780459   0.000000
     3  H    1.780459   3.083846   0.000000
     4  H    1.780459   3.083846   3.083846   0.000000
 Stoichiometry    H3In
 Framework group  D3H[O(In),3C2(H)]
 Deg. of freedom     1
 Full point group                 D3H     NOp  12
 Largest Abelian subgroup         C2V     NOp   4
 Largest concise Abelian subgroup C2      NOp   2
                         Standard orientation:                         
 ---------------------------------------------------------------------
 Center     Atomic      Atomic             Coordinates (Angstroms)
 Number     Number       Type             X           Y           Z
 ---------------------------------------------------------------------
      1         49           0        0.000000    0.000000    0.000000
      2          1           0        0.000000    1.780459    0.000000
      3          1           0        1.541923   -0.890230   -0.000000
      4          1           0       -1.541923   -0.890230   -0.000000
 ---------------------------------------------------------------------
 Rotational constants (GHZ):         105.4573150         105.4573150          52.7286575
 Standard basis: 3-21G (6D, 7F)
 There are    21 symmetry adapted cartesian basis functions of A1  symmetry.
 There are     2 symmetry adapted cartesian basis functions of A2  symmetry.
 There are     9 symmetry adapted cartesian basis functions of B1  symmetry.
 There are     7 symmetry adapted cartesian basis functions of B2  symmetry.
 There are    21 symmetry adapted basis functions of A1  symmetry.
 There are     2 symmetry adapted basis functions of A2  symmetry.
 There are     9 symmetry adapted basis functions of B1  symmetry.
 There are     7 symmetry adapted basis functions of B2  symmetry.
    39 basis functions,    96 primitive gaussians,    39 cartesian basis functions
    26 alpha electrons       26 beta electrons
       nuclear repulsion energy        44.2052301004 Hartrees.
 NAtoms=    4 NActive=    4 NUniq=    2 SFac= 4.00D+00 NAtFMM=   60 NAOKFM=F Big=F
 Integral buffers will be    131072 words long.
 Raffenetti 1 integral format.
 Two-electron integral symmetry is turned on.
 One-electron integrals computed using PRISM.
 NBasis=    39 RedAO= T EigKep=  1.27D-03  NBF=    21     2     9     7
 NBsUse=    39 1.00D-06 EigRej= -1.00D+00 NBFU=    21     2     9     7
 Initial guess from the checkpoint file:  "InH3.chk"
 B after Tr=     0.000000    0.000000   -0.000000
         Rot=    1.000000    0.000000   -0.000000    0.000000 Ang=   0.00 deg.
 Initial guess orbital symmetries:
       Occupied  (A1') (A1') (A2") (E') (E') (A1') (A2") (E') (E')
                 (A1') (E") (E") (E') (E') (A1') (A2") (E') (E')
                 (A1') (E") (E") (E') (E') (A1') (E') (E')
       Virtual   (A2") (A1') (E') (E') (A1') (A2") (E') (E') (A1')
                 (E') (E') (A1') (A1')
 Keep R1 ints in memory in symmetry-blocked form, NReq=1137866.
 Requested convergence on RMS density matrix=1.00D-08 within 128 cycles.
 Requested convergence on MAX density matrix=1.00D-06.
 Requested convergence on             energy=1.00D-06.
 No special actions if energy rises.
 SCF Done:  E(RHF) =  -5716.77417895     A.U. after    6 cycles
            NFock=  6  Conv=0.25D-08     -V/T= 2.0028
 ExpMin= 5.43D-02 ExpMax= 1.22D+04 ExpMxC= 1.22D+04 IAcc=3 IRadAn=         5 AccDes= 0.00D+00
 HarFok:  IExCor=  205 AccDes= 0.00D+00 IRadAn=         5 IDoV=-2 UseB2=F ITyADJ=14
 ICtDFT= 12500011 ScaDFX=  1.000000  1.000000  1.000000  1.000000
 Defaulting to unpruned grid for atomic number  49.
 Range of M.O.s used for correlation:    19    39
 NBasis=    39 NAE=    26 NBE=    26 NFC=    18 NFV=     0
 NROrb=     21 NOA=     8 NOB=     8 NVA=    13 NVB=    13

 **** Warning!!: The largest alpha MO coefficient is  0.21183044D+02

 Fully direct method using O(ONN) memory.
 JobTyp=1 Pass  1:  I=  19 to  26 NPSUse=  1 ParTrn=F ParDer=F DoDerP=T.
 Spin components of T(2) and E(2):
     alpha-alpha T2 =       0.8654329171D-03 E2=     -0.1562736049D-02
     alpha-beta  T2 =       0.2439553829D-01 E2=     -0.4337184103D-01
     beta-beta   T2 =       0.8654329171D-03 E2=     -0.1562736049D-02
 ANorm=    0.1012978975D+01
 E2 =    -0.4649731313D-01 EUMP2 =    -0.57168206762643D+04
          IDoAtm=1111
          Differentiating once with respect to electric field.
                with respect to dipole field.
          Differentiating once with respect to nuclear coordinates.
 Keep R1 ints in memory in symmetry-blocked form, NReq=1138636.
          There are     1 degrees of freedom in the 1st order CPHF.  IDoFFX=0 NUNeed=     1.
 LinEq1:  Iter=  0 NonCon=     1 RMS=3.40D-03 Max=3.88D-02 NDo=     1
 AX will form     1 AO Fock derivatives at one time.
 LinEq1:  Iter=  1 NonCon=     1 RMS=2.17D-04 Max=1.73D-03 NDo=     1
 LinEq1:  Iter=  2 NonCon=     1 RMS=9.34D-06 Max=7.44D-05 NDo=     1
 LinEq1:  Iter=  3 NonCon=     1 RMS=1.33D-06 Max=1.25D-05 NDo=     1
 LinEq1:  Iter=  4 NonCon=     1 RMS=1.23D-07 Max=1.12D-06 NDo=     1
 LinEq1:  Iter=  5 NonCon=     1 RMS=5.97D-09 Max=4.11D-08 NDo=     1
 LinEq1:  Iter=  6 NonCon=     1 RMS=3.66D-10 Max=3.06D-09 NDo=     1
 LinEq1:  Iter=  7 NonCon=     0 RMS=2.13D-11 Max=1.25D-10 NDo=     1
 Linear equations converged to 1.000D-10 1.000D-09 after     7 iterations.
 End of Minotr F.D. properties file   721 does not exist.
 End of Minotr F.D. properties file   722 does not exist.
 End of Minotr F.D. properties file   788 does not exist.
 Calling FoFJK, ICntrl=  10002127 FMM=F ISym2X=1 I1Cent= 0 IOpClX= 0 NMat=1 NMatS=1 NMatT=0.
 ***** Axes restored to original set *****
 -------------------------------------------------------------------
 Center     Atomic                   Forces (Hartrees/Bohr)
 Number     Number              X              Y              Z
 -------------------------------------------------------------------
      1       49           0.000000000    0.000000000    0.000000000
      2        1          -0.000000000   -0.000000080    0.000000000
      3        1           0.000000069    0.000000040   -0.000000000
      4        1          -0.000000069    0.000000040   -0.000000000
 -------------------------------------------------------------------
 Cartesian Forces:  Max     0.000000080 RMS     0.000000040

 GradGradGradGradGradGradGradGradGradGradGradGradGradGradGradGradGradGrad
 Berny optimization.
 Using GEDIIS/GDIIS optimizer.
 FormGI is forming the generalized inverse of G from B-inverse, IUseBI=4.
 Internal  Forces:  Max     0.000000080 RMS     0.000000052
 Search for a local minimum.
 Step number   3 out of a maximum of   20
 All quantities printed in internal units (Hartrees-Bohrs-Radians)
 Mixed Optimization -- En-DIIS/RFO-DIIS
 Swapping is turned off.
 Update second derivatives using D2CorX and points    1    2    3
 DE= -5.51D-06 DEPred=-5.71D-06 R= 9.65D-01
 TightC=F SS=  1.41D+00  RLast= 9.47D-03 DXNew= 5.0454D-01 2.8422D-02
 Trust test= 9.65D-01 RLast= 9.47D-03 DXMaxT set to 3.00D-01
 The second derivative matrix:
                          R1        R2        R3        A1        A2
           R1           0.10927
           R2           0.00688   0.10927
           R3           0.00688   0.00688   0.10927
           A1           0.00000   0.00000   0.00000   0.16000
           A2           0.00000   0.00000   0.00000   0.00000   0.16000
           A3          -0.00000  -0.00000  -0.00000  -0.00000  -0.00000
           D1          -0.00000  -0.00000  -0.00000  -0.00000  -0.00000
                          A3        D1
           A3           0.16000
           D1           0.00000   0.00230
 ITU=  1  1  0
     Eigenvalues ---    0.00230   0.10239   0.10239   0.12302   0.16000
     Eigenvalues ---    0.16000
 En-DIIS/RFO-DIIS/Sim-DIIS IScMMF=       -3 using points:     3    2
 RFO step:  Lambda=-1.12546765D-13.
 DidBck=F Rises=F RFO-DIIS coefs:    0.99988    0.00012
 Iteration  1 RMS(Cart)=  0.00000043 RMS(Int)=  0.00000000
 ClnCor:  largest displacement from symmetrization is 6.20D-14 for atom     1.
 Variable       Old X    -DE/DX   Delta X   Delta X   Delta X     New X
                                 (Linear)    (Quad)   (Total)
    R1        3.36458  -0.00000  -0.00000  -0.00000  -0.00000   3.36458
    R2        3.36458  -0.00000  -0.00000   0.00000  -0.00000   3.36458
    R3        3.36458  -0.00000  -0.00000   0.00000  -0.00000   3.36458
    A1        2.09440  -0.00000   0.00000  -0.00000   0.00000   2.09440
    A2        2.09440   0.00000   0.00000   0.00000   0.00000   2.09440
    A3        2.09440  -0.00000   0.00000  -0.00000   0.00000   2.09440
    D1        3.14159   0.00000   0.00000   0.00000   0.00000   3.14159
         Item               Value     Threshold  Converged?
 Maximum Force            0.000000     0.000450     YES
 RMS     Force            0.000000     0.000300     YES
 Maximum Displacement     0.000001     0.001800     YES
 RMS     Displacement     0.000000     0.001200     YES
 Predicted change in Energy=-7.809205D-14
 Optimization completed.
    -- Stationary point found.
                           ----------------------------
                           !   Optimized Parameters   !
                           ! (Angstroms and Degrees)  !
 --------------------------                            --------------------------
 ! Name  Definition              Value          Derivative Info.                !
 --------------------------------------------------------------------------------
 ! R1    R(1,2)                  1.7805         -DE/DX =    0.0                 !
 ! R2    R(1,3)                  1.7805         -DE/DX =    0.0                 !
 ! R3    R(1,4)                  1.7805         -DE/DX =    0.0                 !
 ! A1    A(2,1,3)              120.0            -DE/DX =    0.0                 !
 ! A2    A(2,1,4)              120.0            -DE/DX =    0.0                 !
 ! A3    A(3,1,4)              120.0            -DE/DX =    0.0                 !
 ! D1    D(2,1,4,3)            180.0            -DE/DX =    0.0                 !
 --------------------------------------------------------------------------------
 GradGradGradGradGradGradGradGradGradGradGradGradGradGradGradGradGradGrad

                          Input orientation:                          
 ---------------------------------------------------------------------
 Center     Atomic      Atomic             Coordinates (Angstroms)
 Number     Number       Type             X           Y           Z
 ---------------------------------------------------------------------
      1         49           0        0.000000   -0.000000    0.000000
      2          1           0       -0.000000    1.780459    0.000000
      3          1           0       -1.541923   -0.890230   -0.000000
      4          1           0        1.541923   -0.890230    0.000000
 ---------------------------------------------------------------------
                    Distance matrix (angstroms):
                    1          2          3          4
     1  In   0.000000
     2  H    1.780459   0.000000
     3  H    1.780459   3.083846   0.000000
     4  H    1.780459   3.083846   3.083846   0.000000
 Stoichiometry    H3In
 Framework group  D3H[O(In),3C2(H)]
 Deg. of freedom     1
 Full point group                 D3H     NOp  12
 Largest Abelian subgroup         C2V     NOp   4
 Largest concise Abelian subgroup C2      NOp   2
                         Standard orientation:                         
 ---------------------------------------------------------------------
 Center     Atomic      Atomic             Coordinates (Angstroms)
 Number     Number       Type             X           Y           Z
 ---------------------------------------------------------------------
      1         49           0        0.000000    0.000000    0.000000
      2          1           0        0.000000    1.780459    0.000000
      3          1           0        1.541923   -0.890230    0.000000
      4          1           0       -1.541923   -0.890230    0.000000
 ---------------------------------------------------------------------
 Rotational constants (GHZ):         105.4573150         105.4573150          52.7286575

 **********************************************************************

            Population analysis using the SCF Density.

 **********************************************************************

 Orbital symmetries:
       Occupied  (A1') (A1') (A2") (E') (E') (A1') (A2") (E') (E')
                 (A1') (E") (E") (E') (E') (A1') (A2") (E') (E')
                 (A1') (E") (E") (E') (E') (A1') (E') (E')
       Virtual   (A2") (A1') (E') (E') (A1') (A2") (E') (E') (A1')
                 (E') (E') (A1') (A1')
 The electronic state is 1-A1'.
 Alpha  occ. eigenvalues -- -991.97865-148.69569-138.13151-138.13039-138.13039
 Alpha  occ. eigenvalues --  -29.56391 -25.10801 -25.10341 -25.10341 -17.50689
 Alpha  occ. eigenvalues --  -17.50555 -17.50555 -17.50176 -17.50176  -5.00228
 Alpha  occ. eigenvalues --   -3.47646  -3.46837  -3.46837  -1.10550  -1.09962
 Alpha  occ. eigenvalues --   -1.09962  -1.09410  -1.09410  -0.53828  -0.39910
 Alpha  occ. eigenvalues --   -0.39910
 Alpha virt. eigenvalues --    0.02171   0.16012   0.16496   0.16496   0.24305
 Alpha virt. eigenvalues --    0.32028   0.34847   0.34847   1.32939   1.34333
 Alpha virt. eigenvalues --    1.34333   2.41235 199.63475
          Condensed to atoms (all electrons):
               1          2          3          4
     1  In  47.248161   0.350086   0.350086   0.350086
     2  H    0.350086   0.892987  -0.004606  -0.004606
     3  H    0.350086  -0.004606   0.892987  -0.004606
     4  H    0.350086  -0.004606  -0.004606   0.892987
 Mulliken charges:
               1
     1  In   0.701581
     2  H   -0.233860
     3  H   -0.233860
     4  H   -0.233860
 Sum of Mulliken charges =  -0.00000
 Mulliken charges with hydrogens summed into heavy atoms:
               1
     1  In  -0.000000
 Electronic spatial extent (au):  <R**2>=            100.2708
 Charge=             -0.0000 electrons
 Dipole moment (field-independent basis, Debye):
    X=              0.0000    Y=             -0.0000    Z=              0.0000  Tot=              0.0000
 Quadrupole moment (field-independent basis, Debye-Ang):
   XX=            -32.9289   YY=            -32.9289   ZZ=            -23.3309
   XY=              0.0000   XZ=              0.0000   YZ=              0.0000
 Traceless Quadrupole moment (field-independent basis, Debye-Ang):
   XX=             -3.1994   YY=             -3.1994   ZZ=              6.3987
   XY=              0.0000   XZ=              0.0000   YZ=              0.0000
 Octapole moment (field-independent basis, Debye-Ang**2):
  XXX=              0.0000  YYY=             -5.2381  ZZZ=              0.0000  XYY=             -0.0000
  XXY=              5.2381  XXZ=              0.0000  XZZ=              0.0000  YZZ=              0.0000
  YYZ=              0.0000  XYZ=              0.0000
 Hexadecapole moment (field-independent basis, Debye-Ang**3):
 XXXX=            -94.7574 YYYY=            -94.7574 ZZZZ=            -22.2553 XXXY=              0.0000
 XXXZ=              0.0000 YYYX=              0.0000 YYYZ=              0.0000 ZZZX=              0.0000
 ZZZY=              0.0000 XXYY=            -31.5858 XXZZ=            -17.8028 YYZZ=            -17.8028
 XXYZ=              0.0000 YYXZ=              0.0000 ZZXY=              0.0000
 N-N= 4.420523010041D+01 E-N=-1.368330118250D+04  KE= 5.700765911700D+03
 Symmetry A1   KE= 3.924004116481D+03
 Symmetry A2   KE= 1.482169732137D+02
 Symmetry B1   KE= 8.150467199554D+02
 Symmetry B2   KE= 8.134981020503D+02
 Unable to Open any file for archive entry.
 1\1\GINC-BS001\FOpt\RMP2-FC\3-21G\H3In1\PNATT\10-Aug-2026\0\\# opt fre
 q=hpmodes mp2/3-21g geom=connectivity\\Title Card Required\\0,1\In,0.,
 0.,0.\H,-0.0000000016,1.7804592724,0.\H,-1.5419229595,-0.8902296376,0.
 \H,1.5419229611,-0.8902296348,0.\\Version=ES64L-G16RevC.01\State=1-A1'
 \HF=-5716.774179\MP2=-5716.8206763\RMSD=2.546e-09\RMSF=4.002e-08\Dipol
 e=0.,0.,0.\PG=D03H [O(In1),3C2(H1)]\\@
 The archive entry for this job was punched.


 MORNING PEOPLE ARE USUALLY ADMIRED AS EARLY BIRDS.
 RECALL BEN FRANKLIN'S APHORISM THAT THE EARLY BIRD GETS THE WORM.
 I IDENTIFY WITH THE WORM. --  CRAIG JAGGER, MINNEAPOLIS, KS.
 Job cpu time:       0 days  0 hours  0 minutes  6.3 seconds.
 Elapsed time:       0 days  0 hours  0 minutes  6.1 seconds.
 File lengths (MBytes):  RWF=      6 Int=      0 D2E=      0 Chk=      1 Scr=      1
 Normal termination of Gaussian 16 at Mon Aug 10 16:20:05 2026.
 Link1:  Proceeding to internal job step number  2.
 -------------------------------------------------------------------
 #N Geom=AllCheck Guess=TCheck SCRF=Check GenChk RMP2(FC)/3-21G Freq
 -------------------------------------------------------------------
 1/10=4,29=7,30=1,38=1,40=1/1,3;
 2/12=2,40=1/2;
 3/5=5,11=1,14=-4,25=1,30=1,70=2,71=2,116=1,140=1/1,2,3;
 4/5=101/1;
 5/5=2,38=6,98=1/2;
 8/6=3,8=1,10=1,19=11,30=-1/1;
 9/15=3,16=-3/6;
 11/6=1,8=1,15=11,17=12,24=-1,27=1,28=-2,29=300,32=6,42=3/1,2,10;
 10/6=2,21=1/2;
 8/6=4,8=1,10=1,19=11,30=-1/11,4;
 10/5=1,20=4/2;
 11/12=2,14=11,16=1,17=2,28=-2,42=3,76=2/2,10,12;
 6/7=2,8=2,9=2,10=2/1;
 7/8=11,10=1,12=2,25=1,44=2/1,2,3,16;
 1/10=4,30=1/3;
 99//99;
 Structure from the checkpoint file:  "InH3.chk"
 -------------------
 Title Card Required
 -------------------
 Charge =  0 Multiplicity = 1
 Redundant internal coordinates found in file.  (old form).
 In,0,0.,0.,0.
 H,0,-0.0000000016,1.7804592724,0.
 H,0,-1.5419229595,-0.8902296376,0.
 H,0,1.5419229611,-0.8902296348,0.
 Recover connectivity data from disk.

 GradGradGradGradGradGradGradGradGradGradGradGradGradGradGradGradGradGrad
 Berny optimization.
 Initialization pass.
                           ----------------------------
                           !    Initial Parameters    !
                           ! (Angstroms and Degrees)  !
 --------------------------                            --------------------------
 ! Name  Definition              Value          Derivative Info.                !
 --------------------------------------------------------------------------------
 ! R1    R(1,2)                  1.7805         calculate D2E/DX2 analytically  !
 ! R2    R(1,3)                  1.7805         calculate D2E/DX2 analytically  !
 ! R3    R(1,4)                  1.7805         calculate D2E/DX2 analytically  !
 ! A1    A(2,1,3)              120.0            calculate D2E/DX2 analytically  !
 ! A2    A(2,1,4)              120.0            calculate D2E/DX2 analytically  !
 ! A3    A(3,1,4)              120.0            calculate D2E/DX2 analytically  !
 ! D1    D(2,1,4,3)            180.0            calculate D2E/DX2 analytically  !
 --------------------------------------------------------------------------------
 Trust Radius=3.00D-01 FncErr=1.00D-07 GrdErr=1.00D-07 EigMax=2.50D+02 EigMin=1.00D-04
 Number of steps in this run=      2 maximum allowed number of steps=      2.
 GradGradGradGradGradGradGradGradGradGradGradGradGradGradGradGradGradGrad

                          Input orientation:                          
 ---------------------------------------------------------------------
 Center     Atomic      Atomic             Coordinates (Angstroms)
 Number     Number       Type             X           Y           Z
 ---------------------------------------------------------------------
      1         49           0        0.000000   -0.000000    0.000000
      2          1           0       -0.000000    1.780459    0.000000
      3          1           0       -1.541923   -0.890230   -0.000000
      4          1           0        1.541923   -0.890230    0.000000
 ---------------------------------------------------------------------
                    Distance matrix (angstroms):
                    1          2          3          4
     1  In   0.000000
     2  H    1.780459   0.000000
     3  H    1.780459   3.083846   0.000000
     4  H    1.780459   3.083846   3.083846   0.000000
 Stoichiometry    H3In
 Framework group  D3H[O(In),3C2(H)]
 Deg. of freedom     1
 Full point group                 D3H     NOp  12
 Largest Abelian subgroup         C2V     NOp   4
 Largest concise Abelian subgroup C2      NOp   2
                         Standard orientation:                         
 ---------------------------------------------------------------------
 Center     Atomic      Atomic             Coordinates (Angstroms)
 Number     Number       Type             X           Y           Z
 ---------------------------------------------------------------------
      1         49           0        0.000000    0.000000    0.000000
      2          1           0        0.000000    1.780459    0.000000
      3          1           0        1.541923   -0.890230   -0.000000
      4          1           0       -1.541923   -0.890230   -0.000000
 ---------------------------------------------------------------------
 Rotational constants (GHZ):         105.4573150         105.4573150          52.7286575
 Standard basis: 3-21G (6D, 7F)
 There are    21 symmetry adapted cartesian basis functions of A1  symmetry.
 There are     2 symmetry adapted cartesian basis functions of A2  symmetry.
 There are     9 symmetry adapted cartesian basis functions of B1  symmetry.
 There are     7 symmetry adapted cartesian basis functions of B2  symmetry.
 There are    21 symmetry adapted basis functions of A1  symmetry.
 There are     2 symmetry adapted basis functions of A2  symmetry.
 There are     9 symmetry adapted basis functions of B1  symmetry.
 There are     7 symmetry adapted basis functions of B2  symmetry.
    39 basis functions,    96 primitive gaussians,    39 cartesian basis functions
    26 alpha electrons       26 beta electrons
       nuclear repulsion energy        44.2052301004 Hartrees.
 NAtoms=    4 NActive=    4 NUniq=    2 SFac= 4.00D+00 NAtFMM=   60 NAOKFM=F Big=F
 Integral buffers will be    131072 words long.
 Raffenetti 1 integral format.
 Two-electron integral symmetry is turned on.
 One-electron integrals computed using PRISM.
 NBasis=    39 RedAO= T EigKep=  1.27D-03  NBF=    21     2     9     7
 NBsUse=    39 1.00D-06 EigRej= -1.00D+00 NBFU=    21     2     9     7
 Initial guess from the checkpoint file:  "InH3.chk"
 B after Tr=     0.000000   -0.000000    0.000000
         Rot=    1.000000    0.000000    0.000000    0.000000 Ang=   0.00 deg.
 Initial guess orbital symmetries:
       Occupied  (A1') (A1') (A2") (E') (E') (A1') (A2") (E') (E')
                 (A1') (E") (E") (E') (E') (A1') (A2") (E') (E')
                 (A1') (E") (E") (E') (E') (A1') (E') (E')
       Virtual   (A2") (A1') (E') (E') (A1') (A2") (E') (E') (A1')
                 (E') (E') (A1') (A1')
 Keep R1 ints in memory in symmetry-blocked form, NReq=1137866.
 Requested convergence on RMS density matrix=1.00D-08 within 128 cycles.
 Requested convergence on MAX density matrix=1.00D-06.
 Requested convergence on             energy=1.00D-06.
 No special actions if energy rises.
 Skip diagonalization as Alpha Fock matrix is already diagonal.
 SCF Done:  E(RHF) =  -5716.77417895     A.U. after    1 cycles
            NFock=  1  Conv=0.26D-18     -V/T= 2.0028
 ExpMin= 5.43D-02 ExpMax= 1.22D+04 ExpMxC= 1.22D+04 IAcc=3 IRadAn=         5 AccDes= 0.00D+00
 HarFok:  IExCor=  205 AccDes= 0.00D+00 IRadAn=         5 IDoV=-2 UseB2=F ITyADJ=14
 ICtDFT= 12500011 ScaDFX=  1.000000  1.000000  1.000000  1.000000
 Defaulting to unpruned grid for atomic number  49.
 Range of M.O.s used for correlation:    19    39
 NBasis=    39 NAE=    26 NBE=    26 NFC=    18 NFV=     0
 NROrb=     21 NOA=     8 NOB=     8 NVA=    13 NVB=    13

 **** Warning!!: The largest alpha MO coefficient is  0.21183044D+02

 Disk-based method using ON**2 memory for  8 occupieds at a time.
 Permanent disk used for amplitudes=      139594 words.
 Estimated scratch disk usage=     1234030 words.
 Actual    scratch disk usage=     1234030 words.
 JobTyp=1 Pass  1:  I=  19 to  26 NPSUse=  1 ParTrn=F ParDer=F DoDerP=T.
 (rs|ai) integrals will be sorted in core.
 Spin components of T(2) and E(2):
     alpha-alpha T2 =       0.8654329155D-03 E2=     -0.1562736047D-02
     alpha-beta  T2 =       0.2439553826D-01 E2=     -0.4337184102D-01
     beta-beta   T2 =       0.8654329155D-03 E2=     -0.1562736047D-02
 ANorm=    0.1012978975D+01
 E2 =    -0.4649731311D-01 EUMP2 =    -0.57168206762643D+04
 G2DrvN: will do     5 centers at a time, making    1 passes.
 Calling FoFCou, ICntrl=  3107 FMM=F I1Cent=   0 AccDes= 0.00D+00.
 End of G2Drv F.D. properties file   721 does not exist.
 End of G2Drv F.D. properties file   722 does not exist.
 End of G2Drv F.D. properties file   788 does not exist.
          IDoAtm=1111
          Differentiating once with respect to electric field.
                with respect to dipole field.
          Differentiating once with respect to nuclear coordinates.
 Keep R1 ints in memory in symmetry-blocked form, NReq=1138549.
          There are    15 degrees of freedom in the 1st order CPHF.  IDoFFX=6 NUNeed=    15.
     12 vectors produced by pass  0 Test12= 2.25D-15 6.67D-09 XBig12= 9.93D+00 2.20D+00.
 AX will form    12 AO Fock derivatives at one time.
     12 vectors produced by pass  1 Test12= 2.25D-15 6.67D-09 XBig12= 3.35D-02 1.15D-01.
     12 vectors produced by pass  2 Test12= 2.25D-15 6.67D-09 XBig12= 6.41D-05 3.16D-03.
     12 vectors produced by pass  3 Test12= 2.25D-15 6.67D-09 XBig12= 3.99D-07 2.83D-04.
     12 vectors produced by pass  4 Test12= 2.25D-15 6.67D-09 XBig12= 1.20D-09 1.36D-05.
     11 vectors produced by pass  5 Test12= 2.25D-15 6.67D-09 XBig12= 4.77D-12 9.79D-07.
      3 vectors produced by pass  6 Test12= 2.25D-15 6.67D-09 XBig12= 2.35D-14 4.80D-08.
 InvSVY:  IOpt=1 It=  1 EMax= 5.55D-16
 Solved reduced A of dimension    74 with    12 vectors.
 End of Minotr F.D. properties file   721 does not exist.
 End of Minotr F.D. properties file   722 does not exist.
 End of Minotr F.D. properties file   788 does not exist.
 MDV=   104857600.
 Form MO integral derivatives with frozen-active canonical formalism.
 Discarding MO integrals.
 Reordered first order wavefunction length =       228488
 In DefCFB: NBatch=  1 ICI= 26 ICA= 13 LFMax= 26
            Large arrays: LIAPS=     2056392 LIARS=     3045042 words.
 Semi-Direct transformation.
 ModeAB=           4 MOrb=            26 LenV=     104662763
 LASXX=       328783 LTotXX=      328783 LenRXX=      747565
 LTotAB=      418782 MaxLAS=      776724 LenRXY=           0
 NonZer=     1076348 LenScr=     2357760 LnRSAI=      776724
 LnScr1=     1746432 LExtra=           0 Total=      5628481
 MaxDsk=          -1 SrtSym=           T ITran=            4
 JobTyp=0 Pass  1:  I=   1 to  26.
 (rs|ai) integrals will be sorted in core.
 Spin components of T(2) and E(2):
     alpha-alpha T2 =       0.8654329155D-03 E2=     -0.1562736047D-02
     alpha-beta  T2 =       0.2439553826D-01 E2=     -0.4337184102D-01
     beta-beta   T2 =       0.8654329155D-03 E2=     -0.1562736047D-02
 ANorm=    0.1432568605D+01
 E2 =    -0.4649731311D-01 EUMP2 =    -0.57168206762643D+04
          IDoAtm=1111
          Differentiating once with respect to electric field.
                with respect to dipole field.
          Differentiating once with respect to nuclear coordinates.
          There are     1 degrees of freedom in the 1st order CPHF.  IDoFFX=0 NUNeed=     1.
 LinEq1:  Iter=  0 NonCon=     1 RMS=3.40D-03 Max=3.88D-02 NDo=     1
 LinEq1:  Iter=  1 NonCon=     1 RMS=2.17D-04 Max=1.73D-03 NDo=     1
 LinEq1:  Iter=  2 NonCon=     1 RMS=9.34D-06 Max=7.44D-05 NDo=     1
 LinEq1:  Iter=  3 NonCon=     1 RMS=1.33D-06 Max=1.25D-05 NDo=     1
 LinEq1:  Iter=  4 NonCon=     1 RMS=1.23D-07 Max=1.12D-06 NDo=     1
 LinEq1:  Iter=  5 NonCon=     1 RMS=5.97D-09 Max=4.11D-08 NDo=     1
 LinEq1:  Iter=  6 NonCon=     1 RMS=3.66D-10 Max=3.06D-09 NDo=     1
 LinEq1:  Iter=  7 NonCon=     0 RMS=2.13D-11 Max=1.25D-10 NDo=     1
 Linear equations converged to 1.000D-10 1.000D-09 after     7 iterations.
 End of Minotr F.D. properties file   721 does not exist.
 End of Minotr F.D. properties file   722 does not exist.
 End of Minotr F.D. properties file   788 does not exist.
 Symmetrizing basis deriv contribution to polar:
 IMax=3 JMax=2 DiffMx= 0.00D+00
 G2DrvN: will do     5 centers at a time, making    1 passes.
 Calling FoFCou, ICntrl=  3107 FMM=F I1Cent=   0 AccDes= 0.00D+00.
 End of G2Drv F.D. properties file   721 does not exist.
 End of G2Drv F.D. properties file   722 does not exist.
 End of G2Drv F.D. properties file   788 does not exist.
 R2 and R3 integrals will be kept in memory, NReq=     1429180.
 DD1Dir will call FoFMem   1 times, MxPair=       702
 NAB=   351 NAA=     0 NBB=     0.
 Discarding MO integrals.

 **********************************************************************

            Population analysis using the SCF Density.

 **********************************************************************

 Orbital symmetries:
       Occupied  (A1') (A1') (A2") (E') (E') (A1') (A2") (E') (E')
                 (A1') (E") (E") (E') (E') (A1') (A2") (E') (E')
                 (A1') (E") (E") (E') (E') (A1') (E') (E')
       Virtual   (A2") (A1') (E') (E') (A1') (A2") (E') (E') (A1')
                 (E') (E') (A1') (A1')
 The electronic state is 1-A1'.
 Alpha  occ. eigenvalues -- -991.97865-148.69569-138.13151-138.13039-138.13039
 Alpha  occ. eigenvalues --  -29.56391 -25.10801 -25.10341 -25.10341 -17.50689
 Alpha  occ. eigenvalues --  -17.50555 -17.50555 -17.50176 -17.50176  -5.00228
 Alpha  occ. eigenvalues --   -3.47646  -3.46837  -3.46837  -1.10550  -1.09962
 Alpha  occ. eigenvalues --   -1.09962  -1.09410  -1.09410  -0.53828  -0.39910
 Alpha  occ. eigenvalues --   -0.39910
 Alpha virt. eigenvalues --    0.02171   0.16012   0.16496   0.16496   0.24305
 Alpha virt. eigenvalues --    0.32028   0.34847   0.34847   1.32939   1.34333
 Alpha virt. eigenvalues --    1.34333   2.41235 199.63475
          Condensed to atoms (all electrons):
               1          2          3          4
     1  In  47.248161   0.350086   0.350086   0.350086
     2  H    0.350086   0.892987  -0.004606  -0.004606
     3  H    0.350086  -0.004606   0.892987  -0.004606
     4  H    0.350086  -0.004606  -0.004606   0.892987
 Mulliken charges:
               1
     1  In   0.701581
     2  H   -0.233860
     3  H   -0.233860
     4  H   -0.233860
 Sum of Mulliken charges =  -0.00000
 Mulliken charges with hydrogens summed into heavy atoms:
               1
     1  In  -0.000000
 APT charges:
               1
     1  In   1.176242
     2  H   -0.392081
     3  H   -0.392081
     4  H   -0.392081
 Sum of APT charges =  -0.00000
 APT charges with hydrogens summed into heavy atoms:
               1
     1  In  -0.000000
 Electronic spatial extent (au):  <R**2>=            100.2708
 Charge=             -0.0000 electrons
 Dipole moment (field-independent basis, Debye):
    X=              0.0000    Y=             -0.0000    Z=             -0.0000  Tot=              0.0000
 Quadrupole moment (field-independent basis, Debye-Ang):
   XX=            -32.9289   YY=            -32.9289   ZZ=            -23.3309
   XY=              0.0000   XZ=              0.0000   YZ=              0.0000
 Traceless Quadrupole moment (field-independent basis, Debye-Ang):
   XX=             -3.1994   YY=             -3.1994   ZZ=              6.3987
   XY=              0.0000   XZ=              0.0000   YZ=              0.0000
 Octapole moment (field-independent basis, Debye-Ang**2):
  XXX=              0.0000  YYY=             -5.2381  ZZZ=             -0.0000  XYY=             -0.0000
  XXY=              5.2381  XXZ=             -0.0000  XZZ=              0.0000  YZZ=             -0.0000
  YYZ=             -0.0000  XYZ=              0.0000
 Hexadecapole moment (field-independent basis, Debye-Ang**3):
 XXXX=            -94.7574 YYYY=            -94.7574 ZZZZ=            -22.2553 XXXY=              0.0000
 XXXZ=              0.0000 YYYX=              0.0000 YYYZ=              0.0000 ZZZX=              0.0000
 ZZZY=              0.0000 XXYY=            -31.5858 XXZZ=            -17.8028 YYZZ=            -17.8028
 XXYZ=              0.0000 YYXZ=              0.0000 ZZXY=              0.0000
 N-N= 4.420523010041D+01 E-N=-1.368330118250D+04  KE= 5.700765911700D+03
 Symmetry A1   KE= 3.924004116481D+03
 Symmetry A2   KE= 1.482169732137D+02
 Symmetry B1   KE= 8.150467199554D+02
 Symmetry B2   KE= 8.134981020503D+02
  Exact polarizability:      32.562      -0.000      32.562       0.000      -0.000      17.183
 Approx polarizability:      25.379      -0.000      25.379       0.000      -0.000      12.089
 Calling FoFJK, ICntrl=  10100127 FMM=F ISym2X=1 I1Cent= 0 IOpClX= 0 NMat=1 NMatS=1 NMatT=0.
 Full mass-weighted force constant matrix:
 Low frequencies ---   -0.0254   -0.0254   -0.0132    0.7873    0.7873    0.7900
 Low frequencies ---  609.5399  653.4335  653.4335
 Diagonal vibrational polarizability:
       18.3271430      18.3271430      25.3209627
 Harmonic frequencies (cm**-1), IR intensities (KM/Mole), Raman scattering
 activities (A**4/AMU), depolarization ratios for plane and unpolarized
 incident light, reduced masses (AMU), force constants (mDyne/A),
 and normal coordinates:
                           1         2         3         4         5
                          A2"       E'        E'        E'        E'
       Frequencies ---   609.5399  653.4335  653.4335 1774.5433 1774.5433
    Reduced masses ---     1.0341    1.0220    1.0220    1.0196    1.0196
   Force constants ---     0.2264    0.2571    0.2571    1.8917    1.8917
    IR Intensities ---   349.5839  254.9873  254.9873  263.9759  263.9759
 Coord Atom Element:
   1     1    49          0.00000  -0.00011  -0.01115  -0.01016   0.00043
   2     1    49          0.00000  -0.01115   0.00011  -0.00043  -0.01016
   3     1    49         -0.01519  -0.00000  -0.00000   0.00000  -0.00000
   1     2     1         -0.00000   0.00795   0.81579  -0.04236   0.00179
   2     2     1         -0.00000   0.03185  -0.00031   0.03440   0.81463
   3     2     1          0.57728   0.00000   0.00000  -0.00000   0.00000
   1     3     1         -0.00000   0.34167   0.22453   0.58471  -0.39644
   2     3     1         -0.00000   0.62311   0.33341  -0.36383   0.18756
   3     3     1          0.57728   0.00000   0.00000  -0.00000   0.00000
   1     4     1         -0.00000  -0.33723   0.23114   0.61605   0.34573
   2     4     1          0.00000   0.61649  -0.34549   0.37835   0.15621
   3     4     1          0.57728   0.00000   0.00000  -0.00000   0.00000
                           6
                          A1'
       Frequencies ---  1791.3598
    Reduced masses ---     1.0078
   Force constants ---     1.9055
    IR Intensities ---     0.0000
 Coord Atom Element:
   1     1    49         -0.00000
   2     1    49         -0.00000
   3     1    49         -0.00000
   1     2     1         -0.00000
   2     2     1          0.57735
   3     2     1          0.00000
   1     3     1          0.50000
   2     3     1         -0.28868
   3     3     1          0.00000
   1     4     1         -0.50000
   2     4     1         -0.28868
   3     4     1          0.00000
 Harmonic frequencies (cm**-1), IR intensities (KM/Mole), Raman scattering
 activities (A**4/AMU), depolarization ratios for plane and unpolarized
 incident light, reduced masses (AMU), force constants (mDyne/A),
 and normal coordinates:
                      1                      2                      3
                     A2"                    E'                     E'
 Frequencies --    609.5399               653.4335               653.4335
 Red. masses --      1.0341                 1.0220                 1.0220
 Frc consts  --      0.2264                 0.2571                 0.2571
 IR Inten    --    349.5839               254.9873               254.9873
  Atom  AN      X      Y      Z        X      Y      Z        X      Y      Z
     1  49     0.00   0.00  -0.02    -0.00  -0.01  -0.00    -0.01   0.00  -0.00
     2   1    -0.00  -0.00   0.58     0.01   0.03   0.00     0.82  -0.00   0.00
     3   1    -0.00  -0.00   0.58     0.34   0.62   0.00     0.22   0.33   0.00
     4   1    -0.00   0.00   0.58    -0.34   0.62   0.00     0.23  -0.35   0.00
                      4                      5                      6
                     E'                     E'                     A1'
 Frequencies --   1774.5433              1774.5433              1791.3598
 Red. masses --      1.0196                 1.0196                 1.0078
 Frc consts  --      1.8917                 1.8917                 1.9055
 IR Inten    --    263.9759               263.9759                 0.0000
  Atom  AN      X      Y      Z        X      Y      Z        X      Y      Z
     1  49    -0.01  -0.00   0.00     0.00  -0.01  -0.00    -0.00  -0.00  -0.00
     2   1    -0.04   0.03  -0.00     0.00   0.81   0.00    -0.00   0.58   0.00
     3   1     0.58  -0.36  -0.00    -0.40   0.19   0.00     0.50  -0.29   0.00
     4   1     0.62   0.38  -0.00     0.35   0.16   0.00    -0.50  -0.29   0.00

 -------------------
 - Thermochemistry -
 -------------------
 Temperature   298.150 Kelvin.  Pressure   1.00000 Atm.
 Atom     1 has atomic number 49 and mass 114.90410
 Atom     2 has atomic number  1 and mass   1.00783
 Atom     3 has atomic number  1 and mass   1.00783
 Atom     4 has atomic number  1 and mass   1.00783
 Molecular mass:   117.92758 amu.
 Principal axes and moments of inertia in atomic units:
                           1         2         3
     Eigenvalues --    17.11348  17.11348  34.22695
           X            0.50000   0.86603   0.00000
           Y            0.86603  -0.50000   0.00000
           Z            0.00000   0.00000   1.00000
 This molecule is an oblate symmetric top.
 Rotational symmetry number  6.
 Rotational temperatures (Kelvin)      5.06115     5.06115     2.53058
 Rotational constants (GHZ):         105.45732   105.45732    52.72866
 Zero-point vibrational energy      43405.6 (Joules/Mol)
                                   10.37419 (Kcal/Mol)
 Warning -- explicit consideration of   1 degrees of freedom as
           vibrations may cause significant error
 Vibrational temperatures:    876.99   940.15   940.15  2553.17  2553.17
          (Kelvin)           2577.37
 
 Zero-point correction=                           0.016532 (Hartree/Particle)
 Thermal correction to Energy=                    0.019790
 Thermal correction to Enthalpy=                  0.020734
 Thermal correction to Gibbs Free Energy=        -0.005295
 Sum of electronic and zero-point Energies=          -5716.804144
 Sum of electronic and thermal Energies=             -5716.800886
 Sum of electronic and thermal Enthalpies=           -5716.799942
 Sum of electronic and thermal Free Energies=        -5716.825971
 
                     E (Thermal)             CV                S
                      KCal/Mol        Cal/Mol-Kelvin    Cal/Mol-Kelvin
 Total                   12.418              8.897             54.782
 Electronic               0.000              0.000              0.000
 Translational            0.889              2.981             40.210
 Rotational               0.889              2.981             13.396
 Vibrational             10.641              2.935              1.177
 Vibration     1          0.969              1.012              0.434
                       Q            Log10(Q)             Ln(Q)
 Total Bot       0.272564D+03          2.435468          5.607873
 Total V=0       0.109599D+11         10.039805         23.117505
 Vib (Bot)       0.286665D-07         -7.542625        -17.367537
 Vib (Bot)    1  0.242564D+00         -0.615173         -1.416489
 Vib (V=0)       0.115269D+01          0.061711          0.142095
 Vib (V=0)    1  0.105573D+01          0.023553          0.054234
 Electronic      0.100000D+01          0.000000          0.000000
 Translational   0.503358D+08          7.701877         17.734227
 Rotational      0.188893D+03          2.276217          5.241183
 ***** Axes restored to original set *****
 -------------------------------------------------------------------
 Center     Atomic                   Forces (Hartrees/Bohr)
 Number     Number              X              Y              Z
 -------------------------------------------------------------------
      1       49           0.000000000    0.000000000    0.000000000
      2        1          -0.000000000   -0.000000080   -0.000000000
      3        1           0.000000069    0.000000040    0.000000000
      4        1          -0.000000069    0.000000040    0.000000000
 -------------------------------------------------------------------
 Cartesian Forces:  Max     0.000000080 RMS     0.000000040
 FormGI is forming the generalized inverse of G from B-inverse, IUseBI=4.

 GradGradGradGradGradGradGradGradGradGradGradGradGradGradGradGradGradGrad
 Berny optimization.
 Internal  Forces:  Max     0.000000080 RMS     0.000000052
 Search for a local minimum.
 Step number   1 out of a maximum of    2
 All quantities printed in internal units (Hartrees-Bohrs-Radians)
 Second derivative matrix not updated -- analytic derivatives used.
 The second derivative matrix:
                          R1        R2        R3        A1        A2
           R1           0.11973
           R2           0.00133   0.11973
           R3           0.00133   0.00133   0.11973
           A1           0.00358   0.00358  -0.00716   0.04114
           A2           0.00358  -0.00716   0.00358  -0.02057   0.04114
           A3          -0.00716   0.00358   0.00358  -0.02057  -0.02057
           D1           0.00000  -0.00000   0.00000  -0.00000   0.00000
                          A3        D1
           A3           0.04114
           D1          -0.00000   0.03908
 ITU=  0
     Eigenvalues ---    0.03908   0.05974   0.05974   0.12037   0.12037
     Eigenvalues ---    0.12239
 Angle between quadratic step and forces=  90.00 degrees.
 Linear search not attempted -- first point.
 Iteration  1 RMS(Cart)=  0.00000043 RMS(Int)=  0.00000000
 ClnCor:  largest displacement from symmetrization is 1.56D-13 for atom     1.
 Variable       Old X    -DE/DX   Delta X   Delta X   Delta X     New X
                                 (Linear)    (Quad)   (Total)
    R1        3.36458  -0.00000   0.00000  -0.00000  -0.00000   3.36458
    R2        3.36458  -0.00000   0.00000  -0.00000  -0.00000   3.36458
    R3        3.36458  -0.00000   0.00000  -0.00000  -0.00000   3.36458
    A1        2.09440  -0.00000   0.00000  -0.00000   0.00000   2.09440
    A2        2.09440   0.00000   0.00000   0.00000   0.00000   2.09440
    A3        2.09440  -0.00000   0.00000  -0.00000   0.00000   2.09440
    D1        3.14159   0.00000   0.00000  -0.00000   0.00000   3.14159
         Item               Value     Threshold  Converged?
 Maximum Force            0.000000     0.000450     YES
 RMS     Force            0.000000     0.000300     YES
 Maximum Displacement     0.000001     0.001800     YES
 RMS     Displacement     0.000000     0.001200     YES
 Predicted change in Energy=-7.809707D-14
 Optimization completed.
    -- Stationary point found.
                           ----------------------------
                           !   Optimized Parameters   !
                           ! (Angstroms and Degrees)  !
 --------------------------                            --------------------------
 ! Name  Definition              Value          Derivative Info.                !
 --------------------------------------------------------------------------------
 ! R1    R(1,2)                  1.7805         -DE/DX =    0.0                 !
 ! R2    R(1,3)                  1.7805         -DE/DX =    0.0                 !
 ! R3    R(1,4)                  1.7805         -DE/DX =    0.0                 !
 ! A1    A(2,1,3)              120.0            -DE/DX =    0.0                 !
 ! A2    A(2,1,4)              120.0            -DE/DX =    0.0                 !
 ! A3    A(3,1,4)              120.0            -DE/DX =    0.0                 !
 ! D1    D(2,1,4,3)            180.0            -DE/DX =    0.0                 !
 --------------------------------------------------------------------------------
 GradGradGradGradGradGradGradGradGradGradGradGradGradGradGradGradGradGrad

 Dipole is zero, so no output in dipole orientation.

 ----------------------------------------------------------------------

 Electric dipole moment (input orientation):
 (Debye = 10**-18 statcoulomb cm , SI units = C m)
                  (au)            (Debye)         (10**-30 SI)
   Tot        0.000000D+00      0.000000D+00      0.000000D+00
   x          0.000000D+00      0.000000D+00      0.000000D+00
   y          0.000000D+00      0.000000D+00      0.000000D+00
   z          0.000000D+00      0.000000D+00      0.000000D+00

 Dipole polarizability, Alpha (input orientation).
 (esu units = cm**3 , SI units = C**2 m**2 J**-1)
 Alpha(0;0):
               (au)            (10**-24 esu)      (10**-40 SI)
   iso        0.274356D+02      0.406553D+01      0.452352D+01
   aniso      0.153784D+02      0.227885D+01      0.253556D+01
   xx         0.325617D+02      0.482515D+01      0.536870D+01
   yx         0.000000D+00      0.000000D+00      0.000000D+00
   yy         0.325617D+02      0.482515D+01      0.536870D+01
   zx         0.000000D+00      0.000000D+00      0.000000D+00
   zy         0.000000D+00      0.000000D+00      0.000000D+00
   zz         0.171833D+02      0.254630D+01      0.283315D+01

 ----------------------------------------------------------------------
 Unable to Open any file for archive entry.
 1\1\GINC-BS001\Freq\RMP2-FC\3-21G\H3In1\PNATT\10-Aug-2026\0\\#N Geom=A
 llCheck Guess=TCheck SCRF=Check GenChk RMP2(FC)/3-21G Freq\\Title Card
  Required\\0,1\In,0.,0.,0.\H,-0.0000000016,1.7804592724,0.\H,-1.541922
 9595,-0.8902296376,0.\H,1.5419229611,-0.8902296348,0.\\Version=ES64L-G
 16RevC.01\State=1-A1'\HF=-5716.774179\MP2=-5716.8206763\RMSD=2.594e-19
 \RMSF=3.991e-08\ZeroPoint=0.0165323\Thermal=0.0197899\ETot=-5716.80088
 64\HTot=-5716.7999422\GTot=-5716.8259711\Dipole=0.,0.,0.\DipoleDeriv=1
 .250457,0.,0.,0.,1.250457,0.,0.,0.,1.0278113,-0.393929,0.,0.,0.,-0.439
 709,0.,0.,0.,-0.3426038,-0.428264,-0.0198233,0.,-0.0198233,-0.405374,0
 .,0.,0.,-0.3426038,-0.428264,0.0198233,0.,0.0198233,-0.405374,0.,0.,0.
 ,-0.3426038\Polar=32.561725,0.,32.561725,0.,0.,17.1833145\PG=D03H [O(I
 n1),3C2(H1)]\NImag=0\\0.18554793,0.,0.18554793,0.,0.,0.04142117,-0.010
 82241,0.,0.,0.01090178,0.,-0.11287621,0.,0.,0.11973396,0.,0.,-0.013807
 06,0.,0.,0.00460237,-0.08736276,-0.04419059,0.,-0.00003969,0.00044680,
 0.,0.09252591,-0.04419059,-0.03633586,0.,-0.00631705,-0.00342887,0.,0.
 04712572,0.03810983,0.,0.,-0.01380706,0.,0.,0.00460234,0.,0.,0.0046023
 7,-0.08736276,0.04419059,0.,-0.00003969,-0.00044680,0.,-0.00512347,0.0
 0338192,0.,0.09252591,0.04419059,-0.03633586,0.,0.00631705,-0.00342887
 ,0.,-0.00338192,0.00165491,0.,-0.04712572,0.03810983,0.,0.,-0.01380706
 ,0.,0.,0.00460234,0.,0.,0.00460234,0.,0.,0.00460237\\0.,0.,0.,0.,0.000
 00008,0.,-0.00000007,-0.00000004,0.,0.00000007,-0.00000004,0.\\\@
 The archive entry for this job was punched.


 WAR ES EIN GOTT DER DIESE ZEICHEN SCHRIEB?
          - LUDWIG BOLTZMANN, QUOTING GOETHE, ABOUT MAXWELL'S EQUATIONS.
 Job cpu time:       0 days  0 hours  0 minutes  7.1 seconds.
 Elapsed time:       0 days  0 hours  0 minutes  6.9 seconds.
 File lengths (MBytes):  RWF=     50 Int=      0 D2E=      0 Chk=      1 Scr=      1
 Normal termination of Gaussian 16 at Mon Aug 10 16:20:12 2026.
