 Entering Gaussian System, Link 0=g09
 Input=OBr4_MP2_cc-pVDZ.com
 Output=OBr4_MP2_cc-pVDZ.log
 Initial command:
 /usr/local/g09/l1.exe /scratch/james/Gau-4861.inp -scrdir=/scratch/james/
 Entering Link 1 = /usr/local/g09/l1.exe PID=      4865.
  
 Copyright (c) 1988,1990,1992,1993,1995,1998,2003,2009,2011,
            Gaussian, Inc.  All Rights Reserved.
  
 This is part of the Gaussian(R) 09 program.  It is based on
 the Gaussian(R) 03 system (copyright 2003, Gaussian, Inc.),
 the Gaussian(R) 98 system (copyright 1998, Gaussian, Inc.),
 the Gaussian(R) 94 system (copyright 1995, Gaussian, Inc.),
 the Gaussian 92(TM) system (copyright 1992, Gaussian, Inc.),
 the Gaussian 90(TM) system (copyright 1990, Gaussian, Inc.),
 the Gaussian 88(TM) system (copyright 1988, Gaussian, Inc.),
 the Gaussian 86(TM) system (copyright 1986, Carnegie Mellon
 University), and the Gaussian 82(TM) system (copyright 1983,
 Carnegie Mellon University). Gaussian is a federally registered
 trademark of Gaussian, Inc.
  
 This software contains proprietary and confidential information,
 including trade secrets, belonging to Gaussian, Inc.
  
 This software is provided under written license and may be
 used, copied, transmitted, or stored only in accord with that
 written license.
  
 The following legend is applicable only to US Government
 contracts under FAR:
  
                    RESTRICTED RIGHTS LEGEND
  
 Use, reproduction and disclosure by the US Government is
 subject to restrictions as set forth in subparagraphs (a)
 and (c) of the Commercial Computer Software - Restricted
 Rights clause in FAR 52.227-19.
  
 Gaussian, Inc.
 340 Quinnipiac St., Bldg. 40, Wallingford CT 06492
  
  
 ---------------------------------------------------------------
 Warning -- This program may not be used in any manner that
 competes with the business of Gaussian, Inc. or will provide
 assistance to any competitor of Gaussian, Inc.  The licensee
 of this program is prohibited from giving any competitor of
 Gaussian, Inc. access to this program.  By using this program,
 the user acknowledges that Gaussian, Inc. is engaged in the
 business of creating and licensing software in the field of
 computational chemistry and represents and warrants to the
 licensee that it is not a competitor of Gaussian, Inc. and that
 it will not use this program in any manner prohibited above.
 ---------------------------------------------------------------
  

 Cite this work as:
 Gaussian 09, Revision C.01,
 M. J. Frisch, G. W. Trucks, H. B. Schlegel, G. E. Scuseria, 
 M. A. Robb, J. R. Cheeseman, G. Scalmani, V. Barone, B. Mennucci, 
 G. A. Petersson, H. Nakatsuji, M. Caricato, X. Li, H. P. Hratchian, 
 A. F. Izmaylov, J. Bloino, G. Zheng, J. L. Sonnenberg, M. Hada, 
 M. Ehara, K. Toyota, R. Fukuda, J. Hasegawa, M. Ishida, T. Nakajima, 
 Y. Honda, O. Kitao, H. Nakai, T. Vreven, J. A. Montgomery, Jr., 
 J. E. Peralta, F. Ogliaro, M. Bearpark, J. J. Heyd, E. Brothers, 
 K. N. Kudin, V. N. Staroverov, T. Keith, R. Kobayashi, J. Normand, 
 K. Raghavachari, A. Rendell, J. C. Burant, S. S. Iyengar, J. Tomasi, 
 M. Cossi, N. Rega, J. M. Millam, M. Klene, J. E. Knox, J. B. Cross, 
 V. Bakken, C. Adamo, J. Jaramillo, R. Gomperts, R. E. Stratmann, 
 O. Yazyev, A. J. Austin, R. Cammi, C. Pomelli, J. W. Ochterski, 
 R. L. Martin, K. Morokuma, V. G. Zakrzewski, G. A. Voth, 
 P. Salvador, J. J. Dannenberg, S. Dapprich, A. D. Daniels, 
 O. Farkas, J. B. Foresman, J. V. Ortiz, J. Cioslowski, 
 and D. J. Fox, Gaussian, Inc., Wallingford CT, 2010.
 
 ******************************************
 Gaussian 09:  AM64L-G09RevC.01 23-Sep-2011
                 7-Jul-2026 
 ******************************************
 %chk=OBr4_MP2_cc-pVDZ.chk
 ------------------------------------------------
 # opt freq=hpmodes mp2/cc-pvdz geom=connectivity
 ------------------------------------------------
 1/18=20,19=15,38=1,57=2/1,3;
 2/9=110,12=2,17=6,18=5,40=1/2;
 3/5=16,11=9,16=1,25=1,30=1,71=1/1,2,3;
 4//1;
 5/5=2,38=5/2;
 8/6=4,10=1/1;
 9/15=2,16=-3/6;
 10/5=1/2;
 6/7=2,8=2,9=2,10=2/1;
 7/12=2/1,2,3,16;
 1/18=20,19=15/3(2);
 2/9=110/2;
 99//99;
 2/9=110/2;
 3/5=16,11=9,16=1,25=1,30=1,71=1/1,2,3;
 4/5=5,16=3/1;
 5/5=2,38=5/2;
 8/6=4,10=1/1;
 9/15=2,16=-3/6;
 10/5=1/2;
 7/12=2/1,2,3,16;
 1/18=20,19=15/3(-8);
 2/9=110/2;
 6/7=2,8=2,9=2,10=2/1;
 99//99;
 -------------------
 Title Card Required
 -------------------
 Charge =  0 Multiplicity = 1
 Symbolic Z-Matrix:
 O                     0.        0.        0.00002 
 Br                    0.        1.71567  -1.21298 
 Br                    0.       -1.71567  -1.21298 
 Br                    1.71576   0.        1.21298 
 Br                   -1.71576   0.        1.21298 
 

 GradGradGradGradGradGradGradGradGradGradGradGradGradGradGradGradGradGrad
 Berny optimization.
 Initialization pass.
                           ----------------------------
                           !    Initial Parameters    !
                           ! (Angstroms and Degrees)  !
 --------------------------                            --------------------------
 ! Name  Definition              Value          Derivative Info.                !
 --------------------------------------------------------------------------------
 ! R1    R(1,2)                  2.1012         estimate D2E/DX2                !
 ! R2    R(1,3)                  2.1012         estimate D2E/DX2                !
 ! R3    R(1,4)                  2.1012         estimate D2E/DX2                !
 ! R4    R(1,5)                  2.1012         estimate D2E/DX2                !
 ! A1    A(2,1,3)              109.4784         estimate D2E/DX2                !
 ! A2    A(2,1,4)              109.4665         estimate D2E/DX2                !
 ! A3    A(2,1,5)              109.4665         estimate D2E/DX2                !
 ! A4    A(3,1,4)              109.4665         estimate D2E/DX2                !
 ! A5    A(3,1,5)              109.4665         estimate D2E/DX2                !
 ! A6    A(4,1,5)              109.483          estimate D2E/DX2                !
 ! D1    D(2,1,4,3)           -120.003          estimate D2E/DX2                !
 ! D2    D(2,1,5,3)            120.003          estimate D2E/DX2                !
 ! D3    D(2,1,5,4)           -119.9985         estimate D2E/DX2                !
 ! D4    D(3,1,5,4)            119.9985         estimate D2E/DX2                !
 --------------------------------------------------------------------------------
 Trust Radius=3.00D-01 FncErr=1.00D-07 GrdErr=1.00D-07
 Number of steps in this run=     24 maximum allowed number of steps=    100.
 GradGradGradGradGradGradGradGradGradGradGradGradGradGradGradGradGradGrad

                          Input orientation:                          
 ---------------------------------------------------------------------
 Center     Atomic      Atomic             Coordinates (Angstroms)
 Number     Number       Type             X           Y           Z
 ---------------------------------------------------------------------
      1          8           0        0.000000    0.000000    0.000018
      2         35           0        0.000000    1.715670   -1.212982
      3         35           0        0.000000   -1.715670   -1.212982
      4         35           0        1.715761    0.000000    1.212980
      5         35           0       -1.715761    0.000000    1.212980
 ---------------------------------------------------------------------
                    Distance matrix (angstroms):
                    1          2          3          4          5
     1  O    0.000000
     2  Br   2.101165   0.000000
     3  Br   2.101165   3.431340   0.000000
     4  Br   2.101217   3.431130   3.431130   0.000000
     5  Br   2.101217   3.431130   3.431130   3.431522   0.000000
 Stoichiometry    Br4O
 Framework group  C2V[C2(O),SGV(Br2),SGV'(Br2)]
 Deg. of freedom     4
 Full point group                 C2V     NOp   4
 Largest Abelian subgroup         C2V     NOp   4
 Largest concise Abelian subgroup C2V     NOp   4
                         Standard orientation:                         
 ---------------------------------------------------------------------
 Center     Atomic      Atomic             Coordinates (Angstroms)
 Number     Number       Type             X           Y           Z
 ---------------------------------------------------------------------
      1          8           0        0.000000    0.000000    0.000018
      2         35           0        0.000000    1.715670   -1.212982
      3         35           0       -0.000000   -1.715670   -1.212982
      4         35           0        1.715761   -0.000000    1.212980
      5         35           0       -1.715761    0.000000    1.212980
 ---------------------------------------------------------------------
 Rotational constants (GHZ):      0.5439720      0.5439431      0.5438620
 Standard basis: CC-pVDZ (5D, 7F)
 There are    45 symmetry adapted basis functions of A1  symmetry.
 There are    17 symmetry adapted basis functions of A2  symmetry.
 There are    30 symmetry adapted basis functions of B1  symmetry.
 There are    30 symmetry adapted basis functions of B2  symmetry.
 Integral buffers will be    131072 words long.
 Raffenetti 1 integral format.
 Two-electron integral symmetry is turned on.
   122 basis functions,   621 primitive gaussians,   131 cartesian basis functions
    74 alpha electrons       74 beta electrons
       nuclear repulsion energy      1415.6125356183 Hartrees.
 NAtoms=    5 NActive=    5 NUniq=    3 SFac= 2.78D+00 NAtFMM=   60 NAOKFM=F Big=F
 One-electron integrals computed using PRISM.
 NBasis=   122 RedAO= T  NBF=    45    17    30    30
 NBsUse=   122 1.00D-06 NBFU=    45    17    30    30
 Harris functional with IExCor=  205 diagonalized for initial guess.
 ExpMin= 1.44D-01 ExpMax= 6.40D+05 ExpMxC= 6.18D+03 IAcc=2 IRadAn=         4 AccDes= 0.00D+00
 HarFok:  IExCor=  205 AccDes= 0.00D+00 IRadAn=         4 IDoV= 1
 ScaDFX=  1.000000  1.000000  1.000000  1.000000
 FoFCou: FMM=F IPFlag=           0 FMFlag=      100000 FMFlg1=           0
         NFxFlg=           0 DoJE=T BraDBF=F KetDBF=T FulRan=T
         Omega=  0.000000  0.000000  1.000000  0.000000  0.000000 ICntrl=     500 IOpCl=  0
         NMat0=    1 NMatS0=    1 NMatT0=    0 NMatD0=    1 NMtDS0=    0 NMtDT0=    0
         I1Cent=           4 NGrid=           0.
 Petite list used in FoFCou.
 Initial guess orbital symmetries:
       Occupied  (B2) (A1) (B1) (A1) (B2) (A1) (B1) (A1) (B2) (A1)
                 (B1) (A1) (B2) (A2) (B1) (A1) (A2) (B1) (A1) (B2)
                 (A1) (B2) (A1) (B1) (A1) (B2) (B1) (A1) (A1) (B2)
                 (B1) (A2) (A1) (A1) (B1) (B2) (A2) (A1) (A1) (B2)
                 (B1) (A1) (A1) (B2) (B1) (B1) (B2) (A2) (A2) (B1)
                 (B2) (A2) (A2) (A1) (A1) (B2) (B1) (A1) (B2) (B1)
                 (A1) (A1) (B2) (B1) (A1) (A2) (A1) (B1) (B2) (A1)
                 (B1) (B2) (A2) (A1)
       Virtual   (A1) (B1) (B2) (A1) (B2) (B1) (A1) (A2) (A1) (A1)
                 (B2) (B1) (B2) (B1) (A2) (B1) (B2) (A1) (A1) (A2)
                 (A1) (A1) (B1) (B2) (A2) (B1) (B2) (A1) (B1) (B2)
                 (A1) (A2) (A1) (B1) (B2) (A2) (A1) (B1) (B2) (A1)
                 (B2) (B1) (A1) (A1) (A2) (B1) (B2) (A1)
 The electronic state of the initial guess is 1-A1.
 Requested convergence on RMS density matrix=1.00D-08 within 128 cycles.
 Requested convergence on MAX density matrix=1.00D-06.
 Requested convergence on             energy=1.00D-06.
 No special actions if energy rises.
 Integral accuracy reduced to 1.0D-05 until final iterations.
 DSYEVD returned Info=          91 IAlg= 4 N=    45 NDim=   122 NE2=      274579 trying DSYEV.
 DSYEVD returned Info=          91 IAlg= 4 N=    45 NDim=   122 NE2=      274579 trying DSYEV.
 DSYEVD returned Info=          61 IAlg= 4 N=    30 NDim=   122 NE2=      274579 trying DSYEV.
 DSYEVD returned Info=          61 IAlg= 4 N=    30 NDim=   122 NE2=      274579 trying DSYEV.
 DSYEVD returned Info=          91 IAlg= 4 N=    45 NDim=   122 NE2=      274579 trying DSYEV.
 DSYEVD returned Info=          61 IAlg= 4 N=    30 NDim=   122 NE2=      274579 trying DSYEV.
 DSYEVD returned Info=          61 IAlg= 4 N=    30 NDim=   122 NE2=      274579 trying DSYEV.
 Initial convergence to 1.0D-05 achieved.  Increase integral accuracy.
 DSYEVD returned Info=          91 IAlg= 4 N=    45 NDim=   122 NE2=      274579 trying DSYEV.
 DSYEVD returned Info=          61 IAlg= 4 N=    30 NDim=   122 NE2=      274579 trying DSYEV.
 DSYEVD returned Info=          61 IAlg= 4 N=    30 NDim=   122 NE2=      274579 trying DSYEV.
 DSYEVD returned Info=          91 IAlg= 4 N=    45 NDim=   122 NE2=      274579 trying DSYEV.
 DSYEVD returned Info=          61 IAlg= 4 N=    30 NDim=   122 NE2=      274579 trying DSYEV.
 DSYEVD returned Info=          61 IAlg= 4 N=    30 NDim=   122 NE2=      274579 trying DSYEV.
 DSYEVD returned Info=          91 IAlg= 4 N=    45 NDim=   122 NE2=      274579 trying DSYEV.
 DSYEVD returned Info=          61 IAlg= 4 N=    30 NDim=   122 NE2=      274579 trying DSYEV.
 DSYEVD returned Info=          61 IAlg= 4 N=    30 NDim=   122 NE2=      274579 trying DSYEV.
 DSYEVD returned Info=          91 IAlg= 4 N=    45 NDim=   122 NE2=      274579 trying DSYEV.
 DSYEVD returned Info=          61 IAlg= 4 N=    30 NDim=   122 NE2=      274579 trying DSYEV.
 DSYEVD returned Info=          61 IAlg= 4 N=    30 NDim=   122 NE2=      274579 trying DSYEV.
 DSYEVD returned Info=          91 IAlg= 4 N=    45 NDim=   122 NE2=      274579 trying DSYEV.
 DSYEVD returned Info=          61 IAlg= 4 N=    30 NDim=   122 NE2=      274579 trying DSYEV.
 DSYEVD returned Info=          61 IAlg= 4 N=    30 NDim=   122 NE2=      274579 trying DSYEV.
 DSYEVD returned Info=          91 IAlg= 4 N=    45 NDim=   122 NE2=      274579 trying DSYEV.
 DSYEVD returned Info=          61 IAlg= 4 N=    30 NDim=   122 NE2=      274579 trying DSYEV.
 DSYEVD returned Info=          61 IAlg= 4 N=    30 NDim=   122 NE2=      274579 trying DSYEV.
 SCF Done:  E(RHF) =  -10364.0971749     A.U. after   13 cycles
             Convg  =    0.4163D-08             -V/T =  2.0004
 ExpMin= 1.44D-01 ExpMax= 6.40D+05 ExpMxC= 6.18D+03 IAcc=3 IRadAn=         5 AccDes= 0.00D+00
 HarFok:  IExCor=  205 AccDes= 0.00D+00 IRadAn=         5 IDoV=-2
 ScaDFX=  1.000000  1.000000  1.000000  1.000000
 Range of M.O.s used for correlation:    38   122
 NBasis=   122 NAE=    74 NBE=    74 NFC=    37 NFV=     0
 NROrb=     85 NOA=    37 NOB=    37 NVA=    48 NVB=    48
 Disk-based method using ON**2 memory for 37 occupieds at a time.
 Estimated scratch disk usage=    74560264 words.
 Actual    scratch disk usage=    61430024 words.
 JobTyp=1 Pass  1:  I=  38 to  74 NPSUse=  1 ParTrn=F ParDer=F DoDerP=T.
 (rs|ai) integrals will be sorted in core.
 Spin components of T(2) and E(2):
     alpha-alpha T2 =       0.5053028424D-01 E2=     -0.1186083642D+00
     alpha-beta  T2 =       0.2917659685D+00 E2=     -0.5901253753D+00
     beta-beta   T2 =       0.5053028424D-01 E2=     -0.1186083642D+00
 ANorm=    0.1180180722D+01
 E2 =    -0.8273421038D+00 EUMP2 =    -0.10364924516994D+05
          IDoAtm=11111
          Differentiating once with respect to electric field.
                with respect to dipole field.
          Differentiating once with respect to nuclear coordinates.
          There are     1 degrees of freedom in the 1st order CPHF.  IDoFFX=0.
 LinEq1:  Iter=  0 NonCon=     1 RMS=5.91D-03 Max=1.09D-01
 AX will form     1 AO Fock derivatives at one time.
 LinEq1:  Iter=  1 NonCon=     1 RMS=1.91D-03 Max=4.75D-02
 LinEq1:  Iter=  2 NonCon=     1 RMS=1.01D-03 Max=2.53D-02
 LinEq1:  Iter=  3 NonCon=     1 RMS=1.84D-04 Max=2.75D-03
 LinEq1:  Iter=  4 NonCon=     1 RMS=4.49D-05 Max=7.97D-04
 LinEq1:  Iter=  5 NonCon=     1 RMS=5.69D-06 Max=1.04D-04
 LinEq1:  Iter=  6 NonCon=     1 RMS=9.58D-07 Max=1.40D-05
 LinEq1:  Iter=  7 NonCon=     1 RMS=1.67D-07 Max=3.69D-06
 LinEq1:  Iter=  8 NonCon=     1 RMS=3.08D-08 Max=8.68D-07
 LinEq1:  Iter=  9 NonCon=     1 RMS=8.09D-09 Max=2.10D-07
 LinEq1:  Iter= 10 NonCon=     1 RMS=2.85D-09 Max=1.09D-07
 LinEq1:  Iter= 11 NonCon=     1 RMS=6.31D-10 Max=1.77D-08
 LinEq1:  Iter= 12 NonCon=     1 RMS=1.26D-10 Max=2.47D-09
 LinEq1:  Iter= 13 NonCon=     0 RMS=1.36D-11 Max=2.64D-10
 Linear equations converged to 1.000D-10 1.000D-09 after    13 iterations.
 End of Minotr Frequency-dependent properties file   721 does not exist.
 End of Minotr Frequency-dependent properties file   722 does not exist.

 **********************************************************************

            Population analysis using the SCF density.

 **********************************************************************

 Orbital symmetries:
       Occupied  (B2) (A1) (B1) (A1) (B2) (A1) (B1) (A1) (B2) (A1)
                 (B1) (A1) (B2) (A2) (A1) (B1) (B1) (A2) (A1) (B2)
                 (A1) (B2) (A1) (B1) (A1) (A1) (B2) (A1) (B1) (A1)
                 (B1) (A2) (B2) (A1) (B2) (A2) (B1) (A1) (B2) (A1)
                 (B1) (B1) (A1) (B2) (A2) (A1) (B2) (A2) (B1) (B2)
                 (A2) (B1) (A1) (A2) (B1) (A1) (B2) (A1) (B2) (B1)
                 (A1) (A1) (B2) (B1) (A1) (A2) (A1) (B1) (B2) (A1)
                 (B2) (B1) (A2) (A1)
       Virtual   (A1) (B1) (B2) (A1) (B2) (B1) (A1) (A2) (A1) (A1)
                 (B2) (B1) (A1) (A2) (B2) (B1) (A1) (B1) (B2) (A2)
                 (A1) (B1) (A1) (B2) (A2) (B2) (B1) (A2) (A1) (B1)
                 (B2) (A1) (A1) (B1) (B2) (A2) (B1) (B2) (A1) (A1)
                 (B2) (B1) (A1) (A2) (A1) (B1) (B2) (A1)
 The electronic state is 1-A1.
 Alpha  occ. eigenvalues -- -490.13025-490.13025-490.13024-490.13024 -65.26378
 Alpha  occ. eigenvalues --  -65.26378 -65.26377 -65.26376 -58.62159 -58.62159
 Alpha  occ. eigenvalues --  -58.62158 -58.62158 -58.61890 -58.61890 -58.61890
 Alpha  occ. eigenvalues --  -58.61890 -58.61889 -58.61889 -58.61889 -58.61889
 Alpha  occ. eigenvalues --  -20.79466  -9.90804  -9.90804  -9.90803  -9.90801
 Alpha  occ. eigenvalues --   -7.52342  -7.52342  -7.52341  -7.52341  -7.50964
 Alpha  occ. eigenvalues --   -7.50964  -7.50964  -7.50964  -7.50963  -7.50963
 Alpha  occ. eigenvalues --   -7.50963  -7.50963  -3.26122  -3.26115  -3.26114
 Alpha  occ. eigenvalues --   -3.26114  -3.25512  -3.25511  -3.25511  -3.25509
 Alpha  occ. eigenvalues --   -3.25508  -3.25507  -3.25506  -3.25506  -3.23850
 Alpha  occ. eigenvalues --   -3.23850  -3.23850  -3.23850  -3.23848  -3.23848
 Alpha  occ. eigenvalues --   -3.23848  -3.23848  -1.43281  -1.02051  -1.02050
 Alpha  occ. eigenvalues --   -1.02049  -0.98312  -0.64753  -0.64753  -0.64753
 Alpha  occ. eigenvalues --   -0.46674  -0.46673  -0.44768  -0.44768  -0.44767
 Alpha  occ. eigenvalues --   -0.42613  -0.42612  -0.42612  -0.32076
 Alpha virt. eigenvalues --   -0.04812  -0.04811  -0.04809   0.54205   0.58453
 Alpha virt. eigenvalues --    0.58454   0.58454   0.63709   0.63713   0.63772
 Alpha virt. eigenvalues --    0.63772   0.63774   0.68175   0.70152   0.70152
 Alpha virt. eigenvalues --    0.70153   0.70970   0.70971   0.70971   0.71898
 Alpha virt. eigenvalues --    0.71899   0.72585   0.72585   0.72585   0.75177
 Alpha virt. eigenvalues --    0.75178   0.75179   0.77918   0.77919   0.78095
 Alpha virt. eigenvalues --    0.78096   0.78096   0.82064   0.90333   0.90334
 Alpha virt. eigenvalues --    0.90337   1.10665   1.10669   1.10670   1.59043
 Alpha virt. eigenvalues --    1.59049   1.59053   2.12675   2.82869   2.82869
 Alpha virt. eigenvalues --    2.99307   2.99311   2.99312
          Condensed to atoms (all electrons):
              1          2          3          4          5
     1  O    8.555544  -0.031030  -0.031030  -0.031045  -0.031045
     2  Br  -0.031030  34.851344   0.023934   0.023936   0.023936
     3  Br  -0.031030   0.023934  34.851344   0.023936   0.023936
     4  Br  -0.031045   0.023936   0.023936  34.851411   0.023946
     5  Br  -0.031045   0.023936   0.023936   0.023946  34.851411
 Mulliken atomic charges:
              1
     1  O   -0.431392
     2  Br   0.107880
     3  Br   0.107880
     4  Br   0.107816
     5  Br   0.107816
 Sum of Mulliken atomic charges =   0.00000
 Mulliken charges with hydrogens summed into heavy atoms:
              1
     1  O   -0.431392
     2  Br   0.107880
     3  Br   0.107880
     4  Br   0.107816
     5  Br   0.107816
 Sum of Mulliken charges with hydrogens summed into heavy atoms =   0.00000
 Electronic spatial extent (au):  <R**2>=           2376.4250
 Charge=             -0.0000 electrons
 Dipole moment (field-independent basis, Debye):
    X=              0.0000    Y=             -0.0000    Z=             -0.0006  Tot=              0.0006
 Quadrupole moment (field-independent basis, Debye-Ang):
   XX=            -75.8369   YY=            -75.8356   ZZ=            -75.8381
   XY=             -0.0000   XZ=              0.0000   YZ=             -0.0000
 Traceless Quadrupole moment (field-independent basis, Debye-Ang):
   XX=             -0.0001   YY=              0.0013   ZZ=             -0.0012
   XY=             -0.0000   XZ=              0.0000   YZ=             -0.0000
 Octapole moment (field-independent basis, Debye-Ang**2):
  XXX=              0.0000  YYY=             -0.0000  ZZZ=             -0.0030  XYY=              0.0000
  XXY=             -0.0000  XXZ=             14.7588  XZZ=             -0.0000  YZZ=             -0.0000
  YYZ=            -14.7613  XYZ=             -0.0000
 Hexadecapole moment (field-independent basis, Debye-Ang**3):
 XXXX=           -677.8628 YYYY=           -677.7910 ZZZZ=           -713.0006 XXXY=              0.0000
 XXXZ=              0.0000 YYYX=              0.0000 YYYZ=             -0.0000 ZZZX=              0.0000
 ZZZY=             -0.0000 XXYY=           -249.5287 XXZZ=           -214.1308 YYZZ=           -214.1153
 XXYZ=             -0.0000 YYXZ=             -0.0000 ZZXY=              0.0000
 N-N= 1.415612535618D+03 E-N=-2.761533658051D+04  KE= 1.035971707995D+04
 Symmetry A1   KE= 4.460209574876D+03
 Symmetry A2   KE= 7.520168282294D+02
 Symmetry B1   KE= 2.573745250573D+03
 Symmetry B2   KE= 2.573745426271D+03
 Calling FoFJK, ICntrl=      2127 FMM=F ISym2X=1 I1Cent= 0 IOpClX= 0 NMat=1 NMatS=1 NMatT=0.
 ***** Axes restored to original set *****
 -------------------------------------------------------------------
 Center     Atomic                   Forces (Hartrees/Bohr)
 Number     Number              X              Y              Z
 -------------------------------------------------------------------
      1        8          -0.000000000    0.000000000    0.000005796
      2       35          -0.000000000    0.007202961   -0.005097853
      3       35           0.000000000   -0.007202961   -0.005097853
      4       35           0.007196059    0.000000000    0.005094955
      5       35          -0.007196059    0.000000000    0.005094955
 -------------------------------------------------------------------
 Cartesian Forces:  Max     0.007202961 RMS     0.004555035

 GradGradGradGradGradGradGradGradGradGradGradGradGradGradGradGradGradGrad
 Berny optimization.
 Internal  Forces:  Max     0.008824439 RMS     0.004714913
 Search for a local minimum.
 Step number   1 out of a maximum of   24
 All quantities printed in internal units (Hartrees-Bohrs-Radians)
 Mixed Optimization -- RFO/linear search
 Second derivative matrix not updated -- first step.
 The second derivative matrix:
                          R1        R2        R3        R4        A1
           R1           0.11123
           R2           0.00000   0.11123
           R3           0.00000   0.00000   0.11121
           R4           0.00000   0.00000   0.00000   0.11121
           A1           0.00000   0.00000   0.00000   0.00000   0.25000
           A2           0.00000   0.00000   0.00000   0.00000   0.00000
           A3           0.00000   0.00000   0.00000   0.00000   0.00000
           A4           0.00000   0.00000   0.00000   0.00000   0.00000
           A5           0.00000   0.00000   0.00000   0.00000   0.00000
           A6           0.00000   0.00000   0.00000   0.00000   0.00000
           D1           0.00000   0.00000   0.00000   0.00000   0.00000
           D2           0.00000   0.00000   0.00000   0.00000   0.00000
           D3           0.00000   0.00000   0.00000   0.00000   0.00000
           D4           0.00000   0.00000   0.00000   0.00000   0.00000
                          A2        A3        A4        A5        A6
           A2           0.25000
           A3           0.00000   0.25000
           A4           0.00000   0.00000   0.25000
           A5           0.00000   0.00000   0.00000   0.25000
           A6           0.00000   0.00000   0.00000   0.00000   0.25000
           D1           0.00000   0.00000   0.00000   0.00000   0.00000
           D2           0.00000   0.00000   0.00000   0.00000   0.00000
           D3           0.00000   0.00000   0.00000   0.00000   0.00000
           D4           0.00000   0.00000   0.00000   0.00000   0.00000
                          D1        D2        D3        D4
           D1           0.00230
           D2           0.00000   0.00230
           D3           0.00000   0.00000   0.00230
           D4           0.00000   0.00000   0.00000   0.00230
 ITU=  0
     Eigenvalues ---    0.07852   0.08844   0.11121   0.11121   0.11123
     Eigenvalues ---    0.11123   0.13443   0.25000   0.25000
 RFO step:  Lambda=-2.73122892D-03 EMin= 7.85176853D-02
 Linear search not attempted -- first point.
 Iteration  1 RMS(Cart)=  0.04137681 RMS(Int)=  0.00000052
 Iteration  2 RMS(Cart)=  0.00000116 RMS(Int)=  0.00000000
 Iteration  3 RMS(Cart)=  0.00000000 RMS(Int)=  0.00000000
 ClnCor:  largest displacement from symmetrization is 1.54D-07 for atom     5.
 Variable       Old X    -DE/DX   Delta X   Delta X   Delta X     New X
                                 (Linear)    (Quad)   (Total)
    R1        3.97063   0.00882   0.00000   0.07744   0.07744   4.04806
    R2        3.97063   0.00882   0.00000   0.07744   0.07744   4.04806
    R3        3.97072   0.00882   0.00000   0.07738   0.07738   4.04811
    R4        3.97072   0.00882   0.00000   0.07738   0.07738   4.04811
    A1        1.91076  -0.00001   0.00000  -0.00004  -0.00004   1.91072
    A2        1.91055   0.00001   0.00000   0.00003   0.00003   1.91058
    A3        1.91055   0.00001   0.00000   0.00003   0.00003   1.91058
    A4        1.91055   0.00001   0.00000   0.00003   0.00003   1.91058
    A5        1.91055   0.00001   0.00000   0.00003   0.00003   1.91058
    A6        1.91084  -0.00002   0.00000  -0.00007  -0.00007   1.91077
    D1       -2.09445   0.00000   0.00000   0.00001   0.00001  -2.09443
    D2        2.09445  -0.00000   0.00000  -0.00001  -0.00001   2.09443
    D3       -2.09437  -0.00000   0.00000  -0.00001  -0.00001  -2.09438
    D4        2.09437   0.00000   0.00000   0.00001   0.00001   2.09438
         Item               Value     Threshold  Converged?
 Maximum Force            0.008824     0.000450     NO 
 RMS     Force            0.004715     0.000300     NO 
 Maximum Displacement     0.063183     0.001800     NO 
 RMS     Displacement     0.041377     0.001200     NO 
 Predicted change in Energy=-1.398347D-03
 GradGradGradGradGradGradGradGradGradGradGradGradGradGradGradGradGradGrad

                          Input orientation:                          
 ---------------------------------------------------------------------
 Center     Atomic      Atomic             Coordinates (Angstroms)
 Number     Number       Type             X           Y           Z
 ---------------------------------------------------------------------
      1          8           0       -0.000000    0.000000    0.000014
      2         35           0        0.000000    1.749105   -1.236677
      3         35           0       -0.000000   -1.749105   -1.236677
      4         35           0        1.749154   -0.000000    1.236676
      5         35           0       -1.749154    0.000000    1.236676
 ---------------------------------------------------------------------
                    Distance matrix (angstroms):
                    1          2          3          4          5
     1  O    0.000000
     2  Br   2.142142   0.000000
     3  Br   2.142142   3.498210   0.000000
     4  Br   2.142165   3.498054   3.498054   0.000000
     5  Br   2.142165   3.498054   3.498054   3.498307   0.000000
 Stoichiometry    Br4O
 Framework group  C2V[C2(O),SGV(Br2),SGV'(Br2)]
 Deg. of freedom     4
 Full point group                 C2V     NOp   4
 Largest Abelian subgroup         C2V     NOp   4
 Largest concise Abelian subgroup C2V     NOp   4
                         Standard orientation:                         
 ---------------------------------------------------------------------
 Center     Atomic      Atomic             Coordinates (Angstroms)
 Number     Number       Type             X           Y           Z
 ---------------------------------------------------------------------
      1          8           0        0.000000    0.000000    0.000013
      2         35           0        0.000000    1.749105   -1.236677
      3         35           0       -0.000000   -1.749105   -1.236677
      4         35           0        1.749154   -0.000000    1.236676
      5         35           0       -1.749154    0.000000    1.236676
 ---------------------------------------------------------------------
 Rotational constants (GHZ):      0.5233500      0.5233355      0.5232815
 Standard basis: CC-pVDZ (5D, 7F)
 There are    45 symmetry adapted basis functions of A1  symmetry.
 There are    17 symmetry adapted basis functions of A2  symmetry.
 There are    30 symmetry adapted basis functions of B1  symmetry.
 There are    30 symmetry adapted basis functions of B2  symmetry.
 Integral buffers will be    131072 words long.
 Raffenetti 1 integral format.
 Two-electron integral symmetry is turned on.
   122 basis functions,   621 primitive gaussians,   131 cartesian basis functions
    74 alpha electrons       74 beta electrons
       nuclear repulsion energy      1388.5427191176 Hartrees.
 NAtoms=    5 NActive=    5 NUniq=    3 SFac= 2.78D+00 NAtFMM=   60 NAOKFM=F Big=F
 One-electron integrals computed using PRISM.
 NBasis=   122 RedAO= T  NBF=    45    17    30    30
 NBsUse=   122 1.00D-06 NBFU=    45    17    30    30
 Initial guess read from the read-write file.
 B after Tr=     0.000000    0.000000    0.000000
         Rot=    1.000000    0.000000    0.000000    0.000000 Ang=   0.00 deg.
 Initial guess orbital symmetries:
       Occupied  (B2) (A1) (B1) (A1) (B2) (A1) (B1) (A1) (B2) (A1)
                 (B1) (A1) (B2) (A2) (A1) (B1) (B1) (A2) (A1) (B2)
                 (A1) (B2) (A1) (B1) (A1) (A1) (B2) (A1) (B1) (A1)
                 (B1) (A2) (B2) (A1) (B2) (A2) (B1) (A1) (B2) (A1)
                 (B1) (B1) (A1) (B2) (A2) (A1) (B2) (A2) (B1) (B2)
                 (A2) (B1) (A1) (A2) (B1) (A1) (B2) (A1) (B2) (B1)
                 (A1) (A1) (B2) (B1) (A1) (A2) (A1) (B1) (B2) (A1)
                 (B2) (B1) (A2) (A1)
       Virtual   (A1) (B1) (B2) (A1) (B2) (B1) (A1) (A2) (A1) (A1)
                 (B2) (B1) (A1) (A2) (B2) (B1) (A1) (B1) (B2) (A2)
                 (A1) (B1) (A1) (B2) (A2) (B2) (B1) (A2) (A1) (B1)
                 (B2) (A1) (A1) (B1) (B2) (A2) (B1) (B2) (A1) (A1)
                 (B2) (B1) (A1) (A2) (A1) (B1) (B2) (A1)
 Harris functional with IExCor=  205 diagonalized for initial guess.
 ExpMin= 1.44D-01 ExpMax= 6.40D+05 ExpMxC= 6.18D+03 IAcc=2 IRadAn=         4 AccDes= 0.00D+00
 HarFok:  IExCor=  205 AccDes= 0.00D+00 IRadAn=         4 IDoV= 1
 ScaDFX=  1.000000  1.000000  1.000000  1.000000
 FoFCou: FMM=F IPFlag=           0 FMFlag=      100000 FMFlg1=           0
         NFxFlg=           0 DoJE=T BraDBF=F KetDBF=T FulRan=T
         Omega=  0.000000  0.000000  1.000000  0.000000  0.000000 ICntrl=     500 IOpCl=  0
         NMat0=    1 NMatS0=    1 NMatT0=    0 NMatD0=    1 NMtDS0=    0 NMtDT0=    0
         I1Cent=           4 NGrid=           0.
 Petite list used in FoFCou.
 Requested convergence on RMS density matrix=1.00D-08 within 128 cycles.
 Requested convergence on MAX density matrix=1.00D-06.
 Requested convergence on             energy=1.00D-06.
 No special actions if energy rises.
 Integral accuracy reduced to 1.0D-05 until final iterations.
 DSYEVD returned Info=          91 IAlg= 4 N=    45 NDim=   122 NE2=      274579 trying DSYEV.
 DSYEVD returned Info=          91 IAlg= 4 N=    45 NDim=   122 NE2=      274579 trying DSYEV.
 DSYEVD returned Info=          61 IAlg= 4 N=    30 NDim=   122 NE2=      274579 trying DSYEV.
 DSYEVD returned Info=          61 IAlg= 4 N=    30 NDim=   122 NE2=      274579 trying DSYEV.
 DSYEVD returned Info=          91 IAlg= 4 N=    45 NDim=   122 NE2=      274579 trying DSYEV.
 DSYEVD returned Info=          61 IAlg= 4 N=    30 NDim=   122 NE2=      274579 trying DSYEV.
 DSYEVD returned Info=          61 IAlg= 4 N=    30 NDim=   122 NE2=      274579 trying DSYEV.
 Initial convergence to 1.0D-05 achieved.  Increase integral accuracy.
 DSYEVD returned Info=          91 IAlg= 4 N=    45 NDim=   122 NE2=      274579 trying DSYEV.
 DSYEVD returned Info=          61 IAlg= 4 N=    30 NDim=   122 NE2=      274579 trying DSYEV.
 DSYEVD returned Info=          61 IAlg= 4 N=    30 NDim=   122 NE2=      274579 trying DSYEV.
 DSYEVD returned Info=          91 IAlg= 4 N=    45 NDim=   122 NE2=      274579 trying DSYEV.
 DSYEVD returned Info=          61 IAlg= 4 N=    30 NDim=   122 NE2=      274579 trying DSYEV.
 DSYEVD returned Info=          61 IAlg= 4 N=    30 NDim=   122 NE2=      274579 trying DSYEV.
 DSYEVD returned Info=          91 IAlg= 4 N=    45 NDim=   122 NE2=      274579 trying DSYEV.
 DSYEVD returned Info=          61 IAlg= 4 N=    30 NDim=   122 NE2=      274579 trying DSYEV.
 DSYEVD returned Info=          61 IAlg= 4 N=    30 NDim=   122 NE2=      274579 trying DSYEV.
 DSYEVD returned Info=          91 IAlg= 4 N=    45 NDim=   122 NE2=      274579 trying DSYEV.
 DSYEVD returned Info=          61 IAlg= 4 N=    30 NDim=   122 NE2=      274579 trying DSYEV.
 DSYEVD returned Info=          61 IAlg= 4 N=    30 NDim=   122 NE2=      274579 trying DSYEV.
 DSYEVD returned Info=          91 IAlg= 4 N=    45 NDim=   122 NE2=      274579 trying DSYEV.
 DSYEVD returned Info=          61 IAlg= 4 N=    30 NDim=   122 NE2=      274579 trying DSYEV.
 DSYEVD returned Info=          61 IAlg= 4 N=    30 NDim=   122 NE2=      274579 trying DSYEV.
 DSYEVD returned Info=          91 IAlg= 4 N=    45 NDim=   122 NE2=      274579 trying DSYEV.
 DSYEVD returned Info=          61 IAlg= 4 N=    30 NDim=   122 NE2=      274579 trying DSYEV.
 DSYEVD returned Info=          61 IAlg= 4 N=    30 NDim=   122 NE2=      274579 trying DSYEV.
 SCF Done:  E(RHF) =  -10364.0933005     A.U. after   10 cycles
             Convg  =    0.9936D-08             -V/T =  2.0004
 ExpMin= 1.44D-01 ExpMax= 6.40D+05 ExpMxC= 6.18D+03 IAcc=3 IRadAn=         5 AccDes= 0.00D+00
 HarFok:  IExCor=  205 AccDes= 0.00D+00 IRadAn=         5 IDoV=-2
 ScaDFX=  1.000000  1.000000  1.000000  1.000000
 Range of M.O.s used for correlation:    38   122
 NBasis=   122 NAE=    74 NBE=    74 NFC=    37 NFV=     0
 NROrb=     85 NOA=    37 NOB=    37 NVA=    48 NVB=    48
 Disk-based method using ON**2 memory for 37 occupieds at a time.
 Estimated scratch disk usage=    74144304 words.
 Actual    scratch disk usage=    60801072 words.
 JobTyp=1 Pass  1:  I=  38 to  74 NPSUse=  1 ParTrn=F ParDer=F DoDerP=T.
 (rs|ai) integrals will be sorted in core.
 Spin components of T(2) and E(2):
     alpha-alpha T2 =       0.5142849883D-01 E2=     -0.1186917545D+00
     alpha-beta  T2 =       0.3011631674D+00 E2=     -0.5951260437D+00
     beta-beta   T2 =       0.5142849883D-01 E2=     -0.1186917545D+00
 ANorm=    0.1184913569D+01
 E2 =    -0.8325095526D+00 EUMP2 =    -0.10364925810039D+05
          IDoAtm=11111
          Differentiating once with respect to electric field.
                with respect to dipole field.
          Differentiating once with respect to nuclear coordinates.
          There are     1 degrees of freedom in the 1st order CPHF.  IDoFFX=0.
 LinEq1:  Iter=  0 NonCon=     1 RMS=6.27D-03 Max=1.22D-01
 AX will form     1 AO Fock derivatives at one time.
 LinEq1:  Iter=  1 NonCon=     1 RMS=2.24D-03 Max=5.47D-02
 LinEq1:  Iter=  2 NonCon=     1 RMS=1.10D-03 Max=2.75D-02
 LinEq1:  Iter=  3 NonCon=     1 RMS=2.16D-04 Max=3.25D-03
 LinEq1:  Iter=  4 NonCon=     1 RMS=5.21D-05 Max=9.09D-04
 LinEq1:  Iter=  5 NonCon=     1 RMS=6.65D-06 Max=1.18D-04
 LinEq1:  Iter=  6 NonCon=     1 RMS=1.08D-06 Max=1.66D-05
 LinEq1:  Iter=  7 NonCon=     1 RMS=1.85D-07 Max=4.33D-06
 LinEq1:  Iter=  8 NonCon=     1 RMS=3.01D-08 Max=8.59D-07
 LinEq1:  Iter=  9 NonCon=     1 RMS=7.84D-09 Max=1.17D-07
 LinEq1:  Iter= 10 NonCon=     1 RMS=1.71D-09 Max=7.10D-08
 LinEq1:  Iter= 11 NonCon=     1 RMS=6.03D-10 Max=1.67D-08
 LinEq1:  Iter= 12 NonCon=     1 RMS=1.35D-10 Max=3.08D-09
 LinEq1:  Iter= 13 NonCon=     0 RMS=1.52D-11 Max=3.25D-10
 Linear equations converged to 1.000D-10 1.000D-09 after    13 iterations.
 End of Minotr Frequency-dependent properties file   721 does not exist.
 End of Minotr Frequency-dependent properties file   722 does not exist.
 Calling FoFJK, ICntrl=      2127 FMM=F ISym2X=1 I1Cent= 0 IOpClX= 0 NMat=1 NMatS=1 NMatT=0.
 ***** Axes restored to original set *****
 -------------------------------------------------------------------
 Center     Atomic                   Forces (Hartrees/Bohr)
 Number     Number              X              Y              Z
 -------------------------------------------------------------------
      1        8          -0.000000000    0.000000000    0.000001457
      2       35          -0.000000000   -0.000118580    0.000080517
      3       35          -0.000000000    0.000118580    0.000080517
      4       35          -0.000121208    0.000000000   -0.000081245
      5       35           0.000121208   -0.000000000   -0.000081245
 -------------------------------------------------------------------
 Cartesian Forces:  Max     0.000121208 RMS     0.000074688

 GradGradGradGradGradGradGradGradGradGradGradGradGradGradGradGradGradGrad
 Berny optimization.
 Using GEDIIS/GDIIS optimizer.
 Internal  Forces:  Max     0.000145873 RMS     0.000077391
 Search for a local minimum.
 Step number   2 out of a maximum of   24
 All quantities printed in internal units (Hartrees-Bohrs-Radians)
 Mixed Optimization -- En-DIIS/RFO-DIIS
 Update second derivatives using D2CorX and points    1    2
 DE= -1.29D-03 DEPred=-1.40D-03 R= 9.25D-01
 SS=  1.41D+00  RLast= 1.55D-01 DXNew= 5.0454D-01 4.6445D-01
 Trust test= 9.25D-01 RLast= 1.55D-01 DXMaxT set to 4.64D-01
 The second derivative matrix:
                          R1        R2        R3        R4        A1
           R1           0.11237
           R2           0.00114   0.11237
           R3           0.00115   0.00115   0.11237
           R4           0.00115   0.00115   0.00116   0.11237
           A1           0.00002   0.00002   0.00002   0.00002   0.25000
           A2          -0.00001  -0.00001  -0.00001  -0.00001   0.00000
           A3          -0.00001  -0.00001  -0.00001  -0.00001   0.00000
           A4          -0.00001  -0.00001  -0.00001  -0.00001   0.00000
           A5          -0.00001  -0.00001  -0.00001  -0.00001   0.00000
           A6           0.00003   0.00003   0.00003   0.00003  -0.00000
           D1           0.00000   0.00000   0.00000   0.00000  -0.00000
           D2          -0.00000  -0.00000  -0.00000  -0.00000   0.00000
           D3          -0.00000  -0.00000  -0.00000  -0.00000   0.00000
           D4           0.00000   0.00000   0.00000   0.00000  -0.00000
                          A2        A3        A4        A5        A6
           A2           0.25000
           A3          -0.00000   0.25000
           A4          -0.00000  -0.00000   0.25000
           A5          -0.00000  -0.00000  -0.00000   0.25000
           A6           0.00000   0.00000   0.00000   0.00000   0.25000
           D1           0.00000   0.00000   0.00000   0.00000  -0.00000
           D2          -0.00000  -0.00000  -0.00000  -0.00000   0.00000
           D3          -0.00000  -0.00000  -0.00000  -0.00000   0.00000
           D4           0.00000   0.00000   0.00000   0.00000  -0.00000
                          D1        D2        D3        D4
           D1           0.00230
           D2          -0.00000   0.00230
           D3          -0.00000   0.00000   0.00230
           D4           0.00000  -0.00000  -0.00000   0.00230
 ITU=  1  0
 Use linear search instead of GDIIS.
     Eigenvalues ---    0.07852   0.08845   0.11121   0.11122   0.11123
     Eigenvalues ---    0.11582   0.13442   0.25000   0.25000
 RFO step:  Lambda= 0.00000000D+00 EMin= 7.85170027D-02
 Quartic linear search produced a step of -0.01801.
 Iteration  1 RMS(Cart)=  0.00074624 RMS(Int)=  0.00000001
 Iteration  2 RMS(Cart)=  0.00000001 RMS(Int)=  0.00000000
 ClnCor:  largest displacement from symmetrization is 6.52D-08 for atom     5.
 Variable       Old X    -DE/DX   Delta X   Delta X   Delta X     New X
                                 (Linear)    (Quad)   (Total)
    R1        4.04806  -0.00014  -0.00139   0.00001  -0.00138   4.04668
    R2        4.04806  -0.00014  -0.00139   0.00001  -0.00138   4.04668
    R3        4.04811  -0.00015  -0.00139  -0.00001  -0.00141   4.04670
    R4        4.04811  -0.00015  -0.00139  -0.00001  -0.00141   4.04670
    A1        1.91072  -0.00000   0.00000  -0.00003  -0.00003   1.91069
    A2        1.91058   0.00000  -0.00000   0.00002   0.00002   1.91059
    A3        1.91058   0.00000  -0.00000   0.00002   0.00002   1.91059
    A4        1.91058   0.00000  -0.00000   0.00002   0.00002   1.91059
    A5        1.91058   0.00000  -0.00000   0.00002   0.00002   1.91059
    A6        1.91077  -0.00001   0.00000  -0.00004  -0.00004   1.91073
    D1       -2.09443   0.00000  -0.00000   0.00001   0.00001  -2.09442
    D2        2.09443  -0.00000   0.00000  -0.00001  -0.00001   2.09442
    D3       -2.09438  -0.00000   0.00000  -0.00001  -0.00001  -2.09438
    D4        2.09438   0.00000  -0.00000   0.00001   0.00001   2.09438
         Item               Value     Threshold  Converged?
 Maximum Force            0.000146     0.000450     YES
 RMS     Force            0.000077     0.000300     YES
 Maximum Displacement     0.001196     0.001800     YES
 RMS     Displacement     0.000746     0.001200     YES
 Predicted change in Energy=-3.565510D-07
 Optimization completed.
    -- Stationary point found.
                           ----------------------------
                           !   Optimized Parameters   !
                           ! (Angstroms and Degrees)  !
 --------------------------                            --------------------------
 ! Name  Definition              Value          Derivative Info.                !
 --------------------------------------------------------------------------------
 ! R1    R(1,2)                  2.1421         -DE/DX =   -0.0001              !
 ! R2    R(1,3)                  2.1421         -DE/DX =   -0.0001              !
 ! R3    R(1,4)                  2.1422         -DE/DX =   -0.0001              !
 ! R4    R(1,5)                  2.1422         -DE/DX =   -0.0001              !
 ! A1    A(2,1,3)              109.4762         -DE/DX =    0.0                 !
 ! A2    A(2,1,4)              109.4681         -DE/DX =    0.0                 !
 ! A3    A(2,1,5)              109.4681         -DE/DX =    0.0                 !
 ! A4    A(3,1,4)              109.4681         -DE/DX =    0.0                 !
 ! A5    A(3,1,5)              109.4681         -DE/DX =    0.0                 !
 ! A6    A(4,1,5)              109.4789         -DE/DX =    0.0                 !
 ! D1    D(2,1,4,3)           -120.0022         -DE/DX =    0.0                 !
 ! D2    D(2,1,5,3)            120.0022         -DE/DX =    0.0                 !
 ! D3    D(2,1,5,4)           -119.9989         -DE/DX =    0.0                 !
 ! D4    D(3,1,5,4)            119.9989         -DE/DX =    0.0                 !
 --------------------------------------------------------------------------------
 GradGradGradGradGradGradGradGradGradGradGradGradGradGradGradGradGradGrad

                          Input orientation:                          
 ---------------------------------------------------------------------
 Center     Atomic      Atomic             Coordinates (Angstroms)
 Number     Number       Type             X           Y           Z
 ---------------------------------------------------------------------
      1          8           0       -0.000000    0.000000    0.000014
      2         35           0       -0.000000    1.749105   -1.236677
      3         35           0        0.000000   -1.749105   -1.236677
      4         35           0        1.749154    0.000000    1.236676
      5         35           0       -1.749154   -0.000000    1.236676
 ---------------------------------------------------------------------
                    Distance matrix (angstroms):
                    1          2          3          4          5
     1  O    0.000000
     2  Br   2.142142   0.000000
     3  Br   2.142142   3.498210   0.000000
     4  Br   2.142165   3.498054   3.498054   0.000000
     5  Br   2.142165   3.498054   3.498054   3.498307   0.000000
 Stoichiometry    Br4O
 Framework group  C2V[C2(O),SGV(Br2),SGV'(Br2)]
 Deg. of freedom     4
 Full point group                 C2V     NOp   4
 Largest Abelian subgroup         C2V     NOp   4
 Largest concise Abelian subgroup C2V     NOp   4
                         Standard orientation:                         
 ---------------------------------------------------------------------
 Center     Atomic      Atomic             Coordinates (Angstroms)
 Number     Number       Type             X           Y           Z
 ---------------------------------------------------------------------
      1          8           0        0.000000    0.000000    0.000013
      2         35           0        0.000000    1.749105   -1.236677
      3         35           0       -0.000000   -1.749105   -1.236677
      4         35           0        1.749154   -0.000000    1.236676
      5         35           0       -1.749154    0.000000    1.236676
 ---------------------------------------------------------------------
 Rotational constants (GHZ):      0.5233500      0.5233355      0.5232815

 **********************************************************************

            Population analysis using the SCF density.

 **********************************************************************

 Orbital symmetries:
       Occupied  (B2) (A1) (B1) (A1) (B2) (A1) (B1) (A1) (B2) (A1)
                 (B1) (A1) (B2) (A2) (B1) (A1) (B1) (A2) (B2) (A1)
                 (A1) (B2) (A1) (B1) (A1) (B2) (A1) (B1) (A1) (A1)
                 (B1) (A2) (B2) (A1) (B2) (A2) (B1) (A1) (B2) (A1)
                 (B1) (B1) (A1) (B2) (A2) (A1) (B2) (A2) (B1) (B2)
                 (A2) (B1) (A1) (A2) (B1) (A1) (B2) (A1) (B2) (B1)
                 (A1) (A1) (B2) (B1) (A1) (A2) (A1) (B1) (B2) (A1)
                 (B2) (B1) (A2) (A1)
       Virtual   (A1) (B1) (B2) (A1) (B1) (B2) (A1) (A1) (B2) (B1)
                 (A2) (A1) (A1) (A2) (B2) (B1) (A1) (B1) (B2) (A2)
                 (A1) (A1) (B1) (B2) (A2) (B2) (B1) (B1) (B2) (A1)
                 (A2) (A1) (A1) (B1) (B2) (A2) (B1) (B2) (A1) (A1)
                 (B2) (B1) (A1) (A2) (A1) (B1) (B2) (A1)
 The electronic state is 1-A1.
 Alpha  occ. eigenvalues -- -490.13118-490.13118-490.13118-490.13118 -65.26453
 Alpha  occ. eigenvalues --  -65.26453 -65.26452 -65.26452 -58.62236 -58.62236
 Alpha  occ. eigenvalues --  -58.62236 -58.62236 -58.61967 -58.61967 -58.61967
 Alpha  occ. eigenvalues --  -58.61967 -58.61966 -58.61966 -58.61966 -58.61966
 Alpha  occ. eigenvalues --  -20.79143  -9.90844  -9.90844  -9.90843  -9.90841
 Alpha  occ. eigenvalues --   -7.52376  -7.52376  -7.52375  -7.52375  -7.51004
 Alpha  occ. eigenvalues --   -7.51004  -7.51004  -7.51004  -7.51004  -7.51004
 Alpha  occ. eigenvalues --   -7.51004  -7.51004  -3.26153  -3.26146  -3.26146
 Alpha  occ. eigenvalues --   -3.26145  -3.25551  -3.25551  -3.25551  -3.25548
 Alpha  occ. eigenvalues --   -3.25548  -3.25547  -3.25547  -3.25546  -3.23890
 Alpha  occ. eigenvalues --   -3.23890  -3.23890  -3.23890  -3.23889  -3.23889
 Alpha  occ. eigenvalues --   -3.23889  -3.23889  -1.41370  -1.01650  -1.01649
 Alpha  occ. eigenvalues --   -1.01649  -0.98484  -0.63340  -0.63339  -0.63339
 Alpha  occ. eigenvalues --   -0.46438  -0.46437  -0.44651  -0.44651  -0.44650
 Alpha  occ. eigenvalues --   -0.42800  -0.42800  -0.42800  -0.32317
 Alpha virt. eigenvalues --   -0.05600  -0.05599  -0.05599   0.54561   0.58883
 Alpha virt. eigenvalues --    0.58883   0.58884   0.63995   0.63995   0.63995
 Alpha virt. eigenvalues --    0.64059   0.64062   0.67930   0.70391   0.70391
 Alpha virt. eigenvalues --    0.70392   0.71260   0.71261   0.71261   0.72390
 Alpha virt. eigenvalues --    0.72390   0.72825   0.72825   0.72826   0.75134
 Alpha virt. eigenvalues --    0.75135   0.75135   0.77212   0.77213   0.77213
 Alpha virt. eigenvalues --    0.77469   0.77469   0.80543   0.88931   0.88932
 Alpha virt. eigenvalues --    0.88934   1.08314   1.08316   1.08317   1.57986
 Alpha virt. eigenvalues --    1.57990   1.57992   2.09576   2.83479   2.83479
 Alpha virt. eigenvalues --    2.98194   2.98196   2.98197
          Condensed to atoms (all electrons):
              1          2          3          4          5
     1  O    8.469025  -0.012708  -0.012708  -0.012714  -0.012714
     2  Br  -0.012708  34.840673   0.022491   0.022492   0.022492
     3  Br  -0.012708   0.022491  34.840673   0.022492   0.022492
     4  Br  -0.012714   0.022492   0.022492  34.840703   0.022496
     5  Br  -0.012714   0.022492   0.022492   0.022496  34.840703
 Mulliken atomic charges:
              1
     1  O   -0.418181
     2  Br   0.104560
     3  Br   0.104560
     4  Br   0.104531
     5  Br   0.104531
 Sum of Mulliken atomic charges =   0.00000
 Mulliken charges with hydrogens summed into heavy atoms:
              1
     1  O   -0.418181
     2  Br   0.104560
     3  Br   0.104560
     4  Br   0.104531
     5  Br   0.104531
 Sum of Mulliken charges with hydrogens summed into heavy atoms =   0.00000
 Electronic spatial extent (au):  <R**2>=           2462.7910
 Charge=              0.0000 electrons
 Dipole moment (field-independent basis, Debye):
    X=              0.0000    Y=             -0.0000    Z=             -0.0003  Tot=              0.0003
 Quadrupole moment (field-independent basis, Debye-Ang):
   XX=            -75.5968   YY=            -75.5962   ZZ=            -75.5977
   XY=             -0.0000   XZ=              0.0000   YZ=             -0.0000
 Traceless Quadrupole moment (field-independent basis, Debye-Ang):
   XX=              0.0001   YY=              0.0007   ZZ=             -0.0009
   XY=             -0.0000   XZ=              0.0000   YZ=             -0.0000
 Octapole moment (field-independent basis, Debye-Ang**2):
  XXX=              0.0000  YYY=              0.0000  ZZZ=             -0.0016  XYY=              0.0000
  XXY=             -0.0000  XXZ=             15.4243  XZZ=             -0.0000  YZZ=              0.0000
  YYZ=            -15.4255  XYZ=             -0.0000
 Hexadecapole moment (field-independent basis, Debye-Ang**3):
 XXXX=           -699.7341 YYYY=           -699.6966 ZZZZ=           -736.8437 XXXY=              0.0000
 XXXZ=             -0.0000 YYYX=              0.0000 YYYZ=              0.0000 ZZZX=              0.0000
 ZZZY=             -0.0000 XXYY=           -258.0856 XXZZ=           -220.8010 YYZZ=           -220.7928
 XXYZ=             -0.0000 YYXZ=             -0.0000 ZZXY=              0.0000
 N-N= 1.388542719118D+03 E-N=-2.756106835799D+04  KE= 1.035950562508D+04
 Symmetry A1   KE= 4.460136093751D+03
 Symmetry A2   KE= 7.520033165750D+02
 Symmetry B1   KE= 2.573683065788D+03
 Symmetry B2   KE= 2.573683148970D+03
 1\1\GINC-SRU01\FOpt\RMP2-FC\CC-pVDZ\Br4O1\JAMES\07-Jul-2026\0\\# opt f
 req=hpmodes mp2/cc-pvdz geom=connectivity\\Title Card Required\\0,1\O,
 0.,0.,0.0000141458\Br,0.,1.7491052264,-1.2366765748\Br,0.,-1.749105226
 4,-1.2366765748\Br,1.7491536519,0.,1.2366764644\Br,-1.7491536519,0.,1.
 2366764644\\Version=AM64L-G09RevC.01\State=1-A1\HF=-10364.0933005\MP2=
 -10364.92581\RMSD=9.936e-09\RMSF=7.469e-05\Dipole=0.,0.,-0.0000553\PG=
 C02V [C2(O1),SGV(Br2),SGV'(Br2)]\\@


 AS FAR AS THE LAWS OF MATHEMATICS REFER TO REALITY,
 THEY ARE NOT CERTAIN; AND AS FAR AS THEY ARE CERTAIN,
 THEY DO NOT REFER TO REALITY.

                                         -- ALBERT EINSTEIN
 Job cpu time:  0 days  0 hours  2 minutes 51.1 seconds.
 File lengths (MBytes):  RWF=    483 Int=      0 D2E=      0 Chk=      3 Scr=      1
 Normal termination of Gaussian 09 at Tue Jul  7 15:15:15 2026.
 Link1:  Proceeding to internal job step number  2.
 ---------------------------------------------------------------------
 #N Geom=AllCheck Guess=TCheck SCRF=Check GenChk RMP2(FC)/CC-pVDZ Freq
 ---------------------------------------------------------------------
 1/10=4,29=7,30=1,38=1,40=1/1,3;
 2/12=2,40=1/2;
 3/5=16,11=1,14=-4,16=1,25=1,30=1,70=2,71=2,116=1/1,2,3;
 4/5=101/1;
 5/5=2,98=1/2;
 8/6=3,8=1,10=1,19=11,30=-1/1;
 9/15=3,16=-3/6;
 11/6=1,8=1,15=11,17=12,24=-1,27=1,28=-2,29=300,32=6,42=3/1,2,10;
 10/6=2,21=1/2;
 8/6=4,8=1,10=1,19=11,30=-1/11,4;
 10/5=1,20=4/2;
 11/12=2,14=11,16=1,17=2,28=-2,42=3/2,10,12;
 6/7=2,8=2,9=2,10=2/1;
 7/8=11,10=1,12=2,25=1,44=2/1,2,3,16;
 1/10=4,30=1/3;
 99//99;
 Structure from the checkpoint file:  OBr4_MP2_cc-pVDZ.chk
 -------------------
 Title Card Required
 -------------------
 Charge =  0 Multiplicity = 1
 Redundant internal coordinates found in file.
 O,0,0.,0.,0.0000141458
 Br,0,0.,1.7491052264,-1.2366765748
 Br,0,0.,-1.7491052264,-1.2366765748
 Br,0,1.7491536519,0.,1.2366764644
 Br,0,-1.7491536519,0.,1.2366764644
 Recover connectivity data from disk.

 GradGradGradGradGradGradGradGradGradGradGradGradGradGradGradGradGradGrad
 Berny optimization.
 Initialization pass.
                           ----------------------------
                           !    Initial Parameters    !
                           ! (Angstroms and Degrees)  !
 --------------------------                            --------------------------
 ! Name  Definition              Value          Derivative Info.                !
 --------------------------------------------------------------------------------
 ! R1    R(1,2)                  2.1421         calculate D2E/DX2 analytically  !
 ! R2    R(1,3)                  2.1421         calculate D2E/DX2 analytically  !
 ! R3    R(1,4)                  2.1422         calculate D2E/DX2 analytically  !
 ! R4    R(1,5)                  2.1422         calculate D2E/DX2 analytically  !
 ! A1    A(2,1,3)              109.4762         calculate D2E/DX2 analytically  !
 ! A2    A(2,1,4)              109.4681         calculate D2E/DX2 analytically  !
 ! A3    A(2,1,5)              109.4681         calculate D2E/DX2 analytically  !
 ! A4    A(3,1,4)              109.4681         calculate D2E/DX2 analytically  !
 ! A5    A(3,1,5)              109.4681         calculate D2E/DX2 analytically  !
 ! A6    A(4,1,5)              109.4789         calculate D2E/DX2 analytically  !
 ! D1    D(2,1,4,3)           -120.0022         calculate D2E/DX2 analytically  !
 ! D2    D(2,1,5,3)            120.0022         calculate D2E/DX2 analytically  !
 ! D3    D(2,1,5,4)           -119.9989         calculate D2E/DX2 analytically  !
 ! D4    D(3,1,5,4)            119.9989         calculate D2E/DX2 analytically  !
 --------------------------------------------------------------------------------
 Trust Radius=3.00D-01 FncErr=1.00D-07 GrdErr=1.00D-07
 Number of steps in this run=      2 maximum allowed number of steps=      2.
 GradGradGradGradGradGradGradGradGradGradGradGradGradGradGradGradGradGrad

                          Input orientation:                          
 ---------------------------------------------------------------------
 Center     Atomic      Atomic             Coordinates (Angstroms)
 Number     Number       Type             X           Y           Z
 ---------------------------------------------------------------------
      1          8           0       -0.000000    0.000000    0.000014
      2         35           0        0.000000    1.749105   -1.236677
      3         35           0       -0.000000   -1.749105   -1.236677
      4         35           0        1.749154   -0.000000    1.236676
      5         35           0       -1.749154    0.000000    1.236676
 ---------------------------------------------------------------------
                    Distance matrix (angstroms):
                    1          2          3          4          5
     1  O    0.000000
     2  Br   2.142142   0.000000
     3  Br   2.142142   3.498210   0.000000
     4  Br   2.142165   3.498054   3.498054   0.000000
     5  Br   2.142165   3.498054   3.498054   3.498307   0.000000
 Stoichiometry    Br4O
 Framework group  C2V[C2(O),SGV(Br2),SGV'(Br2)]
 Deg. of freedom     4
 Full point group                 C2V     NOp   4
 Largest Abelian subgroup         C2V     NOp   4
 Largest concise Abelian subgroup C2V     NOp   4
                         Standard orientation:                         
 ---------------------------------------------------------------------
 Center     Atomic      Atomic             Coordinates (Angstroms)
 Number     Number       Type             X           Y           Z
 ---------------------------------------------------------------------
      1          8           0        0.000000    0.000000    0.000013
      2         35           0        0.000000    1.749105   -1.236677
      3         35           0       -0.000000   -1.749105   -1.236677
      4         35           0        1.749154   -0.000000    1.236676
      5         35           0       -1.749154    0.000000    1.236676
 ---------------------------------------------------------------------
 Rotational constants (GHZ):      0.5233500      0.5233355      0.5232815
 Standard basis: CC-pVDZ (5D, 7F)
 There are    45 symmetry adapted basis functions of A1  symmetry.
 There are    17 symmetry adapted basis functions of A2  symmetry.
 There are    30 symmetry adapted basis functions of B1  symmetry.
 There are    30 symmetry adapted basis functions of B2  symmetry.
 Integral buffers will be    131072 words long.
 Raffenetti 1 integral format.
 Two-electron integral symmetry is turned on.
   122 basis functions,   621 primitive gaussians,   131 cartesian basis functions
    74 alpha electrons       74 beta electrons
       nuclear repulsion energy      1388.5427191176 Hartrees.
 NAtoms=    5 NActive=    5 NUniq=    3 SFac= 2.78D+00 NAtFMM=   60 NAOKFM=F Big=F
 One-electron integrals computed using PRISM.
 NBasis=   122 RedAO= T  NBF=    45    17    30    30
 NBsUse=   122 1.00D-06 NBFU=    45    17    30    30
 Initial guess read from the checkpoint file:  OBr4_MP2_cc-pVDZ.chk
 B after Tr=     0.000000    0.000000    0.000000
         Rot=    1.000000    0.000000    0.000000    0.000000 Ang=   0.00 deg.
 Initial guess orbital symmetries:
       Occupied  (B2) (A1) (B1) (A1) (B2) (A1) (B1) (A1) (B2) (A1)
                 (B1) (A1) (B2) (A2) (B1) (A1) (B1) (A2) (B2) (A1)
                 (A1) (B2) (A1) (B1) (A1) (B2) (A1) (B1) (A1) (A1)
                 (B1) (A2) (B2) (A1) (B2) (A2) (B1) (A1) (B2) (A1)
                 (B1) (B1) (A1) (B2) (A2) (A1) (B2) (A2) (B1) (B2)
                 (A2) (B1) (A1) (A2) (B1) (A1) (B2) (A1) (B2) (B1)
                 (A1) (A1) (B2) (B1) (A1) (A2) (A1) (B1) (B2) (A1)
                 (B2) (B1) (A2) (A1)
       Virtual   (A1) (B1) (B2) (A1) (B1) (B2) (A1) (A1) (B2) (B1)
                 (A2) (A1) (A1) (A2) (B2) (B1) (A1) (B1) (B2) (A2)
                 (A1) (A1) (B1) (B2) (A2) (B2) (B1) (B1) (B2) (A1)
                 (A2) (A1) (A1) (B1) (B2) (A2) (B1) (B2) (A1) (A1)
                 (B2) (B1) (A1) (A2) (A1) (B1) (B2) (A1)
 Requested convergence on RMS density matrix=1.00D-08 within 128 cycles.
 Requested convergence on MAX density matrix=1.00D-06.
 Requested convergence on             energy=1.00D-06.
 No special actions if energy rises.
 DSYEVD returned Info=          91 IAlg= 4 N=    45 NDim=   122 NE2=      274579 trying DSYEV.
 DSYEVD returned Info=          61 IAlg= 4 N=    30 NDim=   122 NE2=      274579 trying DSYEV.
 SCF Done:  E(RHF) =  -10364.0933005     A.U. after    1 cycles
             Convg  =    0.2802D-08             -V/T =  2.0004
 ExpMin= 1.44D-01 ExpMax= 6.40D+05 ExpMxC= 6.18D+03 IAcc=3 IRadAn=         5 AccDes= 0.00D+00
 HarFok:  IExCor=  205 AccDes= 0.00D+00 IRadAn=         5 IDoV=-2
 ScaDFX=  1.000000  1.000000  1.000000  1.000000
 Range of M.O.s used for correlation:    38   122
 NBasis=   122 NAE=    74 NBE=    74 NFC=    37 NFV=     0
 NROrb=     85 NOA=    37 NOB=    37 NVA=    48 NVB=    48
 Disk-based method using ON**2 memory for 37 occupieds at a time.
 Permanent disk used for amplitudes=    15663432 words.
 Estimated scratch disk usage=    69939448 words.
 Actual    scratch disk usage=    62970104 words.
 JobTyp=1 Pass  1:  I=  38 to  74 NPSUse=  1 ParTrn=F ParDer=F DoDerP=T.
 Spin components of T(2) and E(2):
     alpha-alpha T2 =       0.5142849766D-01 E2=     -0.1186917536D+00
     alpha-beta  T2 =       0.3011631609D+00 E2=     -0.5951260395D+00
     beta-beta   T2 =       0.5142849766D-01 E2=     -0.1186917536D+00
 ANorm=    0.1184913565D+01
 E2 =    -0.8325095467D+00 EUMP2 =    -0.10364925810033D+05
 G2DrvN: will do     6 centers at a time, making    1 passes doing MaxLOS=2.
 Calling FoFCou, ICntrl=  3107 FMM=F I1Cent=   0 AccDes= 0.00D+00.
 FoFDir/FoFCou used for L=0 through L=2.
 End of G2Drv Frequency-dependent properties file   721 does not exist.
 End of G2Drv Frequency-dependent properties file   722 does not exist.
          IDoAtm=11111
          Differentiating once with respect to electric field.
                with respect to dipole field.
          Differentiating once with respect to nuclear coordinates.
          There are    18 degrees of freedom in the 1st order CPHF.  IDoFFX=5.
     15 vectors produced by pass  0 Test12= 1.97D-14 5.56D-09 XBig12= 7.65D+01 7.71D+00.
 AX will form    15 AO Fock derivatives at one time.
     15 vectors produced by pass  1 Test12= 1.97D-14 5.56D-09 XBig12= 4.29D+00 7.11D-01.
     15 vectors produced by pass  2 Test12= 1.97D-14 5.56D-09 XBig12= 4.58D-01 2.35D-01.
     15 vectors produced by pass  3 Test12= 1.97D-14 5.56D-09 XBig12= 2.03D-02 4.15D-02.
     15 vectors produced by pass  4 Test12= 1.97D-14 5.56D-09 XBig12= 1.73D-04 3.81D-03.
     15 vectors produced by pass  5 Test12= 1.97D-14 5.56D-09 XBig12= 1.18D-06 2.12D-04.
     15 vectors produced by pass  6 Test12= 1.97D-14 5.56D-09 XBig12= 6.95D-09 1.47D-05.
     15 vectors produced by pass  7 Test12= 1.97D-14 5.56D-09 XBig12= 7.61D-11 2.13D-06.
      4 vectors produced by pass  8 Test12= 1.97D-14 5.56D-09 XBig12= 4.14D-13 1.19D-07.
      3 vectors produced by pass  9 Test12= 1.97D-14 5.56D-09 XBig12= 2.59D-15 1.52D-08.
 Inverted reduced A of dimension   127 with in-core refinement.
 End of Minotr Frequency-dependent properties file   721 does not exist.
 End of Minotr Frequency-dependent properties file   722 does not exist.
 MDV=    33554432.
 Form MO integral derivatives with frozen-active canonical formalism.
 Discarding MO integrals.
 Reordered first order wavefunction length =     25233408
 In DefCFB: NBatch=  1 ICI= 74 ICA= 48 LFMax= 19
            Large arrays: LIAPS=   227072256 LIARS=    94458336 words.
 Semi-Direct transformation.
 ModeAB=           4 MOrb=            74 LenV=      32912906
 LASXX=     32913091 LTotXX=    32913091 LenRXX=    70527772
 LTotAB=    37614681 MaxLAS=    31173684 LenRXY=           0
 NonZer=   103440863 LenScr=   157463040 LnRSAI=    31173684
 LnScr1=    48314368 LExtra=           0 Total=    307478864
 MaxDsk=          -1 SrtSym=           T ITran=            4
 JobTyp=0 Pass  1:  I=   1 to  74.
 Spin components of T(2) and E(2):
     alpha-alpha T2 =       0.5142849766D-01 E2=     -0.1186917536D+00
     alpha-beta  T2 =       0.3011631609D+00 E2=     -0.5951260395D+00
     beta-beta   T2 =       0.5142849766D-01 E2=     -0.1186917536D+00
 ANorm=    0.1675720834D+01
 E2 =    -0.8325095467D+00 EUMP2 =    -0.10364925810033D+05
          IDoAtm=11111
          Differentiating once with respect to electric field.
                with respect to dipole field.
          Differentiating once with respect to nuclear coordinates.
          There are     1 degrees of freedom in the 1st order CPHF.  IDoFFX=0.
 LinEq1:  Iter=  0 NonCon=     1 RMS=6.27D-03 Max=1.22D-01
 LinEq1:  Iter=  1 NonCon=     1 RMS=2.24D-03 Max=5.47D-02
 LinEq1:  Iter=  2 NonCon=     1 RMS=1.10D-03 Max=2.75D-02
 LinEq1:  Iter=  3 NonCon=     1 RMS=2.16D-04 Max=3.25D-03
 LinEq1:  Iter=  4 NonCon=     1 RMS=5.21D-05 Max=9.09D-04
 LinEq1:  Iter=  5 NonCon=     1 RMS=6.65D-06 Max=1.18D-04
 LinEq1:  Iter=  6 NonCon=     1 RMS=1.08D-06 Max=1.66D-05
 LinEq1:  Iter=  7 NonCon=     1 RMS=1.85D-07 Max=4.33D-06
 LinEq1:  Iter=  8 NonCon=     1 RMS=3.01D-08 Max=8.59D-07
 LinEq1:  Iter=  9 NonCon=     1 RMS=7.84D-09 Max=1.17D-07
 LinEq1:  Iter= 10 NonCon=     1 RMS=1.71D-09 Max=7.11D-08
 LinEq1:  Iter= 11 NonCon=     1 RMS=6.03D-10 Max=1.68D-08
 LinEq1:  Iter= 12 NonCon=     1 RMS=1.35D-10 Max=3.08D-09
 LinEq1:  Iter= 13 NonCon=     0 RMS=1.52D-11 Max=3.25D-10
 Linear equations converged to 1.000D-10 1.000D-09 after    13 iterations.
 End of Minotr Frequency-dependent properties file   721 does not exist.
 End of Minotr Frequency-dependent properties file   722 does not exist.
 Symmetrizing basis deriv contribution to polar:
 IMax=3 JMax=2 DiffMx= 0.00D+00
 G2DrvN: will do     6 centers at a time, making    1 passes doing MaxLOS=2.
 Calling FoFCou, ICntrl=  3107 FMM=F I1Cent=   0 AccDes= 0.00D+00.
 FoFDir/FoFCou used for L=0 through L=2.
 End of G2Drv Frequency-dependent properties file   721 does not exist.
 End of G2Drv Frequency-dependent properties file   722 does not exist.
 Would need an additional    42357612 words for in-memory AO integral storage.
 DD1Dir will call FoFDir   4 times, MxPair=      1388
 NAB=  2775 NAA=     0 NBB=     0 NumPrc=  1.
 Petite list used in FoFDir.
 MinBra= 0 MaxBra= 2 Meth= 1.
 IRaf=       0 NMat=1388 IRICut=    1735 DoRegI=T DoRafI=T ISym2E=-1 JSym2E=1.
 Raff turned off since only 18.75% of shell-pairs survive.
 Discarding MO integrals.

 **********************************************************************

            Population analysis using the SCF density.

 **********************************************************************

 Orbital symmetries:
       Occupied  (B2) (A1) (B1) (A1) (B2) (A1) (B1) (A1) (B2) (A1)
                 (B1) (A1) (B2) (A2) (B1) (A1) (B1) (A2) (B2) (A1)
                 (A1) (B2) (A1) (B1) (A1) (B2) (A1) (B1) (A1) (A1)
                 (B1) (A2) (B2) (A1) (B2) (A2) (B1) (A1) (B2) (A1)
                 (B1) (B1) (A1) (B2) (A2) (A1) (B2) (A2) (B1) (B2)
                 (A2) (B1) (A1) (A2) (B1) (A1) (B2) (A1) (B2) (B1)
                 (A1) (A1) (B2) (B1) (A1) (A2) (A1) (B1) (B2) (A1)
                 (B2) (B1) (A2) (A1)
       Virtual   (A1) (B1) (B2) (A1) (B1) (B2) (A1) (A1) (B2) (B1)
                 (A2) (A1) (A1) (A2) (B2) (B1) (A1) (B1) (B2) (A2)
                 (A1) (A1) (B1) (B2) (A2) (B2) (B1) (B1) (B2) (A1)
                 (A2) (A1) (A1) (B1) (B2) (A2) (B1) (B2) (A1) (A1)
                 (B2) (B1) (A1) (A2) (A1) (B1) (B2) (A1)
 The electronic state is 1-A1.
 Alpha  occ. eigenvalues -- -490.13118-490.13118-490.13118-490.13118 -65.26453
 Alpha  occ. eigenvalues --  -65.26453 -65.26452 -65.26452 -58.62236 -58.62236
 Alpha  occ. eigenvalues --  -58.62236 -58.62236 -58.61967 -58.61967 -58.61967
 Alpha  occ. eigenvalues --  -58.61967 -58.61966 -58.61966 -58.61966 -58.61966
 Alpha  occ. eigenvalues --  -20.79143  -9.90844  -9.90844  -9.90843  -9.90841
 Alpha  occ. eigenvalues --   -7.52376  -7.52376  -7.52375  -7.52375  -7.51004
 Alpha  occ. eigenvalues --   -7.51004  -7.51004  -7.51004  -7.51004  -7.51004
 Alpha  occ. eigenvalues --   -7.51004  -7.51004  -3.26153  -3.26146  -3.26146
 Alpha  occ. eigenvalues --   -3.26145  -3.25551  -3.25551  -3.25551  -3.25548
 Alpha  occ. eigenvalues --   -3.25548  -3.25547  -3.25547  -3.25546  -3.23890
 Alpha  occ. eigenvalues --   -3.23890  -3.23890  -3.23890  -3.23889  -3.23889
 Alpha  occ. eigenvalues --   -3.23889  -3.23889  -1.41370  -1.01650  -1.01649
 Alpha  occ. eigenvalues --   -1.01649  -0.98484  -0.63340  -0.63339  -0.63339
 Alpha  occ. eigenvalues --   -0.46438  -0.46437  -0.44651  -0.44651  -0.44650
 Alpha  occ. eigenvalues --   -0.42800  -0.42800  -0.42800  -0.32317
 Alpha virt. eigenvalues --   -0.05600  -0.05599  -0.05599   0.54561   0.58883
 Alpha virt. eigenvalues --    0.58883   0.58884   0.63995   0.63995   0.63995
 Alpha virt. eigenvalues --    0.64059   0.64062   0.67930   0.70391   0.70391
 Alpha virt. eigenvalues --    0.70392   0.71260   0.71261   0.71261   0.72390
 Alpha virt. eigenvalues --    0.72390   0.72825   0.72825   0.72826   0.75135
 Alpha virt. eigenvalues --    0.75135   0.75135   0.77212   0.77213   0.77213
 Alpha virt. eigenvalues --    0.77469   0.77469   0.80543   0.88931   0.88932
 Alpha virt. eigenvalues --    0.88934   1.08314   1.08316   1.08317   1.57986
 Alpha virt. eigenvalues --    1.57990   1.57992   2.09576   2.83479   2.83479
 Alpha virt. eigenvalues --    2.98194   2.98196   2.98197
          Condensed to atoms (all electrons):
              1          2          3          4          5
     1  O    8.469026  -0.012708  -0.012708  -0.012714  -0.012714
     2  Br  -0.012708  34.840673   0.022491   0.022492   0.022492
     3  Br  -0.012708   0.022491  34.840673   0.022492   0.022492
     4  Br  -0.012714   0.022492   0.022492  34.840703   0.022496
     5  Br  -0.012714   0.022492   0.022492   0.022496  34.840703
 Mulliken atomic charges:
              1
     1  O   -0.418181
     2  Br   0.104560
     3  Br   0.104560
     4  Br   0.104531
     5  Br   0.104531
 Sum of Mulliken atomic charges =  -0.00000
 Mulliken charges with hydrogens summed into heavy atoms:
              1
     1  O   -0.418181
     2  Br   0.104560
     3  Br   0.104560
     4  Br   0.104531
     5  Br   0.104531
 Sum of Mulliken charges with hydrogens summed into heavy atoms =  -0.00000
 APT atomic charges:
              1
     1  O    0.706601
     2  Br  -0.176666
     3  Br  -0.176666
     4  Br  -0.176635
     5  Br  -0.176635
 Sum of APT charges=  -0.00000
 APT Atomic charges with hydrogens summed into heavy atoms:
              1
     1  O    0.706601
     2  Br  -0.176666
     3  Br  -0.176666
     4  Br  -0.176635
     5  Br  -0.176635
 Sum of APT charges=  -0.00000
 Electronic spatial extent (au):  <R**2>=           2462.7910
 Charge=             -0.0000 electrons
 Dipole moment (field-independent basis, Debye):
    X=              0.0000    Y=             -0.0000    Z=             -0.0003  Tot=              0.0003
 Quadrupole moment (field-independent basis, Debye-Ang):
   XX=            -75.5968   YY=            -75.5962   ZZ=            -75.5977
   XY=             -0.0000   XZ=              0.0000   YZ=              0.0000
 Traceless Quadrupole moment (field-independent basis, Debye-Ang):
   XX=              0.0001   YY=              0.0007   ZZ=             -0.0008
   XY=             -0.0000   XZ=              0.0000   YZ=              0.0000
 Octapole moment (field-independent basis, Debye-Ang**2):
  XXX=              0.0000  YYY=             -0.0000  ZZZ=             -0.0016  XYY=              0.0000
  XXY=             -0.0000  XXZ=             15.4243  XZZ=             -0.0000  YZZ=             -0.0000
  YYZ=            -15.4255  XYZ=             -0.0000
 Hexadecapole moment (field-independent basis, Debye-Ang**3):
 XXXX=           -699.7341 YYYY=           -699.6967 ZZZZ=           -736.8437 XXXY=              0.0000
 XXXZ=             -0.0000 YYYX=              0.0000 YYYZ=             -0.0000 ZZZX=             -0.0000
 ZZZY=             -0.0000 XXYY=           -258.0856 XXZZ=           -220.8010 YYZZ=           -220.7928
 XXYZ=             -0.0000 YYXZ=             -0.0000 ZZXY=              0.0000
 N-N= 1.388542719118D+03 E-N=-2.756106835683D+04  KE= 1.035950562447D+04
 Symmetry A1   KE= 4.460136093539D+03
 Symmetry A2   KE= 7.520033164564D+02
 Symmetry B1   KE= 2.573683065506D+03
 Symmetry B2   KE= 2.573683148966D+03
  Exact polarizability:  82.838  -0.000  82.839  -0.000  -0.000  82.818
 Approx polarizability: 118.132  -0.000 118.121  -0.000   0.000 118.113
 Calling FoFJK, ICntrl=    100127 FMM=F ISym2X=1 I1Cent= 0 IOpClX= 0 NMat=1 NMatS=1 NMatT=0.
 Full mass-weighted force constant matrix:
 Low frequencies ---    0.0227    0.0243    0.0254    3.4348    3.4542    3.4849
 Low frequencies ---   69.2856   69.3008   85.8975
 Harmonic frequencies (cm**-1), IR intensities (KM/Mole), Raman scattering
 activities (A**4/AMU), depolarization ratios for plane and unpolarized
 incident light, reduced masses (AMU), force constants (mDyne/A),
 and normal coordinates:
                           1         2         3         4         5
                          A1        A2        A1        B2        B1
       Frequencies ---    69.2856   69.3008   85.8975   85.9209   85.9251
    Reduced masses ---    78.9183   78.9183   70.0153   70.0165   70.0164
   Force constants ---     0.2232    0.2233    0.3044    0.3045    0.3046
    IR Intensities ---     0.0000    0.0000    2.9774    2.9777    2.9768
 Coord Atom Element:
   1     1     8          0.00000   0.00000   0.00000  -0.00000  -0.37613
   2     1     8         -0.00000   0.00000   0.00000   0.37613  -0.00000
   3     1     8          0.00009  -0.00000   0.37615  -0.00000   0.00000
   1     2    35          0.00000   0.50001  -0.00000   0.00000   0.34639
   2     2    35          0.28856  -0.00000  -0.46294   0.30827  -0.00000
   3     2    35          0.40825  -0.00000  -0.01915  -0.46287  -0.00000
   1     3    35         -0.00000  -0.50001  -0.00000   0.00000   0.34639
   2     3    35         -0.28856   0.00000   0.46294   0.30827   0.00000
   3     3    35          0.40825  -0.00000  -0.01915   0.46287  -0.00000
   1     4    35          0.28878  -0.00000   0.46283  -0.00000  -0.30827
   2     4    35          0.00000   0.49999  -0.00000  -0.34639   0.00000
   3     4    35         -0.40826   0.00000  -0.01897  -0.00000  -0.46286
   1     5    35         -0.28878   0.00000  -0.46283   0.00000  -0.30828
   2     5    35         -0.00000  -0.49999  -0.00000  -0.34639   0.00000
   3     5    35         -0.40826   0.00000  -0.01897   0.00000   0.46286
                           6         7         8         9
                          A1        A1        B2        B1
       Frequencies ---   186.2228  482.8059  482.8305  482.8418
    Reduced masses ---    78.9183   17.0927   17.0926   17.0926
   Force constants ---     1.6125    2.3475    2.3477    2.3478
    IR Intensities ---     0.0000   36.8900   36.9523   36.9292
 Coord Atom Element:
   1     1     8         -0.00000  -0.00000   0.00000   0.99124
   2     1     8          0.00000  -0.00000   0.99124  -0.00000
   3     1     8          0.00004   0.99124   0.00000   0.00000
   1     2    35          0.00000   0.00000  -0.00000  -0.01990
   2     2    35         -0.40826   0.04288  -0.08055   0.00000
   3     2    35          0.28867  -0.05023   0.04288  -0.00000
   1     3    35          0.00000   0.00000   0.00000  -0.01990
   2     3    35          0.40826  -0.04288  -0.08055  -0.00000
   3     3    35          0.28867  -0.05023  -0.04288  -0.00000
   1     4    35         -0.40825  -0.04288  -0.00000  -0.08055
   2     4    35         -0.00000   0.00000  -0.01990  -0.00000
   3     4    35         -0.28867  -0.05022  -0.00000  -0.04288
   1     5    35          0.40825   0.04288   0.00000  -0.08055
   2     5    35         -0.00000   0.00000  -0.01990   0.00000
   3     5    35         -0.28867  -0.05022  -0.00000   0.04288
 Harmonic frequencies (cm**-1), IR intensities (KM/Mole), Raman scattering
 activities (A**4/AMU), depolarization ratios for plane and unpolarized
 incident light, reduced masses (AMU), force constants (mDyne/A),
 and normal coordinates:
                     1                      2                      3
                    A1                     A2                     A1
 Frequencies --    69.2856                69.3008                85.8975
 Red. masses --    78.9183                78.9183                70.0153
 Frc consts  --     0.2232                 0.2233                 0.3044
 IR Inten    --     0.0000                 0.0000                 2.9774
  Atom  AN      X      Y      Z        X      Y      Z        X      Y      Z
     1   8     0.00  -0.00   0.00     0.00   0.00  -0.00     0.00   0.00   0.38
     2  35     0.00   0.29   0.41     0.50  -0.00  -0.00    -0.00  -0.46  -0.02
     3  35    -0.00  -0.29   0.41    -0.50   0.00  -0.00    -0.00   0.46  -0.02
     4  35     0.29   0.00  -0.41    -0.00   0.50   0.00     0.46  -0.00  -0.02
     5  35    -0.29  -0.00  -0.41     0.00  -0.50   0.00    -0.46  -0.00  -0.02
                     4                      5                      6
                    B2                     B1                     A1
 Frequencies --    85.9209                85.9251               186.2228
 Red. masses --    70.0165                70.0164                78.9183
 Frc consts  --     0.3045                 0.3046                 1.6125
 IR Inten    --     2.9777                 2.9768                 0.0000
  Atom  AN      X      Y      Z        X      Y      Z        X      Y      Z
     1   8    -0.00   0.38  -0.00    -0.38  -0.00   0.00    -0.00   0.00   0.00
     2  35     0.00   0.31  -0.46     0.35  -0.00  -0.00     0.00  -0.41   0.29
     3  35     0.00   0.31   0.46     0.35   0.00  -0.00     0.00   0.41   0.29
     4  35    -0.00  -0.35  -0.00    -0.31   0.00  -0.46    -0.41  -0.00  -0.29
     5  35     0.00  -0.35   0.00    -0.31   0.00   0.46     0.41  -0.00  -0.29
                     7                      8                      9
                    A1                     B2                     B1
 Frequencies --   482.8059               482.8305               482.8418
 Red. masses --    17.0927                17.0926                17.0926
 Frc consts  --     2.3475                 2.3477                 2.3478
 IR Inten    --    36.8900                36.9523                36.9292
  Atom  AN      X      Y      Z        X      Y      Z        X      Y      Z
     1   8    -0.00  -0.00   0.99     0.00   0.99   0.00     0.99  -0.00   0.00
     2  35     0.00   0.04  -0.05    -0.00  -0.08   0.04    -0.02   0.00  -0.00
     3  35     0.00  -0.04  -0.05     0.00  -0.08  -0.04    -0.02  -0.00  -0.00
     4  35    -0.04   0.00  -0.05    -0.00  -0.02  -0.00    -0.08  -0.00  -0.04
     5  35     0.04   0.00  -0.05     0.00  -0.02  -0.00    -0.08   0.00   0.04

 -------------------
 - Thermochemistry -
 -------------------
 Temperature   298.150 Kelvin.  Pressure   1.00000 Atm.
 Atom     1 has atomic number  8 and mass  15.99491
 Atom     2 has atomic number 35 and mass  78.91834
 Atom     3 has atomic number 35 and mass  78.91834
 Atom     4 has atomic number 35 and mass  78.91834
 Atom     5 has atomic number 35 and mass  78.91834
 Molecular mass:   331.66826 amu.
 Principal axes and moments of inertia in atomic units:
                           1         2         3
     Eigenvalues --  3448.440223448.535713448.89163
           X            1.00000   0.00000   0.00000
           Y            0.00000   1.00000   0.00000
           Z            0.00000   0.00000   1.00000
 This molecule is an asymmetric top.
 Rotational symmetry number  2.
 Warning -- assumption of classical behavior for rotation
           may cause significant error
 Rotational temperatures (Kelvin)      0.02512     0.02512     0.02511
 Rotational constants (GHZ):           0.52335     0.52334     0.52328
 Zero-point vibrational energy      12148.3 (Joules/Mol)
                                    2.90350 (Kcal/Mol)
 Warning -- explicit consideration of   9 degrees of freedom as
           vibrations may cause significant error
 Vibrational temperatures:     99.69    99.71   123.59   123.62   123.63
          (Kelvin)            267.93   694.65   694.68   694.70
 
 Zero-point correction=                           0.004627 (Hartree/Particle)
 Thermal correction to Energy=                    0.012630
 Thermal correction to Enthalpy=                  0.013574
 Thermal correction to Gibbs Free Energy=        -0.032975
 Sum of electronic and zero-point Energies=         -10364.921183
 Sum of electronic and thermal Energies=            -10364.913180
 Sum of electronic and thermal Enthalpies=          -10364.912236
 Sum of electronic and thermal Free Energies=       -10364.958785
 
                     E (Thermal)             CV                S
                      KCal/Mol        Cal/Mol-Kelvin    Cal/Mol-Kelvin
 Total                    7.925             21.499             97.971
 Electronic               0.000              0.000              0.000
 Translational            0.889              2.981             43.292
 Rotational               0.889              2.981             30.706
 Vibrational              6.148             15.538             23.972
 Vibration     1          0.598              1.969              4.174
 Vibration     2          0.598              1.969              4.173
 Vibration     3          0.601              1.959              3.751
 Vibration     4          0.601              1.959              3.751
 Vibration     5          0.601              1.959              3.751
 Vibration     6          0.632              1.859              2.265
 Vibration     7          0.839              1.288              0.703
 Vibration     8          0.839              1.288              0.702
 Vibration     9          0.839              1.288              0.702
                       Q            Log10(Q)             Ln(Q)
 Total Bot       0.147059D+16         15.167491         34.924438
 Total V=0       0.197593D+18         17.295772         39.824987
 Vib (Bot)       0.540375D+01          0.732695          1.687092
 Vib (Bot)    1  0.297699D+01          0.473778          1.090914
 Vib (Bot)    2  0.297633D+01          0.473682          1.090692
 Vib (Bot)    3  0.239528D+01          0.379357          0.873501
 Vib (Bot)    4  0.239462D+01          0.379236          0.873224
 Vib (Bot)    5  0.239450D+01          0.379215          0.873175
 Vib (Bot)    6  0.107620D+01          0.031893          0.073435
 Vib (Bot)    7  0.345571D+00         -0.461463         -1.062557
 Vib (Bot)    8  0.345546D+00         -0.461494         -1.062630
 Vib (Bot)    9  0.345535D+00         -0.461509         -1.062663
 Vib (V=0)       0.726066D+03          2.860976          6.587640
 Vib (V=0)    1  0.351869D+01          0.546381          1.258089
 Vib (V=0)    2  0.351804D+01          0.546301          1.257904
 Vib (V=0)    3  0.294691D+01          0.469367          1.080758
 Vib (V=0)    4  0.294626D+01          0.469271          1.080537
 Vib (V=0)    5  0.294615D+01          0.469254          1.080498
 Vib (V=0)    6  0.168668D+01          0.227032          0.522761
 Vib (V=0)    7  0.110780D+01          0.044461          0.102375
 Vib (V=0)    8  0.110778D+01          0.044455          0.102362
 Vib (V=0)    9  0.110778D+01          0.044453          0.102356
 Electronic      0.100000D+01          0.000000          0.000000
 Translational   0.237417D+09          8.375511         19.285327
 Rotational      0.114626D+07          6.059285         13.952019
 ***** Axes restored to original set *****
 -------------------------------------------------------------------
 Center     Atomic                   Forces (Hartrees/Bohr)
 Number     Number              X              Y              Z
 -------------------------------------------------------------------
      1        8          -0.000000000    0.000000000    0.000001449
      2       35          -0.000000000   -0.000118578    0.000080515
      3       35          -0.000000000    0.000118578    0.000080515
      4       35          -0.000121220    0.000000000   -0.000081240
      5       35           0.000121220   -0.000000000   -0.000081240
 -------------------------------------------------------------------
 Cartesian Forces:  Max     0.000121220 RMS     0.000074689

 GradGradGradGradGradGradGradGradGradGradGradGradGradGradGradGradGradGrad
 Berny optimization.
 Internal  Forces:  Max     0.000145880 RMS     0.000077393
 Search for a local minimum.
 Step number   1 out of a maximum of    2
 All quantities printed in internal units (Hartrees-Bohrs-Radians)
 Second derivative matrix not updated -- analytic derivatives used.
 The second derivative matrix:
                          R1        R2        R3        R4        A1
           R1           0.07544
           R2           0.00938   0.07544
           R3           0.00938   0.00938   0.07544
           R4           0.00938   0.00938   0.00937   0.07544
           A1          -0.00068  -0.00068   0.00043   0.00094   0.01211
           A2          -0.00107   0.00028  -0.00119   0.00199  -0.00464
           A3          -0.00209   0.00168   0.00186  -0.00144  -0.00775
           A4           0.00028  -0.00107  -0.00119   0.00199  -0.00464
           A5           0.00168  -0.00209   0.00186  -0.00144  -0.00775
           A6           0.00189   0.00189  -0.00177  -0.00203   0.01268
           D1           0.00132   0.00132   0.00093  -0.00358  -0.00914
           D2          -0.00109  -0.00109   0.00280  -0.00062   0.00534
           D3           0.00143  -0.00252   0.00140  -0.00031   0.00267
           D4           0.00252  -0.00143  -0.00140   0.00031  -0.00267
                          A2        A3        A4        A5        A6
           A2           0.02357
           A3          -0.01391   0.04602
           A4           0.00003   0.01261   0.02357
           A5           0.01261  -0.02108  -0.01391   0.04602
           A6          -0.01767  -0.01590  -0.01767  -0.01590   0.05447
           D1          -0.00877   0.01028  -0.00877   0.01028   0.00612
           D2          -0.00648   0.00578  -0.00648   0.00578  -0.00394
           D3          -0.00953  -0.00142   0.00306   0.00720  -0.00197
           D4          -0.00306  -0.00720   0.00953   0.00142   0.00197
                          D1        D2        D3        D4
           D1           0.02194
           D2           0.00139   0.01361
           D3           0.00070   0.00681   0.01375
           D4          -0.00070  -0.00681   0.00694   0.01375
 ITU=  0
     Eigenvalues ---    0.02726   0.03095   0.04722   0.06570   0.06605
     Eigenvalues ---    0.06819   0.08040   0.08122   0.10357
 Angle between quadratic step and forces=   1.55 degrees.
 Linear search not attempted -- first point.
 Iteration  1 RMS(Cart)=  0.00075607 RMS(Int)=  0.00000002
 Iteration  2 RMS(Cart)=  0.00000004 RMS(Int)=  0.00000000
 ClnCor:  largest displacement from symmetrization is 1.48D-11 for atom     3.
 Variable       Old X    -DE/DX   Delta X   Delta X   Delta X     New X
                                 (Linear)    (Quad)   (Total)
    R1        4.04806  -0.00014   0.00000  -0.00137  -0.00137   4.04669
    R2        4.04806  -0.00014   0.00000  -0.00137  -0.00137   4.04669
    R3        4.04811  -0.00015   0.00000  -0.00142  -0.00142   4.04669
    R4        4.04811  -0.00015   0.00000  -0.00142  -0.00142   4.04669
    A1        1.91072  -0.00000   0.00000  -0.00009  -0.00009   1.91063
    A2        1.91058   0.00000   0.00000   0.00005   0.00005   1.91063
    A3        1.91058   0.00000   0.00000   0.00005   0.00005   1.91063
    A4        1.91058   0.00000   0.00000   0.00005   0.00005   1.91063
    A5        1.91058   0.00000   0.00000   0.00005   0.00005   1.91063
    A6        1.91077  -0.00001   0.00000  -0.00013  -0.00013   1.91063
    D1       -2.09443   0.00000   0.00000   0.00004   0.00004  -2.09439
    D2        2.09443  -0.00000   0.00000  -0.00004  -0.00004   2.09439
    D3       -2.09438  -0.00000   0.00000  -0.00002  -0.00002  -2.09440
    D4        2.09438   0.00000   0.00000   0.00002   0.00002   2.09440
         Item               Value     Threshold  Converged?
 Maximum Force            0.000146     0.000450     YES
 RMS     Force            0.000077     0.000300     YES
 Maximum Displacement     0.001313     0.001800     YES
 RMS     Displacement     0.000756     0.001200     YES
 Predicted change in Energy=-4.052411D-07
 Optimization completed.
    -- Stationary point found.
                           ----------------------------
                           !   Optimized Parameters   !
                           ! (Angstroms and Degrees)  !
 --------------------------                            --------------------------
 ! Name  Definition              Value          Derivative Info.                !
 --------------------------------------------------------------------------------
 ! R1    R(1,2)                  2.1421         -DE/DX =   -0.0001              !
 ! R2    R(1,3)                  2.1421         -DE/DX =   -0.0001              !
 ! R3    R(1,4)                  2.1422         -DE/DX =   -0.0001              !
 ! R4    R(1,5)                  2.1422         -DE/DX =   -0.0001              !
 ! A1    A(2,1,3)              109.4762         -DE/DX =    0.0                 !
 ! A2    A(2,1,4)              109.4681         -DE/DX =    0.0                 !
 ! A3    A(2,1,5)              109.4681         -DE/DX =    0.0                 !
 ! A4    A(3,1,4)              109.4681         -DE/DX =    0.0                 !
 ! A5    A(3,1,5)              109.4681         -DE/DX =    0.0                 !
 ! A6    A(4,1,5)              109.4789         -DE/DX =    0.0                 !
 ! D1    D(2,1,4,3)           -120.0022         -DE/DX =    0.0                 !
 ! D2    D(2,1,5,3)            120.0022         -DE/DX =    0.0                 !
 ! D3    D(2,1,5,4)           -119.9989         -DE/DX =    0.0                 !
 ! D4    D(3,1,5,4)            119.9989         -DE/DX =    0.0                 !
 --------------------------------------------------------------------------------
 GradGradGradGradGradGradGradGradGradGradGradGradGradGradGradGradGradGrad

 1\1\GINC-SRU01\Freq\RMP2-FC\CC-pVDZ\Br4O1\JAMES\07-Jul-2026\0\\#N Geom
 =AllCheck Guess=TCheck SCRF=Check GenChk RMP2(FC)/CC-pVDZ Freq\\Title 
 Card Required\\0,1\O,0.,0.,0.0000141458\Br,0.,1.7491052264,-1.23667657
 48\Br,0.,-1.7491052264,-1.2366765748\Br,1.7491536519,0.,1.2366764644\B
 r,-1.7491536519,0.,1.2366764644\\Version=AM64L-G09RevC.01\State=1-A1\H
 F=-10364.0933005\MP2=-10364.92581\RMSD=2.802e-09\RMSF=7.469e-05\ZeroPo
 int=0.004627\Thermal=0.0126296\Dipole=0.,0.,-0.000055\DipoleDeriv=0.70
 66598,0.,0.,0.,0.706888,0.,0.,0.,0.7062552,0.1065892,0.,0.,0.,-0.46002
 32,0.4005021,0.,0.4006183,-0.1765637,0.1065892,0.,0.,0.,-0.4600233,-0.
 4005021,0.,-0.4006184,-0.1765637,-0.4599191,0.,-0.4004935,0.,0.1065793
 ,0.,-0.4005185,0.,-0.1765639,-0.4599191,0.,0.4004935,0.,0.1065793,0.,0
 .4005185,0.,-0.1765639\Polar=82.8376479,0.,82.8389529,0.,0.,82.8179598
 \PG=C02V [C2(O1),SGV(Br2),SGV'(Br2)]\NImag=0\\0.12989634,0.,0.12989035
 ,0.,0.,0.12987641,-0.01351048,0.,0.,0.00785450,0.,-0.05143439,0.026815
 84,0.,0.05291239,0.,0.02681402,-0.03247022,0.,-0.03186194,0.03038107,-
 0.01351048,0.,0.,0.00066497,0.,0.,0.00785450,0.,-0.05143439,-0.0268158
 4,0.,-0.00646958,0.00257846,0.,0.05291239,0.,-0.02681402,-0.03247022,0
 .,-0.00257846,0.00789458,0.,0.03186194,0.03038107,-0.05143769,0.,-0.02
 681330,0.00249551,0.00722431,-0.00381271,0.00249551,-0.00722431,-0.003
 81271,0.05291095,0.,-0.01351078,0.,0.00357673,0.00249579,0.00123473,-0
 .00357673,0.00249579,-0.00123473,0.,0.00785457,-0.02681432,0.,-0.03246
 798,-0.00123521,0.00381228,-0.00290271,-0.00123521,-0.00381228,-0.0029
 0271,0.03186173,0.,0.03038060,-0.05143769,0.,0.02681330,0.00249551,-0.
 00722431,0.00381271,0.00249551,0.00722431,0.00381271,-0.00646427,0.,-0
 .00257699,0.05291095,0.,-0.01351078,0.,-0.00357673,0.00249579,0.001234
 73,0.00357673,0.00249579,-0.00123473,0.,0.00066463,0.,0.,0.00785457,0.
 02681432,0.,-0.03246798,0.00123521,0.00381228,-0.00290271,0.00123521,-
 0.00381228,-0.00290271,0.00257699,0.,0.00789281,-0.03186173,0.,0.03038
 060\\0.,0.,-0.00000145,0.,0.00011858,-0.00008052,0.,-0.00011858,-0.000
 08052,0.00012122,0.,0.00008124,-0.00012122,0.,0.00008124\\\@


 IN THE UNIVERSE THE DIFFICULT THINGS ARE DONE AS IF THEY WERE EASY.

                                                          -- LAO-TSU
 Job cpu time:  0 days  0 hours 10 minutes 56.8 seconds.
 File lengths (MBytes):  RWF=   2794 Int=      0 D2E=      0 Chk=      3 Scr=      1
 Normal termination of Gaussian 09 at Tue Jul  7 15:28:24 2026.
