 Entering Gaussian System, Link 0=g09
 Input=of2.gjf
 Output=of2.log
 Initial command:
 /usr/local/g09/l1.exe /scratch/james/Gau-1119.inp -scrdir=/scratch/james/
 Entering Link 1 = /usr/local/g09/l1.exe PID=      1122.
  
 Copyright (c) 1988,1990,1992,1993,1995,1998,2003,2009,2011,
            Gaussian, Inc.  All Rights Reserved.
  
 This is part of the Gaussian(R) 09 program.  It is based on
 the Gaussian(R) 03 system (copyright 2003, Gaussian, Inc.),
 the Gaussian(R) 98 system (copyright 1998, Gaussian, Inc.),
 the Gaussian(R) 94 system (copyright 1995, Gaussian, Inc.),
 the Gaussian 92(TM) system (copyright 1992, Gaussian, Inc.),
 the Gaussian 90(TM) system (copyright 1990, Gaussian, Inc.),
 the Gaussian 88(TM) system (copyright 1988, Gaussian, Inc.),
 the Gaussian 86(TM) system (copyright 1986, Carnegie Mellon
 University), and the Gaussian 82(TM) system (copyright 1983,
 Carnegie Mellon University). Gaussian is a federally registered
 trademark of Gaussian, Inc.
  
 This software contains proprietary and confidential information,
 including trade secrets, belonging to Gaussian, Inc.
  
 This software is provided under written license and may be
 used, copied, transmitted, or stored only in accord with that
 written license.
  
 The following legend is applicable only to US Government
 contracts under FAR:
  
                    RESTRICTED RIGHTS LEGEND
  
 Use, reproduction and disclosure by the US Government is
 subject to restrictions as set forth in subparagraphs (a)
 and (c) of the Commercial Computer Software - Restricted
 Rights clause in FAR 52.227-19.
  
 Gaussian, Inc.
 340 Quinnipiac St., Bldg. 40, Wallingford CT 06492
  
  
 ---------------------------------------------------------------
 Warning -- This program may not be used in any manner that
 competes with the business of Gaussian, Inc. or will provide
 assistance to any competitor of Gaussian, Inc.  The licensee
 of this program is prohibited from giving any competitor of
 Gaussian, Inc. access to this program.  By using this program,
 the user acknowledges that Gaussian, Inc. is engaged in the
 business of creating and licensing software in the field of
 computational chemistry and represents and warrants to the
 licensee that it is not a competitor of Gaussian, Inc. and that
 it will not use this program in any manner prohibited above.
 ---------------------------------------------------------------
  

 Cite this work as:
 Gaussian 09, Revision C.01,
 M. J. Frisch, G. W. Trucks, H. B. Schlegel, G. E. Scuseria, 
 M. A. Robb, J. R. Cheeseman, G. Scalmani, V. Barone, B. Mennucci, 
 G. A. Petersson, H. Nakatsuji, M. Caricato, X. Li, H. P. Hratchian, 
 A. F. Izmaylov, J. Bloino, G. Zheng, J. L. Sonnenberg, M. Hada, 
 M. Ehara, K. Toyota, R. Fukuda, J. Hasegawa, M. Ishida, T. Nakajima, 
 Y. Honda, O. Kitao, H. Nakai, T. Vreven, J. A. Montgomery, Jr., 
 J. E. Peralta, F. Ogliaro, M. Bearpark, J. J. Heyd, E. Brothers, 
 K. N. Kudin, V. N. Staroverov, T. Keith, R. Kobayashi, J. Normand, 
 K. Raghavachari, A. Rendell, J. C. Burant, S. S. Iyengar, J. Tomasi, 
 M. Cossi, N. Rega, J. M. Millam, M. Klene, J. E. Knox, J. B. Cross, 
 V. Bakken, C. Adamo, J. Jaramillo, R. Gomperts, R. E. Stratmann, 
 O. Yazyev, A. J. Austin, R. Cammi, C. Pomelli, J. W. Ochterski, 
 R. L. Martin, K. Morokuma, V. G. Zakrzewski, G. A. Voth, 
 P. Salvador, J. J. Dannenberg, S. Dapprich, A. D. Daniels, 
 O. Farkas, J. B. Foresman, J. V. Ortiz, J. Cioslowski, 
 and D. J. Fox, Gaussian, Inc., Wallingford CT, 2010.
 
 ******************************************
 Gaussian 09:  AM64L-G09RevC.01 23-Sep-2011
                13-Jun-2022 
 ******************************************
 %chk=of2.chk
 ---------------------------------------------------
 # opt freq=hpmodes mp2/6-311++g** geom=connectivity
 ---------------------------------------------------
 1/18=20,19=15,38=1,57=2/1,3;
 2/9=110,12=2,17=6,18=5,40=1/2;
 3/5=4,6=6,7=1111,11=9,16=1,25=1,30=1,71=1/1,2,3;
 4//1;
 5/5=2,38=5/2;
 8/6=4,10=2/1;
 9/15=2,16=-3/6;
 10/5=1/2;
 6/7=2,8=2,9=2,10=2/1;
 7/12=2/1,2,3,16;
 1/18=20,19=15/3(2);
 2/9=110/2;
 99//99;
 2/9=110/2;
 3/5=4,6=6,7=1111,11=9,16=1,25=1,30=1,71=1/1,2,3;
 4/5=5,16=3/1;
 5/5=2,38=5/2;
 8/6=4,10=2/1;
 9/15=2,16=-3/6;
 10/5=1/2;
 7/12=2/1,2,3,16;
 1/18=20,19=15/3(-8);
 2/9=110/2;
 6/7=2,8=2,9=2,10=2/1;
 99//99;
 -------------
 of2 vibration
 -------------
 Charge =  0 Multiplicity = 1
 Symbolic Z-Matrix:
 O                     0.        0.       -0.49563 
 F                     0.        1.01246   0.22028 
 F                     0.       -1.01246   0.22028 
 

 GradGradGradGradGradGradGradGradGradGradGradGradGradGradGradGradGradGrad
 Berny optimization.
 Initialization pass.
                           ----------------------------
                           !    Initial Parameters    !
                           ! (Angstroms and Degrees)  !
 --------------------------                            --------------------------
 ! Name  Definition              Value          Derivative Info.                !
 --------------------------------------------------------------------------------
 ! R1    R(1,2)                  1.24           estimate D2E/DX2                !
 ! R2    R(1,3)                  1.24           estimate D2E/DX2                !
 ! A1    A(2,1,3)              109.4712         estimate D2E/DX2                !
 --------------------------------------------------------------------------------
 Trust Radius=3.00D-01 FncErr=1.00D-07 GrdErr=1.00D-07
 Number of steps in this run=     20 maximum allowed number of steps=    100.
 GradGradGradGradGradGradGradGradGradGradGradGradGradGradGradGradGradGrad

                          Input orientation:                          
 ---------------------------------------------------------------------
 Center     Atomic      Atomic             Coordinates (Angstroms)
 Number     Number       Type             X           Y           Z
 ---------------------------------------------------------------------
      1          8           0        0.000000    0.000000   -0.495633
      2          9           0        0.000000    1.012456    0.220281
      3          9           0        0.000000   -1.012456    0.220281
 ---------------------------------------------------------------------
                    Distance matrix (angstroms):
                    1          2          3
     1  O    0.000000
     2  F    1.240000   0.000000
     3  F    1.240000   2.024912   0.000000
 Stoichiometry    F2O
 Framework group  C2V[C2(O),SGV(F2)]
 Deg. of freedom     2
 Full point group                 C2V     NOp   4
 Largest Abelian subgroup         C2V     NOp   4
 Largest concise Abelian subgroup C2      NOp   2
                         Standard orientation:                         
 ---------------------------------------------------------------------
 Center     Atomic      Atomic             Coordinates (Angstroms)
 Number     Number       Type             X           Y           Z
 ---------------------------------------------------------------------
      1          8           0       -0.000000    0.000000    0.495633
      2          9           0        0.000000    1.012456   -0.220281
      3          9           0       -0.000000   -1.012456   -0.220281
 ---------------------------------------------------------------------
 Rotational constants (GHZ):     87.5978069     12.9753173     11.3013228
 Standard basis: 6-311++G(d,p) (5D, 7F)
 There are    27 symmetry adapted basis functions of A1  symmetry.
 There are     7 symmetry adapted basis functions of A2  symmetry.
 There are    11 symmetry adapted basis functions of B1  symmetry.
 There are    21 symmetry adapted basis functions of B2  symmetry.
 Integral buffers will be    131072 words long.
 Raffenetti 1 integral format.
 Two-electron integral symmetry is turned on.
    66 basis functions,   108 primitive gaussians,    69 cartesian basis functions
    13 alpha electrons       13 beta electrons
       nuclear repulsion energy        82.6208505045 Hartrees.
 NAtoms=    3 NActive=    3 NUniq=    2 SFac= 2.25D+00 NAtFMM=   60 NAOKFM=F Big=F
 One-electron integrals computed using PRISM.
 NBasis=    66 RedAO= T  NBF=    27     7    11    21
 NBsUse=    66 1.00D-06 NBFU=    27     7    11    21
 Harris functional with IExCor=  205 diagonalized for initial guess.
 ExpMin= 8.45D-02 ExpMax= 1.14D+04 ExpMxC= 1.72D+03 IAcc=2 IRadAn=         4 AccDes= 0.00D+00
 HarFok:  IExCor=  205 AccDes= 0.00D+00 IRadAn=         4 IDoV= 1
 ScaDFX=  1.000000  1.000000  1.000000  1.000000
 FoFCou: FMM=F IPFlag=           0 FMFlag=      100000 FMFlg1=           0
         NFxFlg=           0 DoJE=T BraDBF=F KetDBF=T FulRan=T
         Omega=  0.000000  0.000000  1.000000  0.000000  0.000000 ICntrl=     500 IOpCl=  0
         NMat0=    1 NMatS0=    1 NMatT0=    0 NMatD0=    1 NMtDS0=    0 NMtDT0=    0
         I1Cent=           4 NGrid=           0.
 Petite list used in FoFCou.
 DSYEVD returned Info=          55 IAlg= 4 N=    27 NDim=    66 NE2=      508247 trying DSYEV.
 Initial guess orbital symmetries:
       Occupied  (B2) (A1) (A1) (A1) (B2) (A1) (B2) (A1) (B1) (A2)
                 (B2) (A1) (B1)
       Virtual   (A1) (B2) (A1) (B1) (A1) (B2) (B2) (A1) (A1) (A2)
                 (B1) (B2) (A1) (B2) (A1) (B1) (B2) (A1) (A1) (A2)
                 (B2) (B1) (A1) (B2) (A1) (B2) (A1) (A2) (B1) (B2)
                 (A1) (A2) (B1) (B2) (A1) (B2) (B1) (A2) (A1) (B2)
                 (A1) (B1) (A1) (B2) (A2) (A1) (B1) (B2) (A1) (B2)
                 (A1) (A1) (B2)
 The electronic state of the initial guess is 1-A1.
 Requested convergence on RMS density matrix=1.00D-08 within 128 cycles.
 Requested convergence on MAX density matrix=1.00D-06.
 Requested convergence on             energy=1.00D-06.
 No special actions if energy rises.
 Keep R1 ints in memory in canonical form, NReq=3770801.
 DSYEVD returned Info=          55 IAlg= 4 N=    27 NDim=    66 NE2=      463936 trying DSYEV.
 DSYEVD returned Info=          55 IAlg= 4 N=    27 NDim=    66 NE2=      463936 trying DSYEV.
 DSYEVD returned Info=          55 IAlg= 4 N=    27 NDim=    66 NE2=      463936 trying DSYEV.
 DSYEVD returned Info=          55 IAlg= 4 N=    27 NDim=    66 NE2=      463936 trying DSYEV.
 DSYEVD returned Info=          55 IAlg= 4 N=    27 NDim=    66 NE2=      463936 trying DSYEV.
 DSYEVD returned Info=          55 IAlg= 4 N=    27 NDim=    66 NE2=      463936 trying DSYEV.
 DSYEVD returned Info=          55 IAlg= 4 N=    27 NDim=    66 NE2=      463936 trying DSYEV.
 DSYEVD returned Info=          55 IAlg= 4 N=    27 NDim=    66 NE2=      463936 trying DSYEV.
 DSYEVD returned Info=          55 IAlg= 4 N=    27 NDim=    66 NE2=      463936 trying DSYEV.
 DSYEVD returned Info=          55 IAlg= 4 N=    27 NDim=    66 NE2=      463936 trying DSYEV.
 DSYEVD returned Info=          55 IAlg= 4 N=    27 NDim=    66 NE2=      463936 trying DSYEV.
 SCF Done:  E(RHF) =  -273.515931218     A.U. after   11 cycles
             Convg  =    0.3787D-08             -V/T =  1.9977
 ExpMin= 8.45D-02 ExpMax= 1.14D+04 ExpMxC= 1.72D+03 IAcc=3 IRadAn=         5 AccDes= 0.00D+00
 HarFok:  IExCor=  205 AccDes= 0.00D+00 IRadAn=         5 IDoV=-2
 ScaDFX=  1.000000  1.000000  1.000000  1.000000
 Range of M.O.s used for correlation:     4    66
 NBasis=    66 NAE=    13 NBE=    13 NFC=     3 NFV=     0
 NROrb=     63 NOA=    10 NOB=    10 NVA=    53 NVB=    53

 **** Warning!!: The largest alpha MO coefficient is  0.11260410D+02

 Fully direct method using O(ONN) memory.
 JobTyp=1 Pass  1:  I=   4 to  13 NPSUse=  1 ParTrn=F ParDer=F DoDerP=T.
 Spin components of T(2) and E(2):
     alpha-alpha T2 =       0.1609499881D-01 E2=     -0.8072751230D-01
     alpha-beta  T2 =       0.9036283060D-01 E2=     -0.4398243943D+00
     beta-beta   T2 =       0.1609499881D-01 E2=     -0.8072751230D-01
 ANorm=    0.1059505936D+01
 E2 =    -0.6012794189D+00 EUMP2 =    -0.27411721063642D+03
          IDoAtm=111
          Differentiating once with respect to electric field.
                with respect to dipole field.
          Differentiating once with respect to nuclear coordinates.
          Keep R1 ints in memory in canonical form, NReq=3738225.
          There are     1 degrees of freedom in the 1st order CPHF.  IDoFFX=0.
 LinEq1:  Iter=  0 NonCon=     1 RMS=6.79D-03 Max=4.85D-02
 AX will form     1 AO Fock derivatives at one time.
 LinEq1:  Iter=  1 NonCon=     1 RMS=1.28D-03 Max=1.33D-02
 LinEq1:  Iter=  2 NonCon=     1 RMS=5.03D-04 Max=4.04D-03
 LinEq1:  Iter=  3 NonCon=     1 RMS=1.04D-04 Max=7.27D-04
 LinEq1:  Iter=  4 NonCon=     1 RMS=3.96D-05 Max=3.02D-04
 LinEq1:  Iter=  5 NonCon=     1 RMS=7.51D-06 Max=8.72D-05
 LinEq1:  Iter=  6 NonCon=     1 RMS=1.25D-06 Max=1.12D-05
 LinEq1:  Iter=  7 NonCon=     1 RMS=2.70D-07 Max=2.37D-06
 LinEq1:  Iter=  8 NonCon=     1 RMS=4.07D-08 Max=3.89D-07
 LinEq1:  Iter=  9 NonCon=     1 RMS=5.53D-09 Max=3.42D-08
 LinEq1:  Iter= 10 NonCon=     1 RMS=9.22D-10 Max=6.12D-09
 LinEq1:  Iter= 11 NonCon=     1 RMS=1.19D-10 Max=6.42D-10
 LinEq1:  Iter= 12 NonCon=     0 RMS=1.53D-11 Max=1.16D-10
 Linear equations converged to 1.000D-10 1.000D-09 after    12 iterations.
 End of Minotr Frequency-dependent properties file   721 does not exist.
 End of Minotr Frequency-dependent properties file   722 does not exist.

 **********************************************************************

            Population analysis using the SCF density.

 **********************************************************************

 Orbital symmetries:
       Occupied  (B2) (A1) (A1) (A1) (B2) (A1) (B1) (B2) (A1) (A2)
                 (B2) (A1) (B1)
       Virtual   (A1) (B2) (A1) (B1) (A1) (B2) (A1) (A2) (B1) (A1)
                 (B2) (B2) (A1) (B2) (B1) (A1) (B2) (A1) (A1) (A2)
                 (B2) (B1) (A1) (B2) (A1) (B2) (A1) (A2) (B1) (B2)
                 (A1) (A2) (B1) (B2) (A1) (B2) (B1) (A2) (A1) (B2)
                 (A1) (B1) (A1) (B2) (A2) (A1) (B1) (B2) (A1) (B2)
                 (A1) (A1) (B2)
 The electronic state is 1-A1.
 Alpha  occ. eigenvalues --  -26.40399 -26.40396 -20.78410  -1.89760  -1.70691
 Alpha  occ. eigenvalues --   -1.24455  -0.89063  -0.88917  -0.87401  -0.74575
 Alpha  occ. eigenvalues --   -0.70040  -0.64362  -0.52651
 Alpha virt. eigenvalues --    0.15658   0.17853   0.19641   0.22603   0.28704
 Alpha virt. eigenvalues --    0.31063   0.33257   0.34145   0.34643   0.38547
 Alpha virt. eigenvalues --    0.38770   0.43481   0.51635   0.57683   1.16954
 Alpha virt. eigenvalues --    1.17481   1.20603   1.40336   1.46049   1.51047
 Alpha virt. eigenvalues --    1.51859   1.53028   1.63404   1.65775   2.19748
 Alpha virt. eigenvalues --    2.25809   2.85715   2.86763   2.93918   3.26175
 Alpha virt. eigenvalues --    3.28755   4.12483   4.12834   4.13715   4.15023
 Alpha virt. eigenvalues --    4.16684   4.38114   4.44706   4.54470   4.74594
 Alpha virt. eigenvalues --    4.79078   5.36456   5.74137   6.02666   6.83060
 Alpha virt. eigenvalues --    6.83600   6.84184   6.89175   7.26746   7.75048
 Alpha virt. eigenvalues --   51.31439  68.67273  68.68552
          Condensed to atoms (all electrons):
              1          2          3
     1  O    8.311415  -0.080582  -0.080582
     2  F   -0.080582   9.035152  -0.029695
     3  F   -0.080582  -0.029695   9.035152
 Mulliken atomic charges:
              1
     1  O   -0.150250
     2  F    0.075125
     3  F    0.075125
 Sum of Mulliken atomic charges =   0.00000
 Mulliken charges with hydrogens summed into heavy atoms:
              1
     1  O   -0.150250
     2  F    0.075125
     3  F    0.075125
 Sum of Mulliken charges with hydrogens summed into heavy atoms =   0.00000
 Electronic spatial extent (au):  <R**2>=            108.8970
 Charge=              0.0000 electrons
 Dipole moment (field-independent basis, Debye):
    X=              0.0000    Y=             -0.0000    Z=              0.0696  Tot=              0.0696
 Quadrupole moment (field-independent basis, Debye-Ang):
   XX=            -14.4822   YY=            -14.9751   ZZ=            -14.7534
   XY=             -0.0000   XZ=             -0.0000   YZ=              0.0000
 Traceless Quadrupole moment (field-independent basis, Debye-Ang):
   XX=              0.2547   YY=             -0.2381   ZZ=             -0.0165
   XY=             -0.0000   XZ=             -0.0000   YZ=              0.0000
 Octapole moment (field-independent basis, Debye-Ang**2):
  XXX=              0.0000  YYY=              0.0000  ZZZ=             -1.4546  XYY=              0.0000
  XXY=              0.0000  XXZ=             -0.5474  XZZ=              0.0000  YZZ=              0.0000
  YYZ=             -0.0428  XYZ=              0.0000
 Hexadecapole moment (field-independent basis, Debye-Ang**3):
 XXXX=             -8.7209 YYYY=            -65.6869 ZZZZ=            -19.4704 XXXY=             -0.0000
 XXXZ=             -0.0000 YYYX=             -0.0000 YYYZ=             -0.0000 ZZZX=             -0.0000
 ZZZY=              0.0000 XXYY=            -12.7944 XXZZ=             -4.9299 YYZZ=            -13.4041
 XXYZ=              0.0000 YYXZ=             -0.0000 ZZXY=             -0.0000
 N-N= 8.262085050446D+01 E-N=-8.189896286985D+02  KE= 2.741384366736D+02
 Symmetry A1   KE= 1.594520490758D+02
 Symmetry A2   KE= 6.782164947085D+00
 Symmetry B1   KE= 1.233517317311D+01
 Symmetry B2   KE= 9.556904947759D+01
 Calling FoFJK, ICntrl=      2127 FMM=F ISym2X=1 I1Cent= 0 IOpClX= 0 NMat=1 NMatS=1 NMatT=0.
 ***** Axes restored to original set *****
 -------------------------------------------------------------------
 Center     Atomic                   Forces (Hartrees/Bohr)
 Number     Number              X              Y              Z
 -------------------------------------------------------------------
      1        8           0.000000000    0.000000000   -0.215778515
      2        9          -0.000000000    0.133252087    0.107889258
      3        9          -0.000000000   -0.133252087    0.107889258
 -------------------------------------------------------------------
 Cartesian Forces:  Max     0.215778515 RMS     0.108193648

 GradGradGradGradGradGradGradGradGradGradGradGradGradGradGradGradGradGrad
 Berny optimization.
 Internal  Forces:  Max     0.171089765 RMS     0.140507466
 Search for a local minimum.
 Step number   1 out of a maximum of   20
 All quantities printed in internal units (Hartrees-Bohrs-Radians)
 Mixed Optimization -- RFO/linear search
 Second derivative matrix not updated -- first step.
 The second derivative matrix:
                          R1        R2        A1
           R1           0.87044
           R2           0.00000   0.87044
           A1           0.00000   0.00000   0.25000
 ITU=  0
     Eigenvalues ---    0.25000   0.87044   0.87044
 RFO step:  Lambda=-6.47711490D-02 EMin= 2.50000000D-01
 Linear search not attempted -- first point.
 Iteration  1 RMS(Cart)=  0.11541098 RMS(Int)=  0.00377418
 Iteration  2 RMS(Cart)=  0.00543868 RMS(Int)=  0.00001032
 Iteration  3 RMS(Cart)=  0.00000788 RMS(Int)=  0.00000000
 Iteration  4 RMS(Cart)=  0.00000000 RMS(Int)=  0.00000000
 ClnCor:  largest displacement from symmetrization is 2.84D-15 for atom     3.
 Variable       Old X    -DE/DX   Delta X   Delta X   Delta X     New X
                                 (Linear)    (Quad)   (Total)
    R1        2.34326   0.17109   0.00000   0.18294   0.18294   2.52620
    R2        2.34326   0.17109   0.00000   0.18294   0.18294   2.52620
    A1        1.91063  -0.02615   0.00000  -0.08306  -0.08306   1.82757
         Item               Value     Threshold  Converged?
 Maximum Force            0.171090     0.000450     NO 
 RMS     Force            0.140507     0.000300     NO 
 Maximum Displacement     0.126670     0.001800     NO 
 RMS     Displacement     0.114337     0.001200     NO 
 Predicted change in Energy=-3.477679D-02
 GradGradGradGradGradGradGradGradGradGradGradGradGradGradGradGradGradGrad

                          Input orientation:                          
 ---------------------------------------------------------------------
 Center     Atomic      Atomic             Coordinates (Angstroms)
 Number     Number       Type             X           Y           Z
 ---------------------------------------------------------------------
      1          8           0       -0.000000   -0.000000   -0.562664
      2          9           0       -0.000000    1.058513    0.253797
      3          9           0        0.000000   -1.058513    0.253797
 ---------------------------------------------------------------------
                    Distance matrix (angstroms):
                    1          2          3
     1  O    0.000000
     2  F    1.336809   0.000000
     3  F    1.336809   2.117027   0.000000
 Stoichiometry    F2O
 Framework group  C2V[C2(O),SGV(F2)]
 Deg. of freedom     2
 Full point group                 C2V     NOp   4
 Largest Abelian subgroup         C2V     NOp   4
 Largest concise Abelian subgroup C2      NOp   2
                         Standard orientation:                         
 ---------------------------------------------------------------------
 Center     Atomic      Atomic             Coordinates (Angstroms)
 Number     Number       Type             X           Y           Z
 ---------------------------------------------------------------------
      1          8           0       -0.000000    0.000000    0.565242
      2          9           0        0.000000    1.058513   -0.251219
      3          9           0       -0.000000   -1.058513   -0.251219
 ---------------------------------------------------------------------
 Rotational constants (GHZ):     67.3510632     11.8707318     10.0920007
 Standard basis: 6-311++G(d,p) (5D, 7F)
 There are    27 symmetry adapted basis functions of A1  symmetry.
 There are     7 symmetry adapted basis functions of A2  symmetry.
 There are    11 symmetry adapted basis functions of B1  symmetry.
 There are    21 symmetry adapted basis functions of B2  symmetry.
 Integral buffers will be    131072 words long.
 Raffenetti 1 integral format.
 Two-electron integral symmetry is turned on.
    66 basis functions,   108 primitive gaussians,    69 cartesian basis functions
    13 alpha electrons       13 beta electrons
       nuclear repulsion energy        77.2494990320 Hartrees.
 NAtoms=    3 NActive=    3 NUniq=    2 SFac= 2.25D+00 NAtFMM=   60 NAOKFM=F Big=F
 One-electron integrals computed using PRISM.
 NBasis=    66 RedAO= T  NBF=    27     7    11    21
 NBsUse=    66 1.00D-06 NBFU=    27     7    11    21
 Initial guess read from the read-write file.
 B after Tr=     0.000000    0.000000    0.000000
         Rot=    1.000000    0.000000    0.000000    0.000000 Ang=   0.00 deg.
 Initial guess orbital symmetries:
       Occupied  (B2) (A1) (A1) (A1) (B2) (A1) (B1) (B2) (A1) (A2)
                 (B2) (A1) (B1)
       Virtual   (A1) (B2) (A1) (B1) (A1) (B2) (A1) (A2) (B1) (A1)
                 (B2) (B2) (A1) (B2) (B1) (A1) (B2) (A1) (A1) (A2)
                 (B2) (B1) (A1) (B2) (A1) (B2) (A1) (A2) (B1) (B2)
                 (A1) (A2) (B1) (B2) (A1) (B2) (B1) (A2) (A1) (B2)
                 (A1) (B1) (A1) (B2) (A2) (A1) (B1) (B2) (A1) (B2)
                 (A1) (A1) (B2)
 Harris functional with IExCor=  205 diagonalized for initial guess.
 ExpMin= 8.45D-02 ExpMax= 1.14D+04 ExpMxC= 1.72D+03 IAcc=2 IRadAn=         4 AccDes= 0.00D+00
 HarFok:  IExCor=  205 AccDes= 0.00D+00 IRadAn=         4 IDoV= 1
 ScaDFX=  1.000000  1.000000  1.000000  1.000000
 FoFCou: FMM=F IPFlag=           0 FMFlag=      100000 FMFlg1=           0
         NFxFlg=           0 DoJE=T BraDBF=F KetDBF=T FulRan=T
         Omega=  0.000000  0.000000  1.000000  0.000000  0.000000 ICntrl=     500 IOpCl=  0
         NMat0=    1 NMatS0=    1 NMatT0=    0 NMatD0=    1 NMtDS0=    0 NMtDT0=    0
         I1Cent=           4 NGrid=           0.
 Petite list used in FoFCou.
 DSYEVD returned Info=          55 IAlg= 4 N=    27 NDim=    66 NE2=      508247 trying DSYEV.
 Requested convergence on RMS density matrix=1.00D-08 within 128 cycles.
 Requested convergence on MAX density matrix=1.00D-06.
 Requested convergence on             energy=1.00D-06.
 No special actions if energy rises.
 Keep R1 ints in memory in canonical form, NReq=3770801.
 DSYEVD returned Info=          55 IAlg= 4 N=    27 NDim=    66 NE2=      463936 trying DSYEV.
 DSYEVD returned Info=          55 IAlg= 4 N=    27 NDim=    66 NE2=      463936 trying DSYEV.
 DSYEVD returned Info=          55 IAlg= 4 N=    27 NDim=    66 NE2=      463936 trying DSYEV.
 DSYEVD returned Info=          55 IAlg= 4 N=    27 NDim=    66 NE2=      463936 trying DSYEV.
 DSYEVD returned Info=          55 IAlg= 4 N=    27 NDim=    66 NE2=      463936 trying DSYEV.
 DSYEVD returned Info=          55 IAlg= 4 N=    27 NDim=    66 NE2=      463936 trying DSYEV.
 DSYEVD returned Info=          55 IAlg= 4 N=    27 NDim=    66 NE2=      463936 trying DSYEV.
 DSYEVD returned Info=          55 IAlg= 4 N=    27 NDim=    66 NE2=      463936 trying DSYEV.
 DSYEVD returned Info=          55 IAlg= 4 N=    27 NDim=    66 NE2=      463936 trying DSYEV.
 DSYEVD returned Info=          55 IAlg= 4 N=    27 NDim=    66 NE2=      463936 trying DSYEV.
 DSYEVD returned Info=          55 IAlg= 4 N=    27 NDim=    66 NE2=      463936 trying DSYEV.
 SCF Done:  E(RHF) =  -273.536740064     A.U. after   12 cycles
             Convg  =    0.9067D-08             -V/T =  1.9999
 ExpMin= 8.45D-02 ExpMax= 1.14D+04 ExpMxC= 1.72D+03 IAcc=3 IRadAn=         5 AccDes= 0.00D+00
 HarFok:  IExCor=  205 AccDes= 0.00D+00 IRadAn=         5 IDoV=-2
 ScaDFX=  1.000000  1.000000  1.000000  1.000000
 Range of M.O.s used for correlation:     4    66
 NBasis=    66 NAE=    13 NBE=    13 NFC=     3 NFV=     0
 NROrb=     63 NOA=    10 NOB=    10 NVA=    53 NVB=    53

 **** Warning!!: The largest alpha MO coefficient is  0.10274708D+02

 Fully direct method using O(ONN) memory.
 JobTyp=1 Pass  1:  I=   4 to  13 NPSUse=  1 ParTrn=F ParDer=F DoDerP=T.
 Spin components of T(2) and E(2):
     alpha-alpha T2 =       0.1756108457D-01 E2=     -0.8202094583D-01
     alpha-beta  T2 =       0.1032019770D+00 E2=     -0.4559772382D+00
     beta-beta   T2 =       0.1756108457D-01 E2=     -0.8202094583D-01
 ANorm=    0.1066922746D+01
 E2 =    -0.6200191299D+00 EUMP2 =    -0.27415675919393D+03
          IDoAtm=111
          Differentiating once with respect to electric field.
                with respect to dipole field.
          Differentiating once with respect to nuclear coordinates.
          Keep R1 ints in memory in canonical form, NReq=3738225.
          There are     1 degrees of freedom in the 1st order CPHF.  IDoFFX=0.
 LinEq1:  Iter=  0 NonCon=     1 RMS=7.94D-03 Max=6.37D-02
 AX will form     1 AO Fock derivatives at one time.
 LinEq1:  Iter=  1 NonCon=     1 RMS=1.89D-03 Max=2.21D-02
 LinEq1:  Iter=  2 NonCon=     1 RMS=7.37D-04 Max=6.33D-03
 LinEq1:  Iter=  3 NonCon=     1 RMS=2.00D-04 Max=1.36D-03
 LinEq1:  Iter=  4 NonCon=     1 RMS=7.52D-05 Max=6.05D-04
 LinEq1:  Iter=  5 NonCon=     1 RMS=1.05D-05 Max=1.13D-04
 LinEq1:  Iter=  6 NonCon=     1 RMS=1.60D-06 Max=1.40D-05
 LinEq1:  Iter=  7 NonCon=     1 RMS=3.21D-07 Max=2.23D-06
 LinEq1:  Iter=  8 NonCon=     1 RMS=3.01D-08 Max=2.92D-07
 LinEq1:  Iter=  9 NonCon=     1 RMS=4.87D-09 Max=5.54D-08
 LinEq1:  Iter= 10 NonCon=     1 RMS=8.96D-10 Max=5.77D-09
 LinEq1:  Iter= 11 NonCon=     1 RMS=1.71D-10 Max=1.26D-09
 LinEq1:  Iter= 12 NonCon=     0 RMS=2.87D-11 Max=2.88D-10
 Linear equations converged to 1.000D-10 1.000D-09 after    12 iterations.
 End of Minotr Frequency-dependent properties file   721 does not exist.
 End of Minotr Frequency-dependent properties file   722 does not exist.
 Calling FoFJK, ICntrl=      2127 FMM=F ISym2X=1 I1Cent= 0 IOpClX= 0 NMat=1 NMatS=1 NMatT=0.
 ***** Axes restored to original set *****
 -------------------------------------------------------------------
 Center     Atomic                   Forces (Hartrees/Bohr)
 Number     Number              X              Y              Z
 -------------------------------------------------------------------
      1        8           0.000000000    0.000000000   -0.062811147
      2        9          -0.000000000    0.040553691    0.031405573
      3        9          -0.000000000   -0.040553691    0.031405573
 -------------------------------------------------------------------
 Cartesian Forces:  Max     0.062811147 RMS     0.031984482

 GradGradGradGradGradGradGradGradGradGradGradGradGradGradGradGradGradGrad
 Berny optimization.
 Using GEDIIS/GDIIS optimizer.
 Internal  Forces:  Max     0.051292319 RMS     0.041880254
 Search for a local minimum.
 Step number   2 out of a maximum of   20
 All quantities printed in internal units (Hartrees-Bohrs-Radians)
 Mixed Optimization -- RFO/linear search
 Update second derivatives using D2CorX and points    1    2
 DE= -3.95D-02 DEPred=-3.48D-02 R= 1.14D+00
 SS=  1.41D+00  RLast= 2.72D-01 DXNew= 5.0454D-01 8.1518D-01
 Trust test= 1.14D+00 RLast= 2.72D-01 DXMaxT set to 5.05D-01
 The second derivative matrix:
                          R1        R2        A1
           R1           0.75983
           R2          -0.11060   0.75983
           A1          -0.01234  -0.01234   0.25739
 ITU=  1  0
 Use linear search instead of GDIIS.
     Eigenvalues ---    0.25662   0.65001   0.87044
 RFO step:  Lambda=-1.48129109D-05 EMin= 2.56618806D-01
 Quartic linear search produced a step of  0.73501.
 Iteration  1 RMS(Cart)=  0.08350429 RMS(Int)=  0.00170274
 Iteration  2 RMS(Cart)=  0.00260098 RMS(Int)=  0.00000223
 Iteration  3 RMS(Cart)=  0.00000171 RMS(Int)=  0.00000000
 Iteration  4 RMS(Cart)=  0.00000000 RMS(Int)=  0.00000000
 ClnCor:  largest displacement from symmetrization is 2.16D-15 for atom     3.
 Variable       Old X    -DE/DX   Delta X   Delta X   Delta X     New X
                                 (Linear)    (Quad)   (Total)
    R1        2.52620   0.05129   0.13446   0.00080   0.13527   2.66147
    R2        2.52620   0.05129   0.13446   0.00080   0.13527   2.66147
    A1        1.82757  -0.00025  -0.06105   0.00744  -0.05361   1.77396
         Item               Value     Threshold  Converged?
 Maximum Force            0.051292     0.000450     NO 
 RMS     Force            0.041880     0.000300     NO 
 Maximum Displacement     0.092342     0.001800     NO 
 RMS     Displacement     0.083016     0.001200     NO 
 Predicted change in Energy=-1.461665D-03
 GradGradGradGradGradGradGradGradGradGradGradGradGradGradGradGradGradGrad

                          Input orientation:                          
 ---------------------------------------------------------------------
 Center     Atomic      Atomic             Coordinates (Angstroms)
 Number     Number       Type             X           Y           Z
 ---------------------------------------------------------------------
      1          8           0       -0.000000   -0.000000   -0.611529
      2          9           0       -0.000000    1.091739    0.278229
      3          9           0        0.000000   -1.091739    0.278229
 ---------------------------------------------------------------------
                    Distance matrix (angstroms):
                    1          2          3
     1  O    0.000000
     2  F    1.408391   0.000000
     3  F    1.408391   2.183477   0.000000
 Stoichiometry    F2O
 Framework group  C2V[C2(O),SGV(F2)]
 Deg. of freedom     2
 Full point group                 C2V     NOp   4
 Largest Abelian subgroup         C2V     NOp   4
 Largest concise Abelian subgroup C2      NOp   2
                         Standard orientation:                         
 ---------------------------------------------------------------------
 Center     Atomic      Atomic             Coordinates (Angstroms)
 Number     Number       Type             X           Y           Z
 ---------------------------------------------------------------------
      1          8           0        0.000000    0.000000    0.615987
      2          9           0       -0.000000    1.091739   -0.273772
      3          9           0       -0.000000   -1.091739   -0.273772
 ---------------------------------------------------------------------
 Rotational constants (GHZ):     56.7114521     11.1591902      9.3244127
 Standard basis: 6-311++G(d,p) (5D, 7F)
 There are    27 symmetry adapted basis functions of A1  symmetry.
 There are     7 symmetry adapted basis functions of A2  symmetry.
 There are    11 symmetry adapted basis functions of B1  symmetry.
 There are    21 symmetry adapted basis functions of B2  symmetry.
 Integral buffers will be    131072 words long.
 Raffenetti 1 integral format.
 Two-electron integral symmetry is turned on.
    66 basis functions,   108 primitive gaussians,    69 cartesian basis functions
    13 alpha electrons       13 beta electrons
       nuclear repulsion energy        73.7361610944 Hartrees.
 NAtoms=    3 NActive=    3 NUniq=    2 SFac= 2.25D+00 NAtFMM=   60 NAOKFM=F Big=F
 One-electron integrals computed using PRISM.
 NBasis=    66 RedAO= T  NBF=    27     7    11    21
 NBsUse=    66 1.00D-06 NBFU=    27     7    11    21
 Initial guess read from the read-write file.
 B after Tr=    -0.000000    0.000000    0.000000
         Rot=    1.000000    0.000000    0.000000    0.000000 Ang=   0.00 deg.
 Initial guess orbital symmetries:
       Occupied  (B2) (A1) (A1) (A1) (B2) (A1) (B1) (B2) (A1) (A2)
                 (B2) (A1) (B1)
       Virtual   (A1) (B2) (A1) (B1) (A1) (B2) (B2) (A1) (A2) (B1)
                 (A1) (B2) (A1) (B2) (B1) (A1) (B2) (A1) (A1) (A2)
                 (B1) (B2) (B2) (A1) (A1) (B2) (A1) (A2) (B1) (B2)
                 (A1) (A2) (B1) (B2) (A1) (B2) (A2) (B1) (A1) (A1)
                 (B2) (B1) (A1) (B2) (A1) (B1) (A2) (B2) (A1) (B2)
                 (A1) (A1) (B2)
 Harris functional with IExCor=  205 diagonalized for initial guess.
 ExpMin= 8.45D-02 ExpMax= 1.14D+04 ExpMxC= 1.72D+03 IAcc=2 IRadAn=         4 AccDes= 0.00D+00
 HarFok:  IExCor=  205 AccDes= 0.00D+00 IRadAn=         4 IDoV= 1
 ScaDFX=  1.000000  1.000000  1.000000  1.000000
 FoFCou: FMM=F IPFlag=           0 FMFlag=      100000 FMFlg1=           0
         NFxFlg=           0 DoJE=T BraDBF=F KetDBF=T FulRan=T
         Omega=  0.000000  0.000000  1.000000  0.000000  0.000000 ICntrl=     500 IOpCl=  0
         NMat0=    1 NMatS0=    1 NMatT0=    0 NMatD0=    1 NMtDS0=    0 NMtDT0=    0
         I1Cent=           4 NGrid=           0.
 Petite list used in FoFCou.
 DSYEVD returned Info=          55 IAlg= 4 N=    27 NDim=    66 NE2=      508247 trying DSYEV.
 Requested convergence on RMS density matrix=1.00D-08 within 128 cycles.
 Requested convergence on MAX density matrix=1.00D-06.
 Requested convergence on             energy=1.00D-06.
 No special actions if energy rises.
 Keep R1 ints in memory in canonical form, NReq=3770801.
 DSYEVD returned Info=          55 IAlg= 4 N=    27 NDim=    66 NE2=      463936 trying DSYEV.
 DSYEVD returned Info=          55 IAlg= 4 N=    27 NDim=    66 NE2=      463936 trying DSYEV.
 DSYEVD returned Info=          55 IAlg= 4 N=    27 NDim=    66 NE2=      463936 trying DSYEV.
 DSYEVD returned Info=          55 IAlg= 4 N=    27 NDim=    66 NE2=      463936 trying DSYEV.
 DSYEVD returned Info=          55 IAlg= 4 N=    27 NDim=    66 NE2=      463936 trying DSYEV.
 DSYEVD returned Info=          55 IAlg= 4 N=    27 NDim=    66 NE2=      463936 trying DSYEV.
 DSYEVD returned Info=          55 IAlg= 4 N=    27 NDim=    66 NE2=      463936 trying DSYEV.
 DSYEVD returned Info=          55 IAlg= 4 N=    27 NDim=    66 NE2=      463936 trying DSYEV.
 DSYEVD returned Info=          55 IAlg= 4 N=    27 NDim=    66 NE2=      463936 trying DSYEV.
 DSYEVD returned Info=          55 IAlg= 4 N=    27 NDim=    66 NE2=      463936 trying DSYEV.
 DSYEVD returned Info=          55 IAlg= 4 N=    27 NDim=    66 NE2=      463936 trying DSYEV.
 DSYEVD returned Info=          55 IAlg= 4 N=    27 NDim=    66 NE2=      463936 trying DSYEV.
 SCF Done:  E(RHF) =  -273.527679138     A.U. after   12 cycles
             Convg  =    0.2815D-08             -V/T =  2.0011
 ExpMin= 8.45D-02 ExpMax= 1.14D+04 ExpMxC= 1.72D+03 IAcc=3 IRadAn=         5 AccDes= 0.00D+00
 HarFok:  IExCor=  205 AccDes= 0.00D+00 IRadAn=         5 IDoV=-2
 ScaDFX=  1.000000  1.000000  1.000000  1.000000
 Range of M.O.s used for correlation:     4    66
 NBasis=    66 NAE=    13 NBE=    13 NFC=     3 NFV=     0
 NROrb=     63 NOA=    10 NOB=    10 NVA=    53 NVB=    53
 Fully direct method using O(ONN) memory.
 JobTyp=1 Pass  1:  I=   4 to  13 NPSUse=  1 ParTrn=F ParDer=F DoDerP=T.
 Spin components of T(2) and E(2):
     alpha-alpha T2 =       0.1872144688D-01 E2=     -0.8305867034D-01
     alpha-beta  T2 =       0.1146705808D+00 E2=     -0.4690166891D+00
     beta-beta   T2 =       0.1872144688D-01 E2=     -0.8305867034D-01
 ANorm=    0.1073365490D+01
 E2 =    -0.6351340298D+00 EUMP2 =    -0.27416281316731D+03
          IDoAtm=111
          Differentiating once with respect to electric field.
                with respect to dipole field.
          Differentiating once with respect to nuclear coordinates.
          Keep R1 ints in memory in canonical form, NReq=3738225.
          There are     1 degrees of freedom in the 1st order CPHF.  IDoFFX=0.
 LinEq1:  Iter=  0 NonCon=     1 RMS=8.84D-03 Max=7.72D-02
 AX will form     1 AO Fock derivatives at one time.
 LinEq1:  Iter=  1 NonCon=     1 RMS=2.44D-03 Max=3.51D-02
 LinEq1:  Iter=  2 NonCon=     1 RMS=9.48D-04 Max=9.15D-03
 LinEq1:  Iter=  3 NonCon=     1 RMS=3.11D-04 Max=2.37D-03
 LinEq1:  Iter=  4 NonCon=     1 RMS=1.06D-04 Max=1.05D-03
 LinEq1:  Iter=  5 NonCon=     1 RMS=1.38D-05 Max=1.20D-04
 LinEq1:  Iter=  6 NonCon=     1 RMS=2.46D-06 Max=1.82D-05
 LinEq1:  Iter=  7 NonCon=     1 RMS=6.88D-07 Max=5.59D-06
 LinEq1:  Iter=  8 NonCon=     1 RMS=1.33D-07 Max=1.12D-06
 LinEq1:  Iter=  9 NonCon=     1 RMS=1.52D-08 Max=1.24D-07
 LinEq1:  Iter= 10 NonCon=     1 RMS=1.99D-09 Max=1.39D-08
 LinEq1:  Iter= 11 NonCon=     1 RMS=3.38D-10 Max=2.77D-09
 LinEq1:  Iter= 12 NonCon=     0 RMS=5.82D-11 Max=3.79D-10
 Linear equations converged to 1.000D-10 1.000D-09 after    12 iterations.
 End of Minotr Frequency-dependent properties file   721 does not exist.
 End of Minotr Frequency-dependent properties file   722 does not exist.
 Calling FoFJK, ICntrl=      2127 FMM=F ISym2X=1 I1Cent= 0 IOpClX= 0 NMat=1 NMatS=1 NMatT=0.
 ***** Axes restored to original set *****
 -------------------------------------------------------------------
 Center     Atomic                   Forces (Hartrees/Bohr)
 Number     Number              X              Y              Z
 -------------------------------------------------------------------
      1        8           0.000000000    0.000000000    0.006575235
      2        9          -0.000000000    0.002470692   -0.003287617
      3        9          -0.000000000   -0.002470692   -0.003287617
 -------------------------------------------------------------------
 Cartesian Forces:  Max     0.006575235 RMS     0.002926113

 GradGradGradGradGradGradGradGradGradGradGradGradGradGradGradGradGradGrad
 Berny optimization.
 Using GEDIIS/GDIIS optimizer.
 Internal  Forces:  Max     0.010936864 RMS     0.006315783
 Search for a local minimum.
 Step number   3 out of a maximum of   20
 All quantities printed in internal units (Hartrees-Bohrs-Radians)
 Mixed Optimization -- RFO/linear search
 Update second derivatives using D2CorX and points    1    2    3
 DE= -6.05D-03 DEPred=-1.46D-03 R= 4.14D+00
 SS=  1.41D+00  RLast= 1.99D-01 DXNew= 8.4853D-01 5.9601D-01
 Trust test= 4.14D+00 RLast= 1.99D-01 DXMaxT set to 5.96D-01
 The second derivative matrix:
                          R1        R2        A1
           R1           0.62720
           R2          -0.24324   0.62720
           A1           0.00903   0.00903   0.25426
 ITU=  1  1  0
 Use linear search instead of GDIIS.
     Eigenvalues ---    0.25302   0.38521   0.87044
 RFO step:  Lambda=-4.52657590D-04 EMin= 2.53018235D-01
 Quartic linear search produced a step of -0.05541.
 Iteration  1 RMS(Cart)=  0.03609377 RMS(Int)=  0.00052909
 Iteration  2 RMS(Cart)=  0.00047560 RMS(Int)=  0.00000001
 Iteration  3 RMS(Cart)=  0.00000001 RMS(Int)=  0.00000000
 ClnCor:  largest displacement from symmetrization is 2.53D-15 for atom     3.
 Variable       Old X    -DE/DX   Delta X   Delta X   Delta X     New X
                                 (Linear)    (Quad)   (Total)
    R1        2.66147  -0.00016  -0.00750   0.00447  -0.00302   2.65845
    R2        2.66147  -0.00016  -0.00750   0.00447  -0.00302   2.65845
    A1        1.77396   0.01094   0.00297   0.04112   0.04409   1.81805
         Item               Value     Threshold  Converged?
 Maximum Force            0.010937     0.000450     NO 
 RMS     Force            0.006316     0.000300     NO 
 Maximum Displacement     0.034177     0.001800     NO 
 RMS     Displacement     0.035849     0.001200     NO 
 Predicted change in Energy=-2.349509D-04
 GradGradGradGradGradGradGradGradGradGradGradGradGradGradGradGradGradGrad

                          Input orientation:                          
 ---------------------------------------------------------------------
 Center     Atomic      Atomic             Coordinates (Angstroms)
 Number     Number       Type             X           Y           Z
 ---------------------------------------------------------------------
      1          8           0       -0.000000   -0.000000   -0.594688
      2          9           0       -0.000000    1.109824    0.269809
      3          9           0        0.000000   -1.109824    0.269809
 ---------------------------------------------------------------------
                    Distance matrix (angstroms):
                    1          2          3
     1  O    0.000000
     2  F    1.406792   0.000000
     3  F    1.406792   2.219649   0.000000
 Stoichiometry    F2O
 Framework group  C2V[C2(O),SGV(F2)]
 Deg. of freedom     2
 Full point group                 C2V     NOp   4
 Largest Abelian subgroup         C2V     NOp   4
 Largest concise Abelian subgroup C2      NOp   2
                         Standard orientation:                         
 ---------------------------------------------------------------------
 Center     Atomic      Atomic             Coordinates (Angstroms)
 Number     Number       Type             X           Y           Z
 ---------------------------------------------------------------------
      1          8           0       -0.000000    0.000000    0.598498
      2          9           0        0.000000    1.109824   -0.265999
      3          9           0       -0.000000   -1.109824   -0.265999
 ---------------------------------------------------------------------
 Rotational constants (GHZ):     60.0743308     10.7984553      9.1531603
 Standard basis: 6-311++G(d,p) (5D, 7F)
 There are    27 symmetry adapted basis functions of A1  symmetry.
 There are     7 symmetry adapted basis functions of A2  symmetry.
 There are    11 symmetry adapted basis functions of B1  symmetry.
 There are    21 symmetry adapted basis functions of B2  symmetry.
 Integral buffers will be    131072 words long.
 Raffenetti 1 integral format.
 Two-electron integral symmetry is turned on.
    66 basis functions,   108 primitive gaussians,    69 cartesian basis functions
    13 alpha electrons       13 beta electrons
       nuclear repulsion energy        73.4777381221 Hartrees.
 NAtoms=    3 NActive=    3 NUniq=    2 SFac= 2.25D+00 NAtFMM=   60 NAOKFM=F Big=F
 One-electron integrals computed using PRISM.
 NBasis=    66 RedAO= T  NBF=    27     7    11    21
 NBsUse=    66 1.00D-06 NBFU=    27     7    11    21
 Initial guess read from the read-write file.
 B after Tr=     0.000000    0.000000    0.000000
         Rot=    1.000000    0.000000    0.000000    0.000000 Ang=   0.00 deg.
 Initial guess orbital symmetries:
       Occupied  (B2) (A1) (A1) (A1) (B2) (A1) (B1) (A1) (B2) (A2)
                 (B2) (A1) (B1)
       Virtual   (A1) (B2) (A1) (B1) (A1) (B2) (B2) (A1) (B1) (A2)
                 (A1) (B2) (A1) (B2) (B1) (A1) (B2) (A1) (A1) (A2)
                 (B1) (B2) (B2) (A1) (A1) (B2) (A1) (A2) (B1) (B2)
                 (A1) (A2) (B1) (B2) (A1) (B2) (A2) (B1) (A1) (A1)
                 (B2) (B1) (A1) (B2) (A1) (B1) (A2) (B2) (A1) (B2)
                 (A1) (A1) (B2)
 Harris functional with IExCor=  205 diagonalized for initial guess.
 ExpMin= 8.45D-02 ExpMax= 1.14D+04 ExpMxC= 1.72D+03 IAcc=2 IRadAn=         4 AccDes= 0.00D+00
 HarFok:  IExCor=  205 AccDes= 0.00D+00 IRadAn=         4 IDoV= 1
 ScaDFX=  1.000000  1.000000  1.000000  1.000000
 FoFCou: FMM=F IPFlag=           0 FMFlag=      100000 FMFlg1=           0
         NFxFlg=           0 DoJE=T BraDBF=F KetDBF=T FulRan=T
         Omega=  0.000000  0.000000  1.000000  0.000000  0.000000 ICntrl=     500 IOpCl=  0
         NMat0=    1 NMatS0=    1 NMatT0=    0 NMatD0=    1 NMtDS0=    0 NMtDT0=    0
         I1Cent=           4 NGrid=           0.
 Petite list used in FoFCou.
 DSYEVD returned Info=          55 IAlg= 4 N=    27 NDim=    66 NE2=      508247 trying DSYEV.
 Requested convergence on RMS density matrix=1.00D-08 within 128 cycles.
 Requested convergence on MAX density matrix=1.00D-06.
 Requested convergence on             energy=1.00D-06.
 No special actions if energy rises.
 Keep R1 ints in memory in canonical form, NReq=3770801.
 DSYEVD returned Info=          55 IAlg= 4 N=    27 NDim=    66 NE2=      463936 trying DSYEV.
 DSYEVD returned Info=          55 IAlg= 4 N=    27 NDim=    66 NE2=      463936 trying DSYEV.
 DSYEVD returned Info=          55 IAlg= 4 N=    27 NDim=    66 NE2=      463936 trying DSYEV.
 DSYEVD returned Info=          55 IAlg= 4 N=    27 NDim=    66 NE2=      463936 trying DSYEV.
 DSYEVD returned Info=          55 IAlg= 4 N=    27 NDim=    66 NE2=      463936 trying DSYEV.
 DSYEVD returned Info=          55 IAlg= 4 N=    27 NDim=    66 NE2=      463936 trying DSYEV.
 DSYEVD returned Info=          55 IAlg= 4 N=    27 NDim=    66 NE2=      463936 trying DSYEV.
 DSYEVD returned Info=          55 IAlg= 4 N=    27 NDim=    66 NE2=      463936 trying DSYEV.
 DSYEVD returned Info=          55 IAlg= 4 N=    27 NDim=    66 NE2=      463936 trying DSYEV.
 DSYEVD returned Info=          55 IAlg= 4 N=    27 NDim=    66 NE2=      463936 trying DSYEV.
 SCF Done:  E(RHF) =  -273.527809498     A.U. after   10 cycles
             Convg  =    0.7245D-08             -V/T =  2.0011
 ExpMin= 8.45D-02 ExpMax= 1.14D+04 ExpMxC= 1.72D+03 IAcc=3 IRadAn=         5 AccDes= 0.00D+00
 HarFok:  IExCor=  205 AccDes= 0.00D+00 IRadAn=         5 IDoV=-2
 ScaDFX=  1.000000  1.000000  1.000000  1.000000
 Range of M.O.s used for correlation:     4    66
 NBasis=    66 NAE=    13 NBE=    13 NFC=     3 NFV=     0
 NROrb=     63 NOA=    10 NOB=    10 NVA=    53 NVB=    53
 Fully direct method using O(ONN) memory.
 JobTyp=1 Pass  1:  I=   4 to  13 NPSUse=  1 ParTrn=F ParDer=F DoDerP=T.
 Spin components of T(2) and E(2):
     alpha-alpha T2 =       0.1874292074D-01 E2=     -0.8310508490D-01
     alpha-beta  T2 =       0.1145827579D+00 E2=     -0.4689333116D+00
     beta-beta   T2 =       0.1874292074D-01 E2=     -0.8310508490D-01
 ANorm=    0.1073344586D+01
 E2 =    -0.6351434814D+00 EUMP2 =    -0.27416295297919D+03
          IDoAtm=111
          Differentiating once with respect to electric field.
                with respect to dipole field.
          Differentiating once with respect to nuclear coordinates.
          Keep R1 ints in memory in canonical form, NReq=3738225.
          There are     1 degrees of freedom in the 1st order CPHF.  IDoFFX=0.
 LinEq1:  Iter=  0 NonCon=     1 RMS=8.90D-03 Max=7.56D-02
 AX will form     1 AO Fock derivatives at one time.
 LinEq1:  Iter=  1 NonCon=     1 RMS=2.45D-03 Max=3.60D-02
 LinEq1:  Iter=  2 NonCon=     1 RMS=9.54D-04 Max=9.07D-03
 LinEq1:  Iter=  3 NonCon=     1 RMS=3.13D-04 Max=2.48D-03
 LinEq1:  Iter=  4 NonCon=     1 RMS=1.07D-04 Max=9.72D-04
 LinEq1:  Iter=  5 NonCon=     1 RMS=1.35D-05 Max=1.16D-04
 LinEq1:  Iter=  6 NonCon=     1 RMS=2.11D-06 Max=1.33D-05
 LinEq1:  Iter=  7 NonCon=     1 RMS=5.07D-07 Max=4.72D-06
 LinEq1:  Iter=  8 NonCon=     1 RMS=1.01D-07 Max=9.26D-07
 LinEq1:  Iter=  9 NonCon=     1 RMS=1.48D-08 Max=1.35D-07
 LinEq1:  Iter= 10 NonCon=     1 RMS=1.93D-09 Max=1.27D-08
 LinEq1:  Iter= 11 NonCon=     1 RMS=3.39D-10 Max=2.97D-09
 LinEq1:  Iter= 12 NonCon=     0 RMS=5.84D-11 Max=3.89D-10
 Linear equations converged to 1.000D-10 1.000D-09 after    12 iterations.
 End of Minotr Frequency-dependent properties file   721 does not exist.
 End of Minotr Frequency-dependent properties file   722 does not exist.
 Calling FoFJK, ICntrl=      2127 FMM=F ISym2X=1 I1Cent= 0 IOpClX= 0 NMat=1 NMatS=1 NMatT=0.
 ***** Axes restored to original set *****
 -------------------------------------------------------------------
 Center     Atomic                   Forces (Hartrees/Bohr)
 Number     Number              X              Y              Z
 -------------------------------------------------------------------
      1        8           0.000000000   -0.000000000   -0.001929864
      2        9          -0.000000000   -0.001510180    0.000964932
      3        9          -0.000000000    0.001510180    0.000964932
 -------------------------------------------------------------------
 Cartesian Forces:  Max     0.001929864 RMS     0.001061857

 GradGradGradGradGradGradGradGradGradGradGradGradGradGradGradGradGradGrad
 Berny optimization.
 Using GEDIIS/GDIIS optimizer.
 Internal  Forces:  Max     0.004490841 RMS     0.002638426
 Search for a local minimum.
 Step number   4 out of a maximum of   20
 All quantities printed in internal units (Hartrees-Bohrs-Radians)
 Mixed Optimization -- RFO/linear search
 Update second derivatives using D2CorX and points    1    2    3    4
 DE= -1.40D-04 DEPred=-2.35D-04 R= 5.95D-01
 SS=  1.41D+00  RLast= 4.43D-02 DXNew= 1.0024D+00 1.3288D-01
 Trust test= 5.95D-01 RLast= 4.43D-02 DXMaxT set to 5.96D-01
 The second derivative matrix:
                          R1        R2        A1
           R1           0.63258
           R2          -0.23786   0.63258
           A1           0.03695   0.03695   0.35500
 ITU=  1  1  1  0
 Use linear search instead of GDIIS.
     Eigenvalues ---    0.31896   0.43077   0.87044
 RFO step:  Lambda=-1.07694361D-06 EMin= 3.18960414D-01
 Quartic linear search produced a step of -0.29530.
 Iteration  1 RMS(Cart)=  0.01085115 RMS(Int)=  0.00004553
 Iteration  2 RMS(Cart)=  0.00003879 RMS(Int)=  0.00000000
 Iteration  3 RMS(Cart)=  0.00000000 RMS(Int)=  0.00000000
 ClnCor:  largest displacement from symmetrization is 2.91D-15 for atom     3.
 Variable       Old X    -DE/DX   Delta X   Delta X   Delta X     New X
                                 (Linear)    (Quad)   (Total)
    R1        2.65845  -0.00060   0.00089  -0.00117  -0.00028   2.65817
    R2        2.65845  -0.00060   0.00089  -0.00117  -0.00028   2.65817
    A1        1.81805  -0.00449  -0.01302   0.00007  -0.01295   1.80510
         Item               Value     Threshold  Converged?
 Maximum Force            0.004491     0.000450     NO 
 RMS     Force            0.002638     0.000300     NO 
 Maximum Displacement     0.010845     0.001800     NO 
 RMS     Displacement     0.010870     0.001200     NO 
 Predicted change in Energy=-2.842514D-05
 GradGradGradGradGradGradGradGradGradGradGradGradGradGradGradGradGradGrad

                          Input orientation:                          
 ---------------------------------------------------------------------
 Center     Atomic      Atomic             Coordinates (Angstroms)
 Number     Number       Type             X           Y           Z
 ---------------------------------------------------------------------
      1          8           0       -0.000000   -0.000000   -0.599406
      2          9           0       -0.000000    1.104086    0.272168
      3          9           0        0.000000   -1.104086    0.272168
 ---------------------------------------------------------------------
                    Distance matrix (angstroms):
                    1          2          3
     1  O    0.000000
     2  F    1.406643   0.000000
     3  F    1.406643   2.208171   0.000000
 Stoichiometry    F2O
 Framework group  C2V[C2(O),SGV(F2)]
 Deg. of freedom     2
 Full point group                 C2V     NOp   4
 Largest Abelian subgroup         C2V     NOp   4
 Largest concise Abelian subgroup C2      NOp   2
                         Standard orientation:                         
 ---------------------------------------------------------------------
 Center     Atomic      Atomic             Coordinates (Angstroms)
 Number     Number       Type             X           Y           Z
 ---------------------------------------------------------------------
      1          8           0       -0.000000    0.000000    0.603397
      2          9           0        0.000000    1.104086   -0.268176
      3          9           0       -0.000000   -1.104086   -0.268176
 ---------------------------------------------------------------------
 Rotational constants (GHZ):     59.1026966     10.9110030      9.2106217
 Standard basis: 6-311++G(d,p) (5D, 7F)
 There are    27 symmetry adapted basis functions of A1  symmetry.
 There are     7 symmetry adapted basis functions of A2  symmetry.
 There are    11 symmetry adapted basis functions of B1  symmetry.
 There are    21 symmetry adapted basis functions of B2  symmetry.
 Integral buffers will be    131072 words long.
 Raffenetti 1 integral format.
 Two-electron integral symmetry is turned on.
    66 basis functions,   108 primitive gaussians,    69 cartesian basis functions
    13 alpha electrons       13 beta electrons
       nuclear repulsion energy        73.5838447612 Hartrees.
 NAtoms=    3 NActive=    3 NUniq=    2 SFac= 2.25D+00 NAtFMM=   60 NAOKFM=F Big=F
 One-electron integrals computed using PRISM.
 NBasis=    66 RedAO= T  NBF=    27     7    11    21
 NBsUse=    66 1.00D-06 NBFU=    27     7    11    21
 Initial guess read from the read-write file.
 B after Tr=     0.000000   -0.000000   -0.000000
         Rot=    1.000000   -0.000000   -0.000000    0.000000 Ang=   0.00 deg.
 Initial guess orbital symmetries:
       Occupied  (B2) (A1) (A1) (A1) (B2) (A1) (B1) (A1) (B2) (A2)
                 (B2) (A1) (B1)
       Virtual   (A1) (B2) (A1) (B1) (A1) (B2) (B2) (A1) (B1) (A2)
                 (A1) (B2) (A1) (B2) (B1) (A1) (B2) (A1) (A1) (A2)
                 (B1) (B2) (B2) (A1) (A1) (B2) (A1) (A2) (B1) (B2)
                 (A1) (A2) (B1) (B2) (A1) (B2) (A2) (B1) (A1) (A1)
                 (B2) (B1) (A1) (B2) (A1) (B1) (A2) (B2) (A1) (B2)
                 (A1) (B2) (A1)
 Requested convergence on RMS density matrix=1.00D-08 within 128 cycles.
 Requested convergence on MAX density matrix=1.00D-06.
 Requested convergence on             energy=1.00D-06.
 No special actions if energy rises.
 Keep R1 ints in memory in canonical form, NReq=3770801.
 DSYEVD returned Info=          55 IAlg= 4 N=    27 NDim=    66 NE2=      463936 trying DSYEV.
 DSYEVD returned Info=          55 IAlg= 4 N=    27 NDim=    66 NE2=      463936 trying DSYEV.
 DSYEVD returned Info=          55 IAlg= 4 N=    27 NDim=    66 NE2=      463936 trying DSYEV.
 DSYEVD returned Info=          55 IAlg= 4 N=    27 NDim=    66 NE2=      463936 trying DSYEV.
 DSYEVD returned Info=          55 IAlg= 4 N=    27 NDim=    66 NE2=      463936 trying DSYEV.
 DSYEVD returned Info=          55 IAlg= 4 N=    27 NDim=    66 NE2=      463936 trying DSYEV.
 DSYEVD returned Info=          55 IAlg= 4 N=    27 NDim=    66 NE2=      463936 trying DSYEV.
 DSYEVD returned Info=          55 IAlg= 4 N=    27 NDim=    66 NE2=      463936 trying DSYEV.
 DSYEVD returned Info=          55 IAlg= 4 N=    27 NDim=    66 NE2=      463936 trying DSYEV.
 DSYEVD returned Info=          55 IAlg= 4 N=    27 NDim=    66 NE2=      463936 trying DSYEV.
 SCF Done:  E(RHF) =  -273.527986482     A.U. after   10 cycles
             Convg  =    0.2601D-08             -V/T =  2.0011
 ExpMin= 8.45D-02 ExpMax= 1.14D+04 ExpMxC= 1.72D+03 IAcc=3 IRadAn=         5 AccDes= 0.00D+00
 HarFok:  IExCor=  205 AccDes= 0.00D+00 IRadAn=         5 IDoV=-2
 ScaDFX=  1.000000  1.000000  1.000000  1.000000
 Range of M.O.s used for correlation:     4    66
 NBasis=    66 NAE=    13 NBE=    13 NFC=     3 NFV=     0
 NROrb=     63 NOA=    10 NOB=    10 NVA=    53 NVB=    53
 Fully direct method using O(ONN) memory.
 JobTyp=1 Pass  1:  I=   4 to  13 NPSUse=  1 ParTrn=F ParDer=F DoDerP=T.
 Spin components of T(2) and E(2):
     alpha-alpha T2 =       0.1872546461D-01 E2=     -0.8308089360D-01
     alpha-beta  T2 =       0.1144952369D+00 E2=     -0.4688343371D+00
     beta-beta   T2 =       0.1872546461D-01 E2=     -0.8308089360D-01
 ANorm=    0.1073287551D+01
 E2 =    -0.6349961243D+00 EUMP2 =    -0.27416298260588D+03
          IDoAtm=111
          Differentiating once with respect to electric field.
                with respect to dipole field.
          Differentiating once with respect to nuclear coordinates.
          Keep R1 ints in memory in canonical form, NReq=3738225.
          There are     1 degrees of freedom in the 1st order CPHF.  IDoFFX=0.
 LinEq1:  Iter=  0 NonCon=     1 RMS=8.87D-03 Max=7.59D-02
 AX will form     1 AO Fock derivatives at one time.
 LinEq1:  Iter=  1 NonCon=     1 RMS=2.44D-03 Max=3.56D-02
 LinEq1:  Iter=  2 NonCon=     1 RMS=9.50D-04 Max=8.93D-03
 LinEq1:  Iter=  3 NonCon=     1 RMS=3.11D-04 Max=2.43D-03
 LinEq1:  Iter=  4 NonCon=     1 RMS=1.06D-04 Max=9.92D-04
 LinEq1:  Iter=  5 NonCon=     1 RMS=1.35D-05 Max=1.14D-04
 LinEq1:  Iter=  6 NonCon=     1 RMS=2.19D-06 Max=1.38D-05
 LinEq1:  Iter=  7 NonCon=     1 RMS=5.60D-07 Max=5.30D-06
 LinEq1:  Iter=  8 NonCon=     1 RMS=1.15D-07 Max=9.27D-07
 LinEq1:  Iter=  9 NonCon=     1 RMS=1.50D-08 Max=1.30D-07
 LinEq1:  Iter= 10 NonCon=     1 RMS=1.93D-09 Max=1.28D-08
 LinEq1:  Iter= 11 NonCon=     1 RMS=3.34D-10 Max=2.86D-09
 LinEq1:  Iter= 12 NonCon=     0 RMS=5.78D-11 Max=3.83D-10
 Linear equations converged to 1.000D-10 1.000D-09 after    12 iterations.
 End of Minotr Frequency-dependent properties file   721 does not exist.
 End of Minotr Frequency-dependent properties file   722 does not exist.
 Calling FoFJK, ICntrl=      2127 FMM=F ISym2X=1 I1Cent= 0 IOpClX= 0 NMat=1 NMatS=1 NMatT=0.
 ***** Axes restored to original set *****
 -------------------------------------------------------------------
 Center     Atomic                   Forces (Hartrees/Bohr)
 Number     Number              X              Y              Z
 -------------------------------------------------------------------
      1        8           0.000000000   -0.000000000    0.000200695
      2        9          -0.000000000   -0.000144807   -0.000100348
      3        9          -0.000000000    0.000144807   -0.000100348
 -------------------------------------------------------------------
 Cartesian Forces:  Max     0.000200695 RMS     0.000106644

 GradGradGradGradGradGradGradGradGradGradGradGradGradGradGradGradGradGrad
 Berny optimization.
 Using GEDIIS/GDIIS optimizer.
 Internal  Forces:  Max     0.000175837 RMS     0.000144552
 Search for a local minimum.
 Step number   5 out of a maximum of   20
 All quantities printed in internal units (Hartrees-Bohrs-Radians)
 Mixed Optimization -- En-DIIS/RFO-DIIS
 Update second derivatives using D2CorX and points    2    3    4    5
 DE= -2.96D-05 DEPred=-2.84D-05 R= 1.04D+00
 SS=  1.41D+00  RLast= 1.30D-02 DXNew= 1.0024D+00 3.8876D-02
 Trust test= 1.04D+00 RLast= 1.30D-02 DXMaxT set to 5.96D-01
 The second derivative matrix:
                          R1        R2        A1
           R1           0.62829
           R2          -0.24215   0.62829
           A1           0.02424   0.02424   0.34341
 ITU=  1  1  1  1
 Use linear search instead of GDIIS.
     Eigenvalues ---    0.32438   0.40516   0.87044
 RFO step:  Lambda=-1.56449323D-07 EMin= 3.24384038D-01
 Quartic linear search produced a step of  0.00809.
 Iteration  1 RMS(Cart)=  0.00032799 RMS(Int)=  0.00000000
 Iteration  2 RMS(Cart)=  0.00000000 RMS(Int)=  0.00000000
 ClnCor:  largest displacement from symmetrization is 9.85D-15 for atom     3.
 Variable       Old X    -DE/DX   Delta X   Delta X   Delta X     New X
                                 (Linear)    (Quad)   (Total)
    R1        2.65817  -0.00018  -0.00000  -0.00045  -0.00045   2.65772
    R2        2.65817  -0.00018  -0.00000  -0.00045  -0.00045   2.65772
    A1        1.80510  -0.00003  -0.00010   0.00009  -0.00002   1.80508
         Item               Value     Threshold  Converged?
 Maximum Force            0.000176     0.000450     YES
 RMS     Force            0.000145     0.000300     YES
 Maximum Displacement     0.000372     0.001800     YES
 RMS     Displacement     0.000328     0.001200     YES
 Predicted change in Energy=-8.014504D-08
 Optimization completed.
    -- Stationary point found.
                           ----------------------------
                           !   Optimized Parameters   !
                           ! (Angstroms and Degrees)  !
 --------------------------                            --------------------------
 ! Name  Definition              Value          Derivative Info.                !
 --------------------------------------------------------------------------------
 ! R1    R(1,2)                  1.4066         -DE/DX =   -0.0002              !
 ! R2    R(1,3)                  1.4066         -DE/DX =   -0.0002              !
 ! A1    A(2,1,3)              103.4243         -DE/DX =    0.0                 !
 --------------------------------------------------------------------------------
 GradGradGradGradGradGradGradGradGradGradGradGradGradGradGradGradGradGrad

                          Input orientation:                          
 ---------------------------------------------------------------------
 Center     Atomic      Atomic             Coordinates (Angstroms)
 Number     Number       Type             X           Y           Z
 ---------------------------------------------------------------------
      1          8           0       -0.000000   -0.000000   -0.599406
      2          9           0       -0.000000    1.104086    0.272168
      3          9           0        0.000000   -1.104086    0.272168
 ---------------------------------------------------------------------
                    Distance matrix (angstroms):
                    1          2          3
     1  O    0.000000
     2  F    1.406643   0.000000
     3  F    1.406643   2.208171   0.000000
 Stoichiometry    F2O
 Framework group  C2V[C2(O),SGV(F2)]
 Deg. of freedom     2
 Full point group                 C2V     NOp   4
 Largest Abelian subgroup         C2V     NOp   4
 Largest concise Abelian subgroup C2      NOp   2
                         Standard orientation:                         
 ---------------------------------------------------------------------
 Center     Atomic      Atomic             Coordinates (Angstroms)
 Number     Number       Type             X           Y           Z
 ---------------------------------------------------------------------
      1          8           0       -0.000000    0.000000    0.603397
      2          9           0       -0.000000    1.104086   -0.268176
      3          9           0       -0.000000   -1.104086   -0.268176
 ---------------------------------------------------------------------
 Rotational constants (GHZ):     59.1026966     10.9110030      9.2106217

 **********************************************************************

            Population analysis using the SCF density.

 **********************************************************************

 Orbital symmetries:
       Occupied  (B2) (A1) (A1) (A1) (B2) (A1) (B1) (A1) (B2) (A2)
                 (B2) (A1) (B1)
       Virtual   (A1) (B2) (A1) (B1) (A1) (B2) (B2) (A1) (B1) (A2)
                 (A1) (B2) (A1) (B2) (B1) (A1) (B2) (A1) (A1) (A2)
                 (B1) (B2) (B2) (A1) (A1) (B2) (A1) (A2) (B1) (B2)
                 (A1) (A2) (B1) (B2) (A1) (B2) (A2) (B1) (A1) (A1)
                 (B2) (B1) (A1) (B2) (A1) (B1) (A2) (B2) (A1) (B2)
                 (A1) (B2) (A1)
 The electronic state is 1-A1.
 Alpha  occ. eigenvalues --  -26.41030 -26.41029 -20.82952  -1.76249  -1.64472
 Alpha  occ. eigenvalues --   -1.29405  -0.82546  -0.80732  -0.80442  -0.72953
 Alpha  occ. eigenvalues --   -0.68659  -0.66005  -0.59069
 Alpha virt. eigenvalues --    0.09577   0.12796   0.17342   0.22970   0.23291
 Alpha virt. eigenvalues --    0.24775   0.31148   0.32817   0.33980   0.34127
 Alpha virt. eigenvalues --    0.35040   0.41620   0.50307   0.56257   1.15584
 Alpha virt. eigenvalues --    1.17586   1.20202   1.40695   1.45943   1.50139
 Alpha virt. eigenvalues --    1.52648   1.56942   1.66608   1.68786   2.16916
 Alpha virt. eigenvalues --    2.21624   2.98085   2.99583   3.01120   3.04298
 Alpha virt. eigenvalues --    3.13777   4.14375   4.14523   4.15146   4.15501
 Alpha virt. eigenvalues --    4.16913   4.21989   4.26304   4.32638   4.57956
 Alpha virt. eigenvalues --    4.59542   5.30916   5.56591   5.72183   6.79466
 Alpha virt. eigenvalues --    6.82684   6.83484   6.90896   6.94475   7.10143
 Alpha virt. eigenvalues --   51.25237  68.65859  68.66037
          Condensed to atoms (all electrons):
              1          2          3
     1  O    7.916486   0.058265   0.058265
     2  F    0.058265   8.945018  -0.019791
     3  F    0.058265  -0.019791   8.945018
 Mulliken atomic charges:
              1
     1  O   -0.033016
     2  F    0.016508
     3  F    0.016508
 Sum of Mulliken atomic charges =   0.00000
 Mulliken charges with hydrogens summed into heavy atoms:
              1
     1  O   -0.033016
     2  F    0.016508
     3  F    0.016508
 Sum of Mulliken charges with hydrogens summed into heavy atoms =   0.00000
 Electronic spatial extent (au):  <R**2>=            126.5112
 Charge=              0.0000 electrons
 Dipole moment (field-independent basis, Debye):
    X=              0.0000    Y=              0.0000    Z=              0.4751  Tot=              0.4751
 Quadrupole moment (field-independent basis, Debye-Ang):
   XX=            -14.8539   YY=            -15.2210   ZZ=            -14.4864
   XY=             -0.0000   XZ=             -0.0000   YZ=              0.0000
 Traceless Quadrupole moment (field-independent basis, Debye-Ang):
   XX=             -0.0001   YY=             -0.3672   ZZ=              0.3674
   XY=             -0.0000   XZ=             -0.0000   YZ=              0.0000
 Octapole moment (field-independent basis, Debye-Ang**2):
  XXX=              0.0000  YYY=             -0.0000  ZZZ=             -1.2286  XYY=              0.0000
  XXY=              0.0000  XXZ=             -0.6087  XZZ=              0.0000  YZZ=             -0.0000
  YYZ=             -0.3586  XYZ=              0.0000
 Hexadecapole moment (field-independent basis, Debye-Ang**3):
 XXXX=             -9.0818 YYYY=            -77.5537 ZZZZ=            -23.5636 XXXY=             -0.0000
 XXXZ=             -0.0000 YYYX=             -0.0000 YYYZ=              0.0000 ZZZX=             -0.0000
 ZZZY=             -0.0000 XXYY=            -14.8923 XXZZ=             -5.7723 YYZZ=            -15.8043
 XXYZ=              0.0000 YYXZ=             -0.0000 ZZXY=             -0.0000
 N-N= 7.358384476116D+01 E-N=-8.005439802947D+02  KE= 2.732311669930D+02
 Symmetry A1   KE= 1.592563395704D+02
 Symmetry A2   KE= 6.736035053701D+00
 Symmetry B1   KE= 1.215094242752D+01
 Symmetry B2   KE= 9.508784994137D+01
 1\1\GINC-SRU01\FOpt\RMP2-FC\6-311++G(d,p)\F2O1\JAMES\13-Jun-2022\0\\# 
 opt freq=hpmodes mp2/6-311++g** geom=connectivity\\of2 vibration\\0,1\
 O,0.,0.,-0.5994057893\F,0.,1.1040855121,0.2721677246\F,0.,-1.104085512
 1,0.2721677246\\Version=AM64L-G09RevC.01\State=1-A1\HF=-273.5279865\MP
 2=-274.1629826\RMSD=2.601e-09\RMSF=1.066e-04\Dipole=0.,0.,-0.1428737\P
 G=C02V [C2(O1),SGV(F2)]\\@


 KNIGHT- SIRE, I'VE JUST RETURNED FROM THE FRONT
 KING-   HOW GOES THE BATTLE                    
 KNIGHT- THE SITUATION IS QUITE FLUID           
 KING-   WHAT DOES *THAT* MEAN                  
 KNIGHT- WE'RE UP THE CREEK                     
                THE WIZARD OF ID                
 Job cpu time:  0 days  0 hours  0 minutes  8.5 seconds.
 File lengths (MBytes):  RWF=      5 Int=      0 D2E=      0 Chk=      2 Scr=      1
 Normal termination of Gaussian 09 at Mon Jun 13 15:19:21 2022.
 Link1:  Proceeding to internal job step number  2.
 ----------------------------------------------------------------------
 #N Geom=AllCheck Guess=TCheck SCRF=Check GenChk RMP2(FC)/6-311++G(d,p)
  Freq
 ----------------------------------------------------------------------
 1/10=4,29=7,30=1,38=1,40=1/1,3;
 2/12=2,40=1/2;
 3/5=4,6=6,7=1111,11=1,14=-4,16=1,25=1,30=1,70=2,71=2,116=1/1,2,3;
 4/5=101/1;
 5/5=2,98=1/2;
 8/6=3,8=1,10=2,19=11,30=-1/1;
 9/15=3,16=-3/6;
 11/6=1,8=1,15=11,17=12,24=-1,27=1,28=-2,29=300,32=6,42=3/1,2,10;
 10/6=2,21=1/2;
 8/6=4,8=1,10=2,19=11,30=-1/11,4;
 10/5=1,20=4/2;
 11/12=2,14=11,16=1,17=2,28=-2,42=3/2,10,12;
 6/7=2,8=2,9=2,10=2/1;
 7/8=11,10=1,12=2,25=1,44=2/1,2,3,16;
 1/10=4,30=1/3;
 99//99;
 Structure from the checkpoint file:  of2.chk
 -------------
 of2 vibration
 -------------
 Charge =  0 Multiplicity = 1
 Redundant internal coordinates found in file.
 O,0,0.,0.,-0.5994057893
 F,0,0.,1.1040855121,0.2721677246
 F,0,0.,-1.1040855121,0.2721677246
 Recover connectivity data from disk.

 GradGradGradGradGradGradGradGradGradGradGradGradGradGradGradGradGradGrad
 Berny optimization.
 Initialization pass.
                           ----------------------------
                           !    Initial Parameters    !
                           ! (Angstroms and Degrees)  !
 --------------------------                            --------------------------
 ! Name  Definition              Value          Derivative Info.                !
 --------------------------------------------------------------------------------
 ! R1    R(1,2)                  1.4066         calculate D2E/DX2 analytically  !
 ! R2    R(1,3)                  1.4066         calculate D2E/DX2 analytically  !
 ! A1    A(2,1,3)              103.4243         calculate D2E/DX2 analytically  !
 --------------------------------------------------------------------------------
 Trust Radius=3.00D-01 FncErr=1.00D-07 GrdErr=1.00D-07
 Number of steps in this run=      2 maximum allowed number of steps=      2.
 GradGradGradGradGradGradGradGradGradGradGradGradGradGradGradGradGradGrad

                          Input orientation:                          
 ---------------------------------------------------------------------
 Center     Atomic      Atomic             Coordinates (Angstroms)
 Number     Number       Type             X           Y           Z
 ---------------------------------------------------------------------
      1          8           0       -0.000000   -0.000000   -0.599406
      2          9           0       -0.000000    1.104086    0.272168
      3          9           0        0.000000   -1.104086    0.272168
 ---------------------------------------------------------------------
                    Distance matrix (angstroms):
                    1          2          3
     1  O    0.000000
     2  F    1.406643   0.000000
     3  F    1.406643   2.208171   0.000000
 Stoichiometry    F2O
 Framework group  C2V[C2(O),SGV(F2)]
 Deg. of freedom     2
 Full point group                 C2V     NOp   4
 Largest Abelian subgroup         C2V     NOp   4
 Largest concise Abelian subgroup C2      NOp   2
                         Standard orientation:                         
 ---------------------------------------------------------------------
 Center     Atomic      Atomic             Coordinates (Angstroms)
 Number     Number       Type             X           Y           Z
 ---------------------------------------------------------------------
      1          8           0        0.000000    0.000000    0.603397
      2          9           0        0.000000    1.104086   -0.268176
      3          9           0       -0.000000   -1.104086   -0.268176
 ---------------------------------------------------------------------
 Rotational constants (GHZ):     59.1026966     10.9110030      9.2106217
 Standard basis: 6-311++G(d,p) (5D, 7F)
 There are    27 symmetry adapted basis functions of A1  symmetry.
 There are     7 symmetry adapted basis functions of A2  symmetry.
 There are    11 symmetry adapted basis functions of B1  symmetry.
 There are    21 symmetry adapted basis functions of B2  symmetry.
 Integral buffers will be    131072 words long.
 Raffenetti 1 integral format.
 Two-electron integral symmetry is turned on.
    66 basis functions,   108 primitive gaussians,    69 cartesian basis functions
    13 alpha electrons       13 beta electrons
       nuclear repulsion energy        73.5838447612 Hartrees.
 NAtoms=    3 NActive=    3 NUniq=    2 SFac= 2.25D+00 NAtFMM=   60 NAOKFM=F Big=F
 One-electron integrals computed using PRISM.
 NBasis=    66 RedAO= T  NBF=    27     7    11    21
 NBsUse=    66 1.00D-06 NBFU=    27     7    11    21
 Initial guess read from the checkpoint file:  of2.chk
 B after Tr=     0.000000    0.000000   -0.000000
         Rot=    1.000000    0.000000   -0.000000    0.000000 Ang=   0.00 deg.
 Initial guess orbital symmetries:
       Occupied  (B2) (A1) (A1) (A1) (B2) (A1) (B1) (A1) (B2) (A2)
                 (B2) (A1) (B1)
       Virtual   (A1) (B2) (A1) (B1) (A1) (B2) (B2) (A1) (B1) (A2)
                 (A1) (B2) (A1) (B2) (B1) (A1) (B2) (A1) (A1) (A2)
                 (B1) (B2) (B2) (A1) (A1) (B2) (A1) (A2) (B1) (B2)
                 (A1) (A2) (B1) (B2) (A1) (B2) (A2) (B1) (A1) (A1)
                 (B2) (B1) (A1) (B2) (A1) (B1) (A2) (B2) (A1) (B2)
                 (A1) (B2) (A1)
 Requested convergence on RMS density matrix=1.00D-08 within 128 cycles.
 Requested convergence on MAX density matrix=1.00D-06.
 Requested convergence on             energy=1.00D-06.
 No special actions if energy rises.
 Keep R1 ints in memory in canonical form, NReq=3770801.
 DSYEVD returned Info=          55 IAlg= 4 N=    27 NDim=    66 NE2=      463936 trying DSYEV.
 SCF Done:  E(RHF) =  -273.527986482     A.U. after    1 cycles
             Convg  =    0.3777D-09             -V/T =  2.0011
 ExpMin= 8.45D-02 ExpMax= 1.14D+04 ExpMxC= 1.72D+03 IAcc=3 IRadAn=         5 AccDes= 0.00D+00
 HarFok:  IExCor=  205 AccDes= 0.00D+00 IRadAn=         5 IDoV=-2
 ScaDFX=  1.000000  1.000000  1.000000  1.000000
 Range of M.O.s used for correlation:     4    66
 NBasis=    66 NAE=    13 NBE=    13 NFC=     3 NFV=     0
 NROrb=     63 NOA=    10 NOB=    10 NVA=    53 NVB=    53
 Disk-based method using ON**2 memory for 10 occupieds at a time.
 Permanent disk used for amplitudes=      582205 words.
 Estimated scratch disk usage=     4223940 words.
 Actual    scratch disk usage=     4223940 words.
 JobTyp=1 Pass  1:  I=   4 to  13 NPSUse=  1 ParTrn=F ParDer=F DoDerP=T.
 (rs|ai) integrals will be sorted in core.
 Spin components of T(2) and E(2):
     alpha-alpha T2 =       0.1872546467D-01 E2=     -0.8308089371D-01
     alpha-beta  T2 =       0.1144952372D+00 E2=     -0.4688343376D+00
     beta-beta   T2 =       0.1872546467D-01 E2=     -0.8308089371D-01
 ANorm=    0.1073287551D+01
 E2 =    -0.6349961250D+00 EUMP2 =    -0.27416298260660D+03
 G2DrvN: will do     4 centers at a time, making    1 passes doing MaxLOS=2.
 Calling FoFCou, ICntrl=  3107 FMM=F I1Cent=   0 AccDes= 0.00D+00.
 FoFDir/FoFCou used for L=0 through L=2.
 End of G2Drv Frequency-dependent properties file   721 does not exist.
 End of G2Drv Frequency-dependent properties file   722 does not exist.
          IDoAtm=111
          Differentiating once with respect to electric field.
                with respect to dipole field.
          Differentiating once with respect to nuclear coordinates.
          Keep R1 ints in memory in canonical form, NReq=3738225.
          There are    12 degrees of freedom in the 1st order CPHF.  IDoFFX=5.
      9 vectors produced by pass  0 Test12= 5.74D-15 8.33D-09 XBig12= 3.72D+00 1.06D+00.
 AX will form     9 AO Fock derivatives at one time.
      9 vectors produced by pass  1 Test12= 5.74D-15 8.33D-09 XBig12= 4.26D-01 2.30D-01.
      9 vectors produced by pass  2 Test12= 5.74D-15 8.33D-09 XBig12= 4.16D-02 7.52D-02.
      9 vectors produced by pass  3 Test12= 5.74D-15 8.33D-09 XBig12= 1.65D-03 1.40D-02.
      9 vectors produced by pass  4 Test12= 5.74D-15 8.33D-09 XBig12= 2.31D-05 1.59D-03.
      9 vectors produced by pass  5 Test12= 5.74D-15 8.33D-09 XBig12= 2.29D-07 1.70D-04.
      9 vectors produced by pass  6 Test12= 5.74D-15 8.33D-09 XBig12= 1.97D-09 1.23D-05.
      6 vectors produced by pass  7 Test12= 5.74D-15 8.33D-09 XBig12= 1.75D-11 1.08D-06.
      2 vectors produced by pass  8 Test12= 5.74D-15 8.33D-09 XBig12= 5.91D-14 7.59D-08.
 Inverted reduced A of dimension    71 with in-core refinement.
 End of Minotr Frequency-dependent properties file   721 does not exist.
 End of Minotr Frequency-dependent properties file   722 does not exist.
 MDV=    33554432.
 Form MO integral derivatives with frozen-active canonical formalism.
 Discarding MO integrals.
 Reordered first order wavefunction length =       949442
 In DefCFB: NBatch=  1 ICI= 13 ICA= 53 LFMax= 27
            Large arrays: LIAPS=    12550824 LIARS=     7654101 words.
 Semi-Direct transformation.
 ModeAB=           4 MOrb=            13 LenV=      33334072
 LASXX=      1588470 LTotXX=     1588470 LenRXX=     3250351
 LTotAB=     1661881 MaxLAS=     1260402 LenRXY=           0
 NonZer=     4838821 LenScr=     7980544 LnRSAI=     1260402
 LnScr1=     2519040 LExtra=           0 Total=     15010337
 MaxDsk=          -1 SrtSym=           T ITran=            4
 JobTyp=0 Pass  1:  I=   1 to  13.
 (rs|ai) integrals will be sorted in core.
 Spin components of T(2) and E(2):
     alpha-alpha T2 =       0.1872546467D-01 E2=     -0.8308089371D-01
     alpha-beta  T2 =       0.1144952372D+00 E2=     -0.4688343376D+00
     beta-beta   T2 =       0.1872546467D-01 E2=     -0.8308089371D-01
 ANorm=    0.1517857811D+01
 E2 =    -0.6349961250D+00 EUMP2 =    -0.27416298260660D+03
          IDoAtm=111
          Differentiating once with respect to electric field.
                with respect to dipole field.
          Differentiating once with respect to nuclear coordinates.
          There are     1 degrees of freedom in the 1st order CPHF.  IDoFFX=0.
 LinEq1:  Iter=  0 NonCon=     1 RMS=8.87D-03 Max=7.59D-02
 LinEq1:  Iter=  1 NonCon=     1 RMS=2.44D-03 Max=3.56D-02
 LinEq1:  Iter=  2 NonCon=     1 RMS=9.50D-04 Max=8.93D-03
 LinEq1:  Iter=  3 NonCon=     1 RMS=3.11D-04 Max=2.43D-03
 LinEq1:  Iter=  4 NonCon=     1 RMS=1.06D-04 Max=9.92D-04
 LinEq1:  Iter=  5 NonCon=     1 RMS=1.35D-05 Max=1.14D-04
 LinEq1:  Iter=  6 NonCon=     1 RMS=2.19D-06 Max=1.38D-05
 LinEq1:  Iter=  7 NonCon=     1 RMS=5.60D-07 Max=5.30D-06
 LinEq1:  Iter=  8 NonCon=     1 RMS=1.15D-07 Max=9.27D-07
 LinEq1:  Iter=  9 NonCon=     1 RMS=1.50D-08 Max=1.30D-07
 LinEq1:  Iter= 10 NonCon=     1 RMS=1.93D-09 Max=1.28D-08
 LinEq1:  Iter= 11 NonCon=     1 RMS=3.34D-10 Max=2.86D-09
 LinEq1:  Iter= 12 NonCon=     0 RMS=5.78D-11 Max=3.83D-10
 Linear equations converged to 1.000D-10 1.000D-09 after    12 iterations.
 End of Minotr Frequency-dependent properties file   721 does not exist.
 End of Minotr Frequency-dependent properties file   722 does not exist.
 Symmetrizing basis deriv contribution to polar:
 IMax=3 JMax=2 DiffMx= 0.00D+00
 G2DrvN: will do     4 centers at a time, making    1 passes doing MaxLOS=2.
 Calling FoFCou, ICntrl=  3107 FMM=F I1Cent=   0 AccDes= 0.00D+00.
 FoFDir/FoFCou used for L=0 through L=2.
 End of G2Drv Frequency-dependent properties file   721 does not exist.
 End of G2Drv Frequency-dependent properties file   722 does not exist.
 R2 and R3 integrals will be kept in memory, NReq=     6654640.
 DD1Dir will call FoFMem   1 times, MxPair=       182
 NAB=    91 NAA=     0 NBB=     0.
 Discarding MO integrals.

 **********************************************************************

            Population analysis using the SCF density.

 **********************************************************************

 Orbital symmetries:
       Occupied  (B2) (A1) (A1) (A1) (B2) (A1) (B1) (A1) (B2) (A2)
                 (B2) (A1) (B1)
       Virtual   (A1) (B2) (A1) (B1) (A1) (B2) (B2) (A1) (B1) (A2)
                 (A1) (B2) (A1) (B2) (B1) (A1) (B2) (A1) (A1) (A2)
                 (B1) (B2) (B2) (A1) (A1) (B2) (A1) (A2) (B1) (B2)
                 (A1) (A2) (B1) (B2) (A1) (B2) (A2) (B1) (A1) (A1)
                 (B2) (B1) (A1) (B2) (A1) (B1) (A2) (B2) (A1) (B2)
                 (A1) (B2) (A1)
 The electronic state is 1-A1.
 Alpha  occ. eigenvalues --  -26.41030 -26.41029 -20.82952  -1.76249  -1.64472
 Alpha  occ. eigenvalues --   -1.29405  -0.82546  -0.80732  -0.80442  -0.72953
 Alpha  occ. eigenvalues --   -0.68659  -0.66005  -0.59069
 Alpha virt. eigenvalues --    0.09577   0.12796   0.17342   0.22970   0.23291
 Alpha virt. eigenvalues --    0.24775   0.31148   0.32817   0.33980   0.34127
 Alpha virt. eigenvalues --    0.35040   0.41620   0.50307   0.56257   1.15584
 Alpha virt. eigenvalues --    1.17586   1.20202   1.40695   1.45943   1.50139
 Alpha virt. eigenvalues --    1.52648   1.56942   1.66608   1.68786   2.16916
 Alpha virt. eigenvalues --    2.21624   2.98085   2.99583   3.01120   3.04298
 Alpha virt. eigenvalues --    3.13777   4.14375   4.14523   4.15146   4.15501
 Alpha virt. eigenvalues --    4.16913   4.21989   4.26304   4.32638   4.57956
 Alpha virt. eigenvalues --    4.59542   5.30916   5.56591   5.72183   6.79466
 Alpha virt. eigenvalues --    6.82684   6.83484   6.90896   6.94475   7.10143
 Alpha virt. eigenvalues --   51.25237  68.65859  68.66037
          Condensed to atoms (all electrons):
              1          2          3
     1  O    7.916486   0.058265   0.058265
     2  F    0.058265   8.945018  -0.019791
     3  F    0.058265  -0.019791   8.945018
 Mulliken atomic charges:
              1
     1  O   -0.033016
     2  F    0.016508
     3  F    0.016508
 Sum of Mulliken atomic charges =   0.00000
 Mulliken charges with hydrogens summed into heavy atoms:
              1
     1  O   -0.033016
     2  F    0.016508
     3  F    0.016508
 Sum of Mulliken charges with hydrogens summed into heavy atoms =   0.00000
 APT atomic charges:
              1
     1  O    0.425013
     2  F   -0.212507
     3  F   -0.212507
 Sum of APT charges=   0.00000
 APT Atomic charges with hydrogens summed into heavy atoms:
              1
     1  O    0.425013
     2  F   -0.212507
     3  F   -0.212507
 Sum of APT charges=   0.00000
 Electronic spatial extent (au):  <R**2>=            126.5112
 Charge=              0.0000 electrons
 Dipole moment (field-independent basis, Debye):
    X=              0.0000    Y=              0.0000    Z=              0.4751  Tot=              0.4751
 Quadrupole moment (field-independent basis, Debye-Ang):
   XX=            -14.8539   YY=            -15.2210   ZZ=            -14.4864
   XY=             -0.0000   XZ=             -0.0000   YZ=             -0.0000
 Traceless Quadrupole moment (field-independent basis, Debye-Ang):
   XX=             -0.0001   YY=             -0.3672   ZZ=              0.3674
   XY=             -0.0000   XZ=             -0.0000   YZ=             -0.0000
 Octapole moment (field-independent basis, Debye-Ang**2):
  XXX=              0.0000  YYY=              0.0000  ZZZ=             -1.2286  XYY=              0.0000
  XXY=             -0.0000  XXZ=             -0.6087  XZZ=              0.0000  YZZ=              0.0000
  YYZ=             -0.3586  XYZ=              0.0000
 Hexadecapole moment (field-independent basis, Debye-Ang**3):
 XXXX=             -9.0818 YYYY=            -77.5537 ZZZZ=            -23.5636 XXXY=             -0.0000
 XXXZ=             -0.0000 YYYX=             -0.0000 YYYZ=              0.0000 ZZZX=             -0.0000
 ZZZY=             -0.0000 XXYY=            -14.8923 XXZZ=             -5.7723 YYZZ=            -15.8043
 XXYZ=             -0.0000 YYXZ=             -0.0000 ZZXY=             -0.0000
 N-N= 7.358384476116D+01 E-N=-8.005439802479D+02  KE= 2.732311669690D+02
 Symmetry A1   KE= 1.592563395888D+02
 Symmetry A2   KE= 6.736035017253D+00
 Symmetry B1   KE= 1.215094242884D+01
 Symmetry B2   KE= 9.508784993404D+01
  Exact polarizability:   6.367   0.000  15.799   0.000  -0.000  10.295
 Approx polarizability:   4.397   0.000  13.825   0.000  -0.000   9.236
 Calling FoFJK, ICntrl=    100127 FMM=F ISym2X=1 I1Cent= 0 IOpClX= 0 NMat=1 NMatS=1 NMatT=0.
 Full mass-weighted force constant matrix:
 Low frequencies ---   -0.0015   -0.0012    0.0005    9.8216   11.2292   16.9117
 Low frequencies ---  476.1077  850.0409  930.7650
 Harmonic frequencies (cm**-1), IR intensities (KM/Mole), Raman scattering
 activities (A**4/AMU), depolarization ratios for plane and unpolarized
 incident light, reduced masses (AMU), force constants (mDyne/A),
 and normal coordinates:
                           1         2         3
                          A1        B2        A1
       Frequencies ---   476.1077  850.0409  930.7650
    Reduced masses ---    18.5398   17.0917   17.1557
   Force constants ---     2.4761    7.2764    8.7567
    IR Intensities ---     0.8533   65.9486   11.6088
 Coord Atom Element:
   1     1     8         -0.00000   0.00000   0.00000
   2     1     8          0.00000   0.79675  -0.00000
   3     1     8         -0.39077   0.00000   0.78328
   1     2     9          0.00000  -0.00000  -0.00000
   2     2     9          0.62976  -0.33540   0.29072
   3     2     9          0.16449   0.26476  -0.32972
   1     3     9         -0.00000  -0.00000  -0.00000
   2     3     9         -0.62976  -0.33540  -0.29072
   3     3     9          0.16449  -0.26476  -0.32972
 Harmonic frequencies (cm**-1), IR intensities (KM/Mole), Raman scattering
 activities (A**4/AMU), depolarization ratios for plane and unpolarized
 incident light, reduced masses (AMU), force constants (mDyne/A),
 and normal coordinates:
                     1                      2                      3
                    A1                     B2                     A1
 Frequencies --   476.1077               850.0409               930.7650
 Red. masses --    18.5398                17.0917                17.1557
 Frc consts  --     2.4761                 7.2764                 8.7567
 IR Inten    --     0.8533                65.9486                11.6088
  Atom  AN      X      Y      Z        X      Y      Z        X      Y      Z
     1   8    -0.00   0.00  -0.39     0.00   0.80   0.00     0.00  -0.00   0.78
     2   9     0.00   0.63   0.16    -0.00  -0.34   0.26    -0.00   0.29  -0.33
     3   9    -0.00  -0.63   0.16    -0.00  -0.34  -0.26    -0.00  -0.29  -0.33

 -------------------
 - Thermochemistry -
 -------------------
 Temperature   298.150 Kelvin.  Pressure   1.00000 Atm.
 Atom     1 has atomic number  8 and mass  15.99491
 Atom     2 has atomic number  9 and mass  18.99840
 Atom     3 has atomic number  9 and mass  18.99840
 Molecular mass:    53.99172 amu.
 Principal axes and moments of inertia in atomic units:
                           1         2         3
     Eigenvalues --    30.53568 165.40562 195.94130
           X            0.00000   0.00000   1.00000
           Y            1.00000   0.00000  -0.00000
           Z            0.00000   1.00000   0.00000
 This molecule is an asymmetric top.
 Rotational symmetry number  2.
 Rotational temperatures (Kelvin)      2.83648     0.52364     0.44204
 Rotational constants (GHZ):          59.10270    10.91100     9.21062
 Zero-point vibrational energy      13499.3 (Joules/Mol)
                                    3.22642 (Kcal/Mol)
 Warning -- explicit consideration of   1 degrees of freedom as
           vibrations may cause significant error
 Vibrational temperatures:    685.01  1223.02  1339.16
          (Kelvin)
 
 Zero-point correction=                           0.005142 (Hartree/Particle)
 Thermal correction to Energy=                    0.008330
 Thermal correction to Enthalpy=                  0.009274
 Thermal correction to Gibbs Free Energy=        -0.018777
 Sum of electronic and zero-point Energies=           -274.157841
 Sum of electronic and thermal Energies=              -274.154653
 Sum of electronic and thermal Enthalpies=            -274.153709
 Sum of electronic and thermal Free Energies=         -274.181759
 
                     E (Thermal)             CV                S
                      KCal/Mol        Cal/Mol-Kelvin    Cal/Mol-Kelvin
 Total                    5.227              8.296             59.038
 Electronic               0.000              0.000              0.000
 Translational            0.889              2.981             37.881
 Rotational               0.889              2.981             20.142
 Vibrational              3.450              2.334              1.014
 Vibration     1          0.833              1.303              0.721
                       Q            Log10(Q)             Ln(Q)
 Total Bot       0.433174D+09          8.636662         19.886650
 Total V=0       0.100379D+12         11.001642         25.332216
 Vib (Bot)       0.493353D-02         -2.306842         -5.311700
 Vib (Bot)    1  0.352449D+00         -0.452903         -1.042848
 Vib (V=0)       0.114324D+01          0.058137          0.133866
 Vib (V=0)    1  0.111174D+01          0.046002          0.105923
 Electronic      0.100000D+01          0.000000          0.000000
 Translational   0.155936D+08          7.192946         16.562370
 Rotational      0.563065D+04          3.750558          8.635980
 ***** Axes restored to original set *****
 -------------------------------------------------------------------
 Center     Atomic                   Forces (Hartrees/Bohr)
 Number     Number              X              Y              Z
 -------------------------------------------------------------------
      1        8           0.000000000   -0.000000000    0.000200694
      2        9           0.000000000   -0.000144804   -0.000100347
      3        9          -0.000000000    0.000144804   -0.000100347
 -------------------------------------------------------------------
 Cartesian Forces:  Max     0.000200694 RMS     0.000106643

 GradGradGradGradGradGradGradGradGradGradGradGradGradGradGradGradGradGrad
 Berny optimization.
 Internal  Forces:  Max     0.000175834 RMS     0.000144550
 Search for a local minimum.
 Step number   1 out of a maximum of    2
 All quantities printed in internal units (Hartrees-Bohrs-Radians)
 Second derivative matrix not updated -- analytic derivatives used.
 The second derivative matrix:
                          R1        R2        A1
           R1           0.26016
           R2           0.04930   0.26016
           A1           0.02808   0.02808   0.34818
 ITU=  0
     Eigenvalues ---    0.21087   0.28464   0.37300
 Angle between quadratic step and forces=   7.26 degrees.
 Linear search not attempted -- first point.
 Iteration  1 RMS(Cart)=  0.00039744 RMS(Int)=  0.00000000
 Iteration  2 RMS(Cart)=  0.00000000 RMS(Int)=  0.00000000
 ClnCor:  largest displacement from symmetrization is 2.71D-15 for atom     3.
 Variable       Old X    -DE/DX   Delta X   Delta X   Delta X     New X
                                 (Linear)    (Quad)   (Total)
    R1        2.65817  -0.00018   0.00000  -0.00057  -0.00057   2.65760
    R2        2.65817  -0.00018   0.00000  -0.00057  -0.00057   2.65760
    A1        1.80510  -0.00003   0.00000   0.00001   0.00001   1.80510
         Item               Value     Threshold  Converged?
 Maximum Force            0.000176     0.000450     YES
 RMS     Force            0.000145     0.000300     YES
 Maximum Displacement     0.000440     0.001800     YES
 RMS     Displacement     0.000397     0.001200     YES
 Predicted change in Energy=-9.991973D-08
 Optimization completed.
    -- Stationary point found.
                           ----------------------------
                           !   Optimized Parameters   !
                           ! (Angstroms and Degrees)  !
 --------------------------                            --------------------------
 ! Name  Definition              Value          Derivative Info.                !
 --------------------------------------------------------------------------------
 ! R1    R(1,2)                  1.4066         -DE/DX =   -0.0002              !
 ! R2    R(1,3)                  1.4066         -DE/DX =   -0.0002              !
 ! A1    A(2,1,3)              103.4243         -DE/DX =    0.0                 !
 --------------------------------------------------------------------------------
 GradGradGradGradGradGradGradGradGradGradGradGradGradGradGradGradGradGrad

 1\1\GINC-SRU01\Freq\RMP2-FC\6-311++G(d,p)\F2O1\JAMES\13-Jun-2022\0\\#N
  Geom=AllCheck Guess=TCheck SCRF=Check GenChk RMP2(FC)/6-311++G(d,p) F
 req\\of2 vibration\\0,1\O,0.,0.,-0.5994057893\F,0.,1.1040855121,0.2721
 677246\F,0.,-1.1040855121,0.2721677246\\Version=AM64L-G09RevC.01\State
 =1-A1\HF=-273.5279865\MP2=-274.1629826\RMSD=3.777e-10\RMSF=1.066e-04\Z
 eroPoint=0.0051416\Thermal=0.0083298\Dipole=0.,0.,-0.1428737\DipoleDer
 iv=0.0867459,0.,0.,0.,0.8152709,0.,0.,0.,0.3730225,-0.043373,0.,0.,0.,
 -0.4076354,-0.0633053,0.,-0.2875515,-0.1865112,-0.043373,0.,0.,0.,-0.4
 076354,0.0633053,0.,0.2875515,-0.1865112\Polar=6.3673131,0.,15.798687,
 0.,0.,10.2947279\PG=C02V [C2(O1),SGV(F2)]\NImag=0\\0.00012183,0.,0.259
 86435,0.,0.,0.31803383,-0.00006092,0.,0.,0.00006514,0.,-0.12993217,-0.
 09763678,0.,0.18949668,0.,-0.10252132,-0.15901692,0.,0.10007905,0.1200
 0872,-0.00006092,0.,0.,-0.00000422,0.,0.,0.00006514,0.,-0.12993217,0.0
 9763678,0.,-0.05956450,0.00244227,0.,0.18949668,0.,0.10252132,-0.15901
 692,0.,-0.00244227,0.03900820,0.,-0.10007905,0.12000872\\0.,0.,-0.0002
 0069,0.,0.00014480,0.00010035,0.,-0.00014480,0.00010035\\\@


 IT MATTERS NOT HOW DEEP YOU PLOW,
 BUT HOW LONG YOU STAY IN THE FURROW.
 Job cpu time:  0 days  0 hours  0 minutes 15.0 seconds.
 File lengths (MBytes):  RWF=    177 Int=      0 D2E=      0 Chk=      2 Scr=      1
 Normal termination of Gaussian 09 at Mon Jun 13 15:19:39 2022.
