 Entering Gaussian System, Link 0=g09
 Input=/home/james/5-bonds/D3h_trigonalbipyramidal/AsH5/SbH5.gjf
 Output=/home/james/5-bonds/D3h_trigonalbipyramidal/AsH5/SbH5.log
 Initial command:
 /usr/local/g09/l1.exe /scratch/james/Gau-32754.inp -scrdir=/scratch/james/
 Entering Link 1 = /usr/local/g09/l1.exe PID=     32756.
  
 Copyright (c) 1988,1990,1992,1993,1995,1998,2003,2009,2011,
            Gaussian, Inc.  All Rights Reserved.
  
 This is part of the Gaussian(R) 09 program.  It is based on
 the Gaussian(R) 03 system (copyright 2003, Gaussian, Inc.),
 the Gaussian(R) 98 system (copyright 1998, Gaussian, Inc.),
 the Gaussian(R) 94 system (copyright 1995, Gaussian, Inc.),
 the Gaussian 92(TM) system (copyright 1992, Gaussian, Inc.),
 the Gaussian 90(TM) system (copyright 1990, Gaussian, Inc.),
 the Gaussian 88(TM) system (copyright 1988, Gaussian, Inc.),
 the Gaussian 86(TM) system (copyright 1986, Carnegie Mellon
 University), and the Gaussian 82(TM) system (copyright 1983,
 Carnegie Mellon University). Gaussian is a federally registered
 trademark of Gaussian, Inc.
  
 This software contains proprietary and confidential information,
 including trade secrets, belonging to Gaussian, Inc.
  
 This software is provided under written license and may be
 used, copied, transmitted, or stored only in accord with that
 written license.
  
 The following legend is applicable only to US Government
 contracts under FAR:
  
                    RESTRICTED RIGHTS LEGEND
  
 Use, reproduction and disclosure by the US Government is
 subject to restrictions as set forth in subparagraphs (a)
 and (c) of the Commercial Computer Software - Restricted
 Rights clause in FAR 52.227-19.
  
 Gaussian, Inc.
 340 Quinnipiac St., Bldg. 40, Wallingford CT 06492
  
  
 ---------------------------------------------------------------
 Warning -- This program may not be used in any manner that
 competes with the business of Gaussian, Inc. or will provide
 assistance to any competitor of Gaussian, Inc.  The licensee
 of this program is prohibited from giving any competitor of
 Gaussian, Inc. access to this program.  By using this program,
 the user acknowledges that Gaussian, Inc. is engaged in the
 business of creating and licensing software in the field of
 computational chemistry and represents and warrants to the
 licensee that it is not a competitor of Gaussian, Inc. and that
 it will not use this program in any manner prohibited above.
 ---------------------------------------------------------------
  

 Cite this work as:
 Gaussian 09, Revision C.01,
 M. J. Frisch, G. W. Trucks, H. B. Schlegel, G. E. Scuseria, 
 M. A. Robb, J. R. Cheeseman, G. Scalmani, V. Barone, B. Mennucci, 
 G. A. Petersson, H. Nakatsuji, M. Caricato, X. Li, H. P. Hratchian, 
 A. F. Izmaylov, J. Bloino, G. Zheng, J. L. Sonnenberg, M. Hada, 
 M. Ehara, K. Toyota, R. Fukuda, J. Hasegawa, M. Ishida, T. Nakajima, 
 Y. Honda, O. Kitao, H. Nakai, T. Vreven, J. A. Montgomery, Jr., 
 J. E. Peralta, F. Ogliaro, M. Bearpark, J. J. Heyd, E. Brothers, 
 K. N. Kudin, V. N. Staroverov, T. Keith, R. Kobayashi, J. Normand, 
 K. Raghavachari, A. Rendell, J. C. Burant, S. S. Iyengar, J. Tomasi, 
 M. Cossi, N. Rega, J. M. Millam, M. Klene, J. E. Knox, J. B. Cross, 
 V. Bakken, C. Adamo, J. Jaramillo, R. Gomperts, R. E. Stratmann, 
 O. Yazyev, A. J. Austin, R. Cammi, C. Pomelli, J. W. Ochterski, 
 R. L. Martin, K. Morokuma, V. G. Zakrzewski, G. A. Voth, 
 P. Salvador, J. J. Dannenberg, S. Dapprich, A. D. Daniels, 
 O. Farkas, J. B. Foresman, J. V. Ortiz, J. Cioslowski, 
 and D. J. Fox, Gaussian, Inc., Wallingford CT, 2010.
 
 ******************************************
 Gaussian 09:  AM64L-G09RevC.01 23-Sep-2011
                18-Jun-2023 
 ******************************************
 %chk=SbH5.chk
 ---------------------------------------------
 # opt freq=hpmodes hf/3-21g geom=connectivity
 ---------------------------------------------
 1/18=20,19=15,38=1,57=2/1,3;
 2/9=110,12=2,17=6,18=5,40=1/2;
 3/5=5,11=9,16=1,25=1,30=1,71=1/1,2,3;
 4//1;
 5/5=2,38=5/2;
 6/7=2,8=2,9=2,10=2,28=1/1;
 7//1,2,3,16;
 1/18=20,19=15/3(2);
 2/9=110/2;
 99//99;
 2/9=110/2;
 3/5=5,11=9,16=1,25=1,30=1,71=1/1,2,3;
 4/5=5,16=3/1;
 5/5=2,38=5/2;
 7//1,2,3,16;
 1/18=20,19=15/3(-5);
 2/9=110/2;
 6/7=2,8=2,9=2,10=2,19=2,28=1/1;
 99/9=1/99;
 -------------------
 Title Card Required
 -------------------
 Charge =  0 Multiplicity = 1
 Symbolic Z-Matrix:
 Sb                    0.        0.        0. 
 H                     1.4809   -0.855     0. 
 H                     0.        0.       -1.71 
 H                     0.        0.        1.71 
 H                     0.        1.71      0. 
 H                    -1.4809   -0.855     0. 
 

 GradGradGradGradGradGradGradGradGradGradGradGradGradGradGradGradGradGrad
 Berny optimization.
 Initialization pass.
                           ----------------------------
                           !    Initial Parameters    !
                           ! (Angstroms and Degrees)  !
 --------------------------                            --------------------------
 ! Name  Definition              Value          Derivative Info.                !
 --------------------------------------------------------------------------------
 ! R1    R(1,2)                  1.71           estimate D2E/DX2                !
 ! R2    R(1,3)                  1.71           estimate D2E/DX2                !
 ! R3    R(1,4)                  1.71           estimate D2E/DX2                !
 ! R4    R(1,5)                  1.71           estimate D2E/DX2                !
 ! R5    R(1,6)                  1.71           estimate D2E/DX2                !
 ! A1    A(2,1,3)               90.0            estimate D2E/DX2                !
 ! A2    A(2,1,4)               90.0            estimate D2E/DX2                !
 ! A3    A(2,1,5)              120.0            estimate D2E/DX2                !
 ! A4    A(2,1,6)              120.0            estimate D2E/DX2                !
 ! A5    A(3,1,5)               90.0            estimate D2E/DX2                !
 ! A6    A(3,1,6)               90.0            estimate D2E/DX2                !
 ! A7    A(4,1,5)               90.0            estimate D2E/DX2                !
 ! A8    A(4,1,6)               90.0            estimate D2E/DX2                !
 ! A9    A(5,1,6)              120.0            estimate D2E/DX2                !
 ! A10   L(3,1,4,2,-1)         180.0            estimate D2E/DX2                !
 ! A11   L(3,1,4,2,-2)         180.0            estimate D2E/DX2                !
 ! D1    D(2,1,5,3)             90.0            estimate D2E/DX2                !
 ! D2    D(2,1,6,3)            -90.0            estimate D2E/DX2                !
 ! D3    D(2,1,5,4)            -90.0            estimate D2E/DX2                !
 ! D4    D(2,1,6,4)             90.0            estimate D2E/DX2                !
 ! D5    D(2,1,6,5)            180.0            estimate D2E/DX2                !
 ! D6    D(3,1,6,5)            -90.0            estimate D2E/DX2                !
 ! D7    D(4,1,6,5)             90.0            estimate D2E/DX2                !
 --------------------------------------------------------------------------------
 Trust Radius=3.00D-01 FncErr=1.00D-07 GrdErr=1.00D-07
 Number of steps in this run=     33 maximum allowed number of steps=    100.
 GradGradGradGradGradGradGradGradGradGradGradGradGradGradGradGradGradGrad

                          Input orientation:                          
 ---------------------------------------------------------------------
 Center     Atomic      Atomic             Coordinates (Angstroms)
 Number     Number       Type             X           Y           Z
 ---------------------------------------------------------------------
      1         51           0        0.000000    0.000000    0.000000
      2          1           0        1.480903   -0.855000    0.000000
      3          1           0        0.000000    0.000000   -1.710000
      4          1           0        0.000000    0.000000    1.710000
      5          1           0        0.000000    1.710000    0.000000
      6          1           0       -1.480903   -0.855000    0.000000
 ---------------------------------------------------------------------
                    Distance matrix (angstroms):
                    1          2          3          4          5
     1  Sb   0.000000
     2  H    1.710000   0.000000
     3  H    1.710000   2.418305   0.000000
     4  H    1.710000   2.418305   3.420000   0.000000
     5  H    1.710000   2.961807   2.418305   2.418305   0.000000
     6  H    1.710000   2.961807   2.418305   2.418305   2.961807
                    6
     6  H    0.000000
 Stoichiometry    H5Sb
 Framework group  D3H[O(Sb),C3(H.H),3C2(H)]
 Deg. of freedom     2
 Full point group                 D3H     NOp  12
 Largest Abelian subgroup         C2V     NOp   4
 Largest concise Abelian subgroup C2V     NOp   4
                         Standard orientation:                         
 ---------------------------------------------------------------------
 Center     Atomic      Atomic             Coordinates (Angstroms)
 Number     Number       Type             X           Y           Z
 ---------------------------------------------------------------------
      1         51           0        0.000000    0.000000    0.000000
      2          1           0        0.000000    1.710000    0.000000
      3          1           0        0.000000    0.000000    1.710000
      4          1           0        0.000000    0.000000   -1.710000
      5          1           0        1.480903   -0.855000    0.000000
      6          1           0       -1.480903   -0.855000    0.000000
 ---------------------------------------------------------------------
 Rotational constants (GHZ):     57.1634692     48.9972593     48.9972593
 Standard basis: 3-21G (6D, 7F)
 There are    23 symmetry adapted basis functions of A1  symmetry.
 There are     2 symmetry adapted basis functions of A2  symmetry.
 There are     9 symmetry adapted basis functions of B1  symmetry.
 There are     9 symmetry adapted basis functions of B2  symmetry.
 Integral buffers will be    131072 words long.
 Raffenetti 1 integral format.
 Two-electron integral symmetry is turned on.
    43 basis functions,   102 primitive gaussians,    43 cartesian basis functions
    28 alpha electrons       28 beta electrons
       nuclear repulsion energy        80.9160511005 Hartrees.
 NAtoms=    6 NActive=    6 NUniq=    3 SFac= 4.00D+00 NAtFMM=   60 NAOKFM=F Big=F
 One-electron integrals computed using PRISM.
 NBasis=    43 RedAO= T  NBF=    23     2     9     9
 NBsUse=    43 1.00D-06 NBFU=    23     2     9     9
 Harris functional with IExCor=  205 diagonalized for initial guess.
 ExpMin= 8.66D-02 ExpMax= 1.33D+04 ExpMxC= 1.33D+04 IAcc=2 IRadAn=         4 AccDes= 0.00D+00
 HarFok:  IExCor=  205 AccDes= 0.00D+00 IRadAn=         4 IDoV= 1
 ScaDFX=  1.000000  1.000000  1.000000  1.000000
 Defaulting to unpruned grid for atomic number  51.
 FoFCou: FMM=F IPFlag=           0 FMFlag=      100000 FMFlg1=           0
         NFxFlg=           0 DoJE=T BraDBF=F KetDBF=T FulRan=T
         Omega=  0.000000  0.000000  1.000000  0.000000  0.000000 ICntrl=     500 IOpCl=  0
         NMat0=    1 NMatS0=    1 NMatT0=    0 NMatD0=    1 NMtDS0=    0 NMtDT0=    0
         I1Cent=           4 NGrid=           0.
 Petite list used in FoFCou.
 Initial guess orbital symmetries:
       Occupied  (A1') (A1') (A2") (E') (E') (A1') (A2") (E') (E')
                 (A1') (E') (E') (E") (E") (A1') (A2") (E') (E')
                 (A1') (E') (E') (E") (E") (A1') (A2") (E') (E')
                 (A1')
       Virtual   (E') (E') (A1') (A2") (A2") (E') (E') (A1') (A1')
                 (E') (E') (A1') (A2") (A1') (A1')
 The electronic state of the initial guess is 1-A1'.
 Requested convergence on RMS density matrix=1.00D-08 within 128 cycles.
 Requested convergence on MAX density matrix=1.00D-06.
 Requested convergence on             energy=1.00D-06.
 No special actions if energy rises.
 Keep R1 ints in memory in canonical form, NReq=1292554.
 SCF Done:  E(RHF) =  -6288.84072687     A.U. after    9 cycles
             Convg  =    0.3878D-08             -V/T =  2.0027

 **********************************************************************

            Population analysis using the SCF density.

 **********************************************************************

 Orbital symmetries:
       Occupied  (A1') (A1') (E') (E') (A2") (A1') (E') (E') (A2")
                 (E') (E') (A1') (E") (E") (A1') (E') (E') (A2")
                 (A1') (E') (E') (E") (E") (A1') (A2") (E') (E')
                 (A1')
       Virtual   (E') (E') (A1') (A2") (E') (E') (A2") (A1') (A1')
                 (E') (E') (A1') (A2") (A1') (A1')
 The electronic state is 1-A1'.
 Alpha  occ. eigenvalues -- **********-164.02375-152.87058-152.87058-152.87001
 Alpha  occ. eigenvalues --  -33.61453 -28.85217 -28.85217 -28.85003 -20.75755
 Alpha  occ. eigenvalues --  -20.75755 -20.75620 -20.75578 -20.75578  -6.14929
 Alpha  occ. eigenvalues --   -4.45831  -4.45831  -4.45492  -1.79078  -1.78950
 Alpha  occ. eigenvalues --   -1.78950  -1.78331  -1.78331  -0.79074  -0.53149
 Alpha  occ. eigenvalues --   -0.51888  -0.51888  -0.32027
 Alpha virt. eigenvalues --    0.14363   0.14363   0.19022   0.28518   0.39146
 Alpha virt. eigenvalues --    0.39146   0.39432   0.44034   1.25261   1.27599
 Alpha virt. eigenvalues --    1.27599   1.30891   1.41678   3.60029 218.28997
          Condensed to atoms (all electrons):
              1          2          3          4          5          6
     1  Sb  48.394892   0.317406   0.231344   0.231344   0.317406   0.317406
     2  H    0.317406   0.971012  -0.048793  -0.048793   0.003589   0.003589
     3  H    0.231344  -0.048793   1.204802   0.008321  -0.048793  -0.048793
     4  H    0.231344  -0.048793   0.008321   1.204802  -0.048793  -0.048793
     5  H    0.317406   0.003589  -0.048793  -0.048793   0.971012   0.003589
     6  H    0.317406   0.003589  -0.048793  -0.048793   0.003589   0.971012
 Mulliken atomic charges:
              1
     1  Sb   1.190202
     2  H   -0.198009
     3  H   -0.298087
     4  H   -0.298087
     5  H   -0.198009
     6  H   -0.198009
 Sum of Mulliken atomic charges =  -0.00000
 Mulliken charges with hydrogens summed into heavy atoms:
              1
     1  Sb  -0.000000
 Sum of Mulliken charges with hydrogens summed into heavy atoms =  -0.00000
 Electronic spatial extent (au):  <R**2>=            129.1654
 Charge=             -0.0000 electrons
 Dipole moment (field-independent basis, Debye):
    X=              0.0000    Y=              0.0000    Z=             -0.0000  Tot=              0.0000
 Quadrupole moment (field-independent basis, Debye-Ang):
   XX=            -32.6178   YY=            -32.6178   ZZ=            -38.2711
   XY=              0.0000   XZ=              0.0000   YZ=              0.0000
 Traceless Quadrupole moment (field-independent basis, Debye-Ang):
   XX=              1.8844   YY=              1.8844   ZZ=             -3.7689
   XY=              0.0000   XZ=              0.0000   YZ=              0.0000
 Octapole moment (field-independent basis, Debye-Ang**2):
  XXX=              0.0000  YYY=             -3.8587  ZZZ=              0.0000  XYY=              0.0000
  XXY=              3.8587  XXZ=              0.0000  XZZ=             -0.0000  YZZ=              0.0000
  YYZ=             -0.0000  XYZ=             -0.0000
 Hexadecapole moment (field-independent basis, Debye-Ang**3):
 XXXX=            -75.5437 YYYY=            -75.5437 ZZZZ=           -116.8673 XXXY=              0.0000
 XXXZ=              0.0000 YYYX=              0.0000 YYYZ=             -0.0000 ZZZX=              0.0000
 ZZZY=              0.0000 XXYY=            -25.1812 XXZZ=            -25.4581 YYZZ=            -25.4581
 XXYZ=             -0.0000 YYXZ=              0.0000 ZZXY=              0.0000
 N-N= 8.091605110053D+01 E-N=-1.509721331689D+04  KE= 6.271801054179D+03
 Symmetry A1   KE= 4.292892661766D+03
 Symmetry A2   KE= 1.695242251489D+02
 Symmetry B1   KE= 9.045835766294D+02
 Symmetry B2   KE= 9.048005906351D+02
 Calling FoFJK, ICntrl=      2127 FMM=F ISym2X=1 I1Cent= 0 IOpClX= 0 NMat=1 NMatS=1 NMatT=0.
 ***** Axes restored to original set *****
 -------------------------------------------------------------------
 Center     Atomic                   Forces (Hartrees/Bohr)
 Number     Number              X              Y              Z
 -------------------------------------------------------------------
      1       51           0.000000000    0.000000000   -0.000000000
      2        1           0.005449099   -0.003146039    0.000000000
      3        1           0.000000000    0.000000000   -0.018430162
      4        1           0.000000000    0.000000000    0.018430162
      5        1          -0.000000000    0.006292077   -0.000000000
      6        1          -0.005449099   -0.003146039   -0.000000000
 -------------------------------------------------------------------
 Cartesian Forces:  Max     0.018430162 RMS     0.006658797

 GradGradGradGradGradGradGradGradGradGradGradGradGradGradGradGradGradGrad
 Berny optimization.
 Internal  Forces:  Max     0.018430162 RMS     0.005890716
 Search for a local minimum.
 Step number   1 out of a maximum of   33
 All quantities printed in internal units (Hartrees-Bohrs-Radians)
 Mixed Optimization -- RFO/linear search
 Second derivative matrix not updated -- first step.
 ITU=  0
     Eigenvalues ---    0.02789   0.04263   0.05952   0.06563   0.11941
     Eigenvalues ---    0.12576   0.12576   0.12576   0.12576   0.12576
     Eigenvalues ---    0.16000   0.16000
 RFO step:  Lambda=-6.05485163D-03 EMin= 2.78870648D-02
 Linear search not attempted -- first point.
 Iteration  1 RMS(Cart)=  0.04468970 RMS(Int)=  0.00000000
 Iteration  2 RMS(Cart)=  0.00000000 RMS(Int)=  0.00000000
 ClnCor:  largest displacement from symmetrization is 7.21D-12 for atom     4.
 Variable       Old X    -DE/DX   Delta X   Delta X   Delta X     New X
                                 (Linear)    (Quad)   (Total)
    R1        3.23143   0.00629   0.00000   0.04773   0.04773   3.27917
    R2        3.23143   0.01843   0.00000   0.13982   0.13982   3.37125
    R3        3.23143   0.01843   0.00000   0.13982   0.13982   3.37125
    R4        3.23143   0.00629   0.00000   0.04773   0.04773   3.27917
    R5        3.23143   0.00629   0.00000   0.04773   0.04773   3.27917
    A1        1.57080  -0.00000   0.00000  -0.00000   0.00000   1.57080
    A2        1.57080  -0.00000   0.00000  -0.00000   0.00000   1.57080
    A3        2.09440   0.00000   0.00000   0.00000   0.00000   2.09440
    A4        2.09440   0.00000   0.00000   0.00000   0.00000   2.09440
    A5        1.57080  -0.00000   0.00000  -0.00000   0.00000   1.57080
    A6        1.57080   0.00000   0.00000   0.00000   0.00000   1.57080
    A7        1.57080  -0.00000   0.00000  -0.00000   0.00000   1.57080
    A8        1.57080   0.00000   0.00000   0.00000   0.00000   1.57080
    A9        2.09440  -0.00000   0.00000  -0.00000   0.00000   2.09440
   A10        3.14159  -0.00000   0.00000  -0.00000   0.00000   3.14159
   A11        3.14159  -0.00000   0.00000  -0.00000   0.00000   3.14159
    D1        1.57080  -0.00000   0.00000  -0.00000   0.00000   1.57080
    D2       -1.57080  -0.00000   0.00000  -0.00000   0.00000  -1.57080
    D3       -1.57080   0.00000   0.00000   0.00000   0.00000  -1.57080
    D4        1.57080  -0.00000   0.00000  -0.00000   0.00000   1.57080
    D5        3.14159  -0.00000   0.00000  -0.00000   0.00000   3.14159
    D6       -1.57080   0.00000   0.00000  -0.00000   0.00000  -1.57080
    D7        1.57080  -0.00000   0.00000  -0.00000   0.00000   1.57080
         Item               Value     Threshold  Converged?
 Maximum Force            0.018430     0.000450     NO 
 RMS     Force            0.005891     0.000300     NO 
 Maximum Displacement     0.139820     0.001800     NO 
 RMS     Displacement     0.044690     0.001200     NO 
 Predicted change in Energy=-3.166490D-03
 GradGradGradGradGradGradGradGradGradGradGradGradGradGradGradGradGradGrad

                          Input orientation:                          
 ---------------------------------------------------------------------
 Center     Atomic      Atomic             Coordinates (Angstroms)
 Number     Number       Type             X           Y           Z
 ---------------------------------------------------------------------
      1         51           0        0.000000   -0.000000    0.000000
      2          1           0        1.502779   -0.867630    0.000000
      3          1           0       -0.000000   -0.000000   -1.783989
      4          1           0        0.000000    0.000000    1.783989
      5          1           0       -0.000000    1.735260    0.000000
      6          1           0       -1.502779   -0.867630    0.000000
 ---------------------------------------------------------------------
                    Distance matrix (angstroms):
                    1          2          3          4          5
     1  Sb   0.000000
     2  H    1.735260   0.000000
     3  H    1.783989   2.488724   0.000000
     4  H    1.783989   2.488724   3.567979   0.000000
     5  H    1.735260   3.005559   2.488724   2.488724   0.000000
     6  H    1.735260   3.005559   2.488724   2.488724   3.005559
                    6
     6  H    0.000000
 Stoichiometry    H5Sb
 Framework group  D3H[O(Sb),C3(H.H),3C2(H)]
 Deg. of freedom     2
 Full point group                 D3H     NOp  12
 Largest Abelian subgroup         C2V     NOp   4
 Largest concise Abelian subgroup C2V     NOp   4
                         Standard orientation:                         
 ---------------------------------------------------------------------
 Center     Atomic      Atomic             Coordinates (Angstroms)
 Number     Number       Type             X           Y           Z
 ---------------------------------------------------------------------
      1         51           0        0.000000    0.000000    0.000000
      2          1           0       -0.000000    1.735260   -0.000000
      3          1           0        0.000000    0.000000    1.783989
      4          1           0        0.000000    0.000000   -1.783989
      5          1           0        1.502779   -0.867630   -0.000000
      6          1           0       -1.502779   -0.867630   -0.000000
 ---------------------------------------------------------------------
 Rotational constants (GHZ):     55.5113326     46.0814584     46.0814584
 Standard basis: 3-21G (6D, 7F)
 There are    23 symmetry adapted basis functions of A1  symmetry.
 There are     2 symmetry adapted basis functions of A2  symmetry.
 There are     9 symmetry adapted basis functions of B1  symmetry.
 There are     9 symmetry adapted basis functions of B2  symmetry.
 Integral buffers will be    131072 words long.
 Raffenetti 1 integral format.
 Two-electron integral symmetry is turned on.
    43 basis functions,   102 primitive gaussians,    43 cartesian basis functions
    28 alpha electrons       28 beta electrons
       nuclear repulsion energy        78.8663191201 Hartrees.
 NAtoms=    6 NActive=    6 NUniq=    3 SFac= 4.00D+00 NAtFMM=   60 NAOKFM=F Big=F
 One-electron integrals computed using PRISM.
 NBasis=    43 RedAO= T  NBF=    23     2     9     9
 NBsUse=    43 1.00D-06 NBFU=    23     2     9     9
 Initial guess read from the read-write file.
 B after Tr=     0.000000    0.000000    0.000000
         Rot=    1.000000    0.000000    0.000000    0.000000 Ang=   0.00 deg.
 Initial guess orbital symmetries:
       Occupied  (A1') (A1') (E') (E') (A2") (A1') (E') (E') (A2")
                 (E') (E') (A1') (E") (E") (A1') (E') (E') (A2")
                 (A1') (E') (E') (E") (E") (A1') (A2") (E') (E')
                 (A1')
       Virtual   (E') (E') (A1') (A2") (E') (E') (A2") (A1') (A1')
                 (E') (E') (A1') (A2") (A1') (A1')
 Harris functional with IExCor=  205 diagonalized for initial guess.
 ExpMin= 8.66D-02 ExpMax= 1.33D+04 ExpMxC= 1.33D+04 IAcc=2 IRadAn=         4 AccDes= 0.00D+00
 HarFok:  IExCor=  205 AccDes= 0.00D+00 IRadAn=         4 IDoV= 1
 ScaDFX=  1.000000  1.000000  1.000000  1.000000
 Defaulting to unpruned grid for atomic number  51.
 FoFCou: FMM=F IPFlag=           0 FMFlag=      100000 FMFlg1=           0
         NFxFlg=           0 DoJE=T BraDBF=F KetDBF=T FulRan=T
         Omega=  0.000000  0.000000  1.000000  0.000000  0.000000 ICntrl=     500 IOpCl=  0
         NMat0=    1 NMatS0=    1 NMatT0=    0 NMatD0=    1 NMtDS0=    0 NMtDT0=    0
         I1Cent=           4 NGrid=           0.
 Petite list used in FoFCou.
 Requested convergence on RMS density matrix=1.00D-08 within 128 cycles.
 Requested convergence on MAX density matrix=1.00D-06.
 Requested convergence on             energy=1.00D-06.
 No special actions if energy rises.
 Keep R1 ints in memory in canonical form, NReq=1292554.
 SCF Done:  E(RHF) =  -6288.84302527     A.U. after    9 cycles
             Convg  =    0.5014D-08             -V/T =  2.0028
 Calling FoFJK, ICntrl=      2127 FMM=F ISym2X=1 I1Cent= 0 IOpClX= 0 NMat=1 NMatS=1 NMatT=0.
 ***** Axes restored to original set *****
 -------------------------------------------------------------------
 Center     Atomic                   Forces (Hartrees/Bohr)
 Number     Number              X              Y              Z
 -------------------------------------------------------------------
      1       51          -0.000000000   -0.000000000    0.000000000
      2        1          -0.002948805    0.001702493   -0.000000000
      3        1           0.000000000    0.000000000    0.002370670
      4        1           0.000000000   -0.000000000   -0.002370670
      5        1           0.000000000   -0.003404986   -0.000000000
      6        1           0.002948805    0.001702493   -0.000000000
 -------------------------------------------------------------------
 Cartesian Forces:  Max     0.003404986 RMS     0.001598992

 GradGradGradGradGradGradGradGradGradGradGradGradGradGradGradGradGradGrad
 Berny optimization.
 Using GEDIIS/GDIIS optimizer.
 Internal  Forces:  Max     0.003404986 RMS     0.001414551
 Search for a local minimum.
 Step number   2 out of a maximum of   33
 All quantities printed in internal units (Hartrees-Bohrs-Radians)
 Mixed Optimization -- RFO/linear search
 Update second derivatives using D2CorX and points    1    2
 DE= -2.30D-03 DEPred=-3.17D-03 R= 7.26D-01
 SS=  1.41D+00  RLast= 2.14D-01 DXNew= 5.0454D-01 6.4297D-01
 Trust test= 7.26D-01 RLast= 2.14D-01 DXMaxT set to 5.05D-01
 ITU=  1  0
 Use linear search instead of GDIIS.
     Eigenvalues ---    0.02789   0.04263   0.05952   0.06563   0.11841
     Eigenvalues ---    0.11941   0.12576   0.12576   0.12576   0.16000
     Eigenvalues ---    0.16000   0.16660
 RFO step:  Lambda=-9.23288319D-05 EMin= 2.78870648D-02
 Quartic linear search produced a step of -0.17817.
 Iteration  1 RMS(Cart)=  0.00920271 RMS(Int)=  0.00000000
 Iteration  2 RMS(Cart)=  0.00000000 RMS(Int)=  0.00000000
 ClnCor:  largest displacement from symmetrization is 1.66D-12 for atom     4.
 Variable       Old X    -DE/DX   Delta X   Delta X   Delta X     New X
                                 (Linear)    (Quad)   (Total)
    R1        3.27917  -0.00340  -0.00850  -0.01368  -0.02219   3.25698
    R2        3.37125  -0.00237  -0.02491   0.00957  -0.01534   3.35591
    R3        3.37125  -0.00237  -0.02491   0.00957  -0.01534   3.35591
    R4        3.27917  -0.00340  -0.00850  -0.01368  -0.02219   3.25698
    R5        3.27917  -0.00340  -0.00850  -0.01368  -0.02219   3.25698
    A1        1.57080   0.00000   0.00000   0.00000   0.00000   1.57080
    A2        1.57080   0.00000   0.00000  -0.00000   0.00000   1.57080
    A3        2.09440  -0.00000  -0.00000  -0.00000   0.00000   2.09440
    A4        2.09440   0.00000   0.00000   0.00000   0.00000   2.09440
    A5        1.57080  -0.00000   0.00000  -0.00000   0.00000   1.57080
    A6        1.57080   0.00000   0.00000   0.00000   0.00000   1.57080
    A7        1.57080   0.00000   0.00000  -0.00000   0.00000   1.57080
    A8        1.57080  -0.00000   0.00000   0.00000   0.00000   1.57080
    A9        2.09440  -0.00000   0.00000  -0.00000  -0.00000   2.09440
   A10        3.14159   0.00000   0.00000  -0.00000   0.00000   3.14159
   A11        3.14159  -0.00000   0.00000  -0.00000   0.00000   3.14159
    D1        1.57080  -0.00000   0.00000  -0.00000   0.00000   1.57080
    D2       -1.57080  -0.00000   0.00000  -0.00000   0.00000  -1.57080
    D3       -1.57080  -0.00000   0.00000   0.00000   0.00000  -1.57080
    D4        1.57080  -0.00000   0.00000  -0.00000   0.00000   1.57080
    D5        3.14159  -0.00000   0.00000  -0.00000   0.00000   3.14159
    D6       -1.57080   0.00000   0.00000   0.00000   0.00000  -1.57080
    D7        1.57080  -0.00000   0.00000  -0.00000   0.00000   1.57080
         Item               Value     Threshold  Converged?
 Maximum Force            0.003405     0.000450     NO 
 RMS     Force            0.001415     0.000300     NO 
 Maximum Displacement     0.022188     0.001800     NO 
 RMS     Displacement     0.009203     0.001200     NO 
 Predicted change in Energy=-1.389009D-04
 GradGradGradGradGradGradGradGradGradGradGradGradGradGradGradGradGradGrad

                          Input orientation:                          
 ---------------------------------------------------------------------
 Center     Atomic      Atomic             Coordinates (Angstroms)
 Number     Number       Type             X           Y           Z
 ---------------------------------------------------------------------
      1         51           0       -0.000000   -0.000000    0.000000
      2          1           0        1.492611   -0.861759    0.000000
      3          1           0       -0.000000   -0.000000   -1.775870
      4          1           0        0.000000    0.000000    1.775870
      5          1           0       -0.000000    1.723518    0.000000
      6          1           0       -1.492611   -0.861759    0.000000
 ---------------------------------------------------------------------
                    Distance matrix (angstroms):
                    1          2          3          4          5
     1  Sb   0.000000
     2  H    1.723518   0.000000
     3  H    1.775870   2.474718   0.000000
     4  H    1.775870   2.474718   3.551739   0.000000
     5  H    1.723518   2.985222   2.474718   2.474718   0.000000
     6  H    1.723518   2.985222   2.474718   2.474718   2.985222
                    6
     6  H    0.000000
 Stoichiometry    H5Sb
 Framework group  D3H[O(Sb),C3(H.H),3C2(H)]
 Deg. of freedom     2
 Full point group                 D3H     NOp  12
 Largest Abelian subgroup         C2V     NOp   4
 Largest concise Abelian subgroup C2V     NOp   4
                         Standard orientation:                         
 ---------------------------------------------------------------------
 Center     Atomic      Atomic             Coordinates (Angstroms)
 Number     Number       Type             X           Y           Z
 ---------------------------------------------------------------------
      1         51           0        0.000000    0.000000    0.000000
      2          1           0        0.000000    1.723518    0.000000
      3          1           0        0.000000    0.000000    1.775870
      4          1           0        0.000000   -0.000000   -1.775870
      5          1           0        1.492611   -0.861759    0.000000
      6          1           0       -1.492611   -0.861759    0.000000
 ---------------------------------------------------------------------
 Rotational constants (GHZ):     56.2702579     46.5897806     46.5897806
 Standard basis: 3-21G (6D, 7F)
 There are    23 symmetry adapted basis functions of A1  symmetry.
 There are     2 symmetry adapted basis functions of A2  symmetry.
 There are     9 symmetry adapted basis functions of B1  symmetry.
 There are     9 symmetry adapted basis functions of B2  symmetry.
 Integral buffers will be    131072 words long.
 Raffenetti 1 integral format.
 Two-electron integral symmetry is turned on.
    43 basis functions,   102 primitive gaussians,    43 cartesian basis functions
    28 alpha electrons       28 beta electrons
       nuclear repulsion energy        79.3340173373 Hartrees.
 NAtoms=    6 NActive=    6 NUniq=    3 SFac= 4.00D+00 NAtFMM=   60 NAOKFM=F Big=F
 One-electron integrals computed using PRISM.
 NBasis=    43 RedAO= T  NBF=    23     2     9     9
 NBsUse=    43 1.00D-06 NBFU=    23     2     9     9
 Initial guess read from the read-write file.
 B after Tr=     0.000000    0.000000    0.000000
         Rot=    1.000000    0.000000    0.000000    0.000000 Ang=   0.00 deg.
 Initial guess orbital symmetries:
       Occupied  (A1') (A1') (E') (E') (A2") (A1') (E') (E') (A2")
                 (E') (E') (A1') (E") (E") (A1') (E') (E') (A2")
                 (E') (E') (A1') (E") (E") (A1') (E') (E') (A2")
                 (A1')
       Virtual   (E') (E') (A1') (A2") (E') (E') (A2") (A1') (A1')
                 (E') (E') (A1') (A2") (A1') (A1')
 Harris functional with IExCor=  205 diagonalized for initial guess.
 ExpMin= 8.66D-02 ExpMax= 1.33D+04 ExpMxC= 1.33D+04 IAcc=2 IRadAn=         4 AccDes= 0.00D+00
 HarFok:  IExCor=  205 AccDes= 0.00D+00 IRadAn=         4 IDoV= 1
 ScaDFX=  1.000000  1.000000  1.000000  1.000000
 Defaulting to unpruned grid for atomic number  51.
 FoFCou: FMM=F IPFlag=           0 FMFlag=      100000 FMFlg1=           0
         NFxFlg=           0 DoJE=T BraDBF=F KetDBF=T FulRan=T
         Omega=  0.000000  0.000000  1.000000  0.000000  0.000000 ICntrl=     500 IOpCl=  0
         NMat0=    1 NMatS0=    1 NMatT0=    0 NMatD0=    1 NMtDS0=    0 NMtDT0=    0
         I1Cent=           4 NGrid=           0.
 Petite list used in FoFCou.
 Requested convergence on RMS density matrix=1.00D-08 within 128 cycles.
 Requested convergence on MAX density matrix=1.00D-06.
 Requested convergence on             energy=1.00D-06.
 No special actions if energy rises.
 Keep R1 ints in memory in canonical form, NReq=1292554.
 SCF Done:  E(RHF) =  -6288.84317346     A.U. after    7 cycles
             Convg  =    0.9358D-08             -V/T =  2.0028
 Calling FoFJK, ICntrl=      2127 FMM=F ISym2X=1 I1Cent= 0 IOpClX= 0 NMat=1 NMatS=1 NMatT=0.
 ***** Axes restored to original set *****
 -------------------------------------------------------------------
 Center     Atomic                   Forces (Hartrees/Bohr)
 Number     Number              X              Y              Z
 -------------------------------------------------------------------
      1       51           0.000000000    0.000000000   -0.000000000
      2        1           0.000033191   -0.000019163    0.000000000
      3        1           0.000000000    0.000000000   -0.000089119
      4        1          -0.000000000    0.000000000    0.000089119
      5        1           0.000000000    0.000038326    0.000000000
      6        1          -0.000033191   -0.000019163    0.000000000
 -------------------------------------------------------------------
 Cartesian Forces:  Max     0.000089119 RMS     0.000033575

 GradGradGradGradGradGradGradGradGradGradGradGradGradGradGradGradGradGrad
 Berny optimization.
 Using GEDIIS/GDIIS optimizer.
 Internal  Forces:  Max     0.000089119 RMS     0.000029702
 Search for a local minimum.
 Step number   3 out of a maximum of   33
 All quantities printed in internal units (Hartrees-Bohrs-Radians)
 Mixed Optimization -- En-DIIS/RFO-DIIS
 Update second derivatives using D2CorX and points    1    2    3
 DE= -1.48D-04 DEPred=-1.39D-04 R= 1.07D+00
 SS=  1.41D+00  RLast= 4.41D-02 DXNew= 8.4853D-01 1.3240D-01
 Trust test= 1.07D+00 RLast= 4.41D-02 DXMaxT set to 5.05D-01
 ITU=  1  1  0
 Use linear search instead of GDIIS.
     Eigenvalues ---    0.02789   0.04263   0.05952   0.06563   0.11941
     Eigenvalues ---    0.12053   0.12576   0.12576   0.12576   0.15656
     Eigenvalues ---    0.16000   0.16000
 RFO step:  Lambda=-4.72088353D-08 EMin= 2.78870648D-02
 Quartic linear search produced a step of -0.01698.
 Iteration  1 RMS(Cart)=  0.00020213 RMS(Int)=  0.00000000
 Iteration  2 RMS(Cart)=  0.00000000 RMS(Int)=  0.00000000
 ClnCor:  largest displacement from symmetrization is 3.92D-12 for atom     4.
 Variable       Old X    -DE/DX   Delta X   Delta X   Delta X     New X
                                 (Linear)    (Quad)   (Total)
    R1        3.25698   0.00004   0.00038  -0.00018   0.00019   3.25717
    R2        3.35591   0.00009   0.00026   0.00038   0.00064   3.35655
    R3        3.35591   0.00009   0.00026   0.00038   0.00064   3.35655
    R4        3.25698   0.00004   0.00038  -0.00018   0.00019   3.25717
    R5        3.25698   0.00004   0.00038  -0.00018   0.00019   3.25717
    A1        1.57080   0.00000   0.00000   0.00000   0.00000   1.57080
    A2        1.57080   0.00000   0.00000   0.00000   0.00000   1.57080
    A3        2.09440  -0.00000   0.00000  -0.00000   0.00000   2.09440
    A4        2.09440   0.00000   0.00000   0.00000   0.00000   2.09440
    A5        1.57080  -0.00000   0.00000  -0.00000   0.00000   1.57080
    A6        1.57080   0.00000   0.00000   0.00000   0.00000   1.57080
    A7        1.57080  -0.00000   0.00000  -0.00000   0.00000   1.57080
    A8        1.57080   0.00000   0.00000   0.00000   0.00000   1.57080
    A9        2.09440   0.00000   0.00000   0.00000   0.00000   2.09440
   A10        3.14159   0.00000   0.00000   0.00000   0.00000   3.14159
   A11        3.14159  -0.00000   0.00000  -0.00000  -0.00000   3.14159
    D1        1.57080   0.00000   0.00000   0.00000   0.00000   1.57080
    D2       -1.57080  -0.00000   0.00000  -0.00000   0.00000  -1.57080
    D3       -1.57080  -0.00000   0.00000  -0.00000   0.00000  -1.57080
    D4        1.57080   0.00000   0.00000   0.00000   0.00000   1.57080
    D5        3.14159   0.00000   0.00000   0.00000   0.00000   3.14159
    D6       -1.57080   0.00000   0.00000   0.00000   0.00000  -1.57080
    D7        1.57080  -0.00000   0.00000  -0.00000   0.00000   1.57080
         Item               Value     Threshold  Converged?
 Maximum Force            0.000089     0.000450     YES
 RMS     Force            0.000030     0.000300     YES
 Maximum Displacement     0.000643     0.001800     YES
 RMS     Displacement     0.000202     0.001200     YES
 Predicted change in Energy=-6.941507D-08
 Optimization completed.
    -- Stationary point found.
                           ----------------------------
                           !   Optimized Parameters   !
                           ! (Angstroms and Degrees)  !
 --------------------------                            --------------------------
 ! Name  Definition              Value          Derivative Info.                !
 --------------------------------------------------------------------------------
 ! R1    R(1,2)                  1.7235         -DE/DX =    0.0                 !
 ! R2    R(1,3)                  1.7759         -DE/DX =    0.0001              !
 ! R3    R(1,4)                  1.7759         -DE/DX =    0.0001              !
 ! R4    R(1,5)                  1.7235         -DE/DX =    0.0                 !
 ! R5    R(1,6)                  1.7235         -DE/DX =    0.0                 !
 ! A1    A(2,1,3)               90.0            -DE/DX =    0.0                 !
 ! A2    A(2,1,4)               90.0            -DE/DX =    0.0                 !
 ! A3    A(2,1,5)              120.0            -DE/DX =    0.0                 !
 ! A4    A(2,1,6)              120.0            -DE/DX =    0.0                 !
 ! A5    A(3,1,5)               90.0            -DE/DX =    0.0                 !
 ! A6    A(3,1,6)               90.0            -DE/DX =    0.0                 !
 ! A7    A(4,1,5)               90.0            -DE/DX =    0.0                 !
 ! A8    A(4,1,6)               90.0            -DE/DX =    0.0                 !
 ! A9    A(5,1,6)              120.0            -DE/DX =    0.0                 !
 ! A10   L(3,1,4,2,-1)         180.0            -DE/DX =    0.0                 !
 ! A11   L(3,1,4,2,-2)         180.0            -DE/DX =    0.0                 !
 ! D1    D(2,1,5,3)             90.0            -DE/DX =    0.0                 !
 ! D2    D(2,1,6,3)            -90.0            -DE/DX =    0.0                 !
 ! D3    D(2,1,5,4)            -90.0            -DE/DX =    0.0                 !
 ! D4    D(2,1,6,4)             90.0            -DE/DX =    0.0                 !
 ! D5    D(2,1,6,5)            180.0            -DE/DX =    0.0                 !
 ! D6    D(3,1,6,5)            -90.0            -DE/DX =    0.0                 !
 ! D7    D(4,1,6,5)             90.0            -DE/DX =    0.0                 !
 --------------------------------------------------------------------------------
 GradGradGradGradGradGradGradGradGradGradGradGradGradGradGradGradGradGrad

                          Input orientation:                          
 ---------------------------------------------------------------------
 Center     Atomic      Atomic             Coordinates (Angstroms)
 Number     Number       Type             X           Y           Z
 ---------------------------------------------------------------------
      1         51           0       -0.000000    0.000000    0.000000
      2          1           0        1.492611   -0.861759   -0.000000
      3          1           0       -0.000000    0.000000   -1.775870
      4          1           0        0.000000    0.000000    1.775870
      5          1           0       -0.000000    1.723518   -0.000000
      6          1           0       -1.492611   -0.861759   -0.000000
 ---------------------------------------------------------------------
                    Distance matrix (angstroms):
                    1          2          3          4          5
     1  Sb   0.000000
     2  H    1.723518   0.000000
     3  H    1.775870   2.474718   0.000000
     4  H    1.775870   2.474718   3.551739   0.000000
     5  H    1.723518   2.985222   2.474718   2.474718   0.000000
     6  H    1.723518   2.985222   2.474718   2.474718   2.985222
                    6
     6  H    0.000000
 Stoichiometry    H5Sb
 Framework group  D3H[O(Sb),C3(H.H),3C2(H)]
 Deg. of freedom     2
 Full point group                 D3H     NOp  12
 Largest Abelian subgroup         C2V     NOp   4
 Largest concise Abelian subgroup C2V     NOp   4
                         Standard orientation:                         
 ---------------------------------------------------------------------
 Center     Atomic      Atomic             Coordinates (Angstroms)
 Number     Number       Type             X           Y           Z
 ---------------------------------------------------------------------
      1         51           0        0.000000    0.000000    0.000000
      2          1           0       -0.000000    1.723518    0.000000
      3          1           0        0.000000    0.000000    1.775870
      4          1           0        0.000000    0.000000   -1.775870
      5          1           0        1.492611   -0.861759    0.000000
      6          1           0       -1.492611   -0.861759    0.000000
 ---------------------------------------------------------------------
 Rotational constants (GHZ):     56.2702579     46.5897806     46.5897806

 **********************************************************************

            Population analysis using the SCF density.

 **********************************************************************

 Orbital symmetries:
       Occupied  (A1') (A1') (E') (E') (A2") (A1') (E') (E') (A2")
                 (E') (E') (A1') (E") (E") (A1') (E') (E') (A2")
                 (E') (E') (A1') (E") (E") (A1') (E') (E') (A2")
                 (A1')
       Virtual   (E') (E') (A1') (A2") (E') (E') (A2") (A1') (A1')
                 (E') (E') (A1') (A2") (A1') (A1')
 The electronic state is 1-A1'.
 Alpha  occ. eigenvalues -- **********-164.03146-152.87831-152.87831-152.87785
 Alpha  occ. eigenvalues --  -33.62146 -28.85899 -28.85899 -28.85721 -20.76443
 Alpha  occ. eigenvalues --  -20.76443 -20.76339 -20.76297 -20.76297  -6.15448
 Alpha  occ. eigenvalues --   -4.46343  -4.46343  -4.45965  -1.79419  -1.79419
 Alpha  occ. eigenvalues --   -1.79397  -1.78803  -1.78803  -0.78416  -0.51894
 Alpha  occ. eigenvalues --   -0.51894  -0.51771  -0.31949
 Alpha virt. eigenvalues --    0.14030   0.14030   0.17211   0.27114   0.38952
 Alpha virt. eigenvalues --    0.38952   0.39390   0.44955   1.24582   1.26973
 Alpha virt. eigenvalues --    1.26973   1.31389   1.40156   3.59414 218.28261
          Condensed to atoms (all electrons):
              1          2          3          4          5          6
     1  Sb  48.442458   0.304957   0.245168   0.245168   0.304957   0.304957
     2  H    0.304957   0.965139  -0.043565  -0.043565   0.003324   0.003324
     3  H    0.245168  -0.043565   1.171375   0.005900  -0.043565  -0.043565
     4  H    0.245168  -0.043565   0.005900   1.171375  -0.043565  -0.043565
     5  H    0.304957   0.003324  -0.043565  -0.043565   0.965139   0.003324
     6  H    0.304957   0.003324  -0.043565  -0.043565   0.003324   0.965139
 Mulliken atomic charges:
              1
     1  Sb   1.152336
     2  H   -0.189614
     3  H   -0.291747
     4  H   -0.291747
     5  H   -0.189614
     6  H   -0.189614
 Sum of Mulliken atomic charges =  -0.00000
 Mulliken charges with hydrogens summed into heavy atoms:
              1
     1  Sb  -0.000000
 Sum of Mulliken charges with hydrogens summed into heavy atoms =  -0.00000
 Electronic spatial extent (au):  <R**2>=            131.9363
 Charge=              0.0000 electrons
 Dipole moment (field-independent basis, Debye):
    X=             -0.0000    Y=              0.0000    Z=             -0.0000  Tot=              0.0000
 Quadrupole moment (field-independent basis, Debye-Ang):
   XX=            -32.5855   YY=            -32.5855   ZZ=            -39.1880
   XY=              0.0000   XZ=              0.0000   YZ=             -0.0000
 Traceless Quadrupole moment (field-independent basis, Debye-Ang):
   XX=              2.2008   YY=              2.2008   ZZ=             -4.4017
   XY=              0.0000   XZ=              0.0000   YZ=             -0.0000
 Octapole moment (field-independent basis, Debye-Ang**2):
  XXX=              0.0000  YYY=             -3.6760  ZZZ=             -0.0000  XYY=             -0.0000
  XXY=              3.6760  XXZ=              0.0000  XZZ=             -0.0000  YZZ=              0.0000
  YYZ=             -0.0000  XYZ=              0.0000
 Hexadecapole moment (field-independent basis, Debye-Ang**3):
 XXXX=            -75.6435 YYYY=            -75.6435 ZZZZ=           -126.7506 XXXY=              0.0000
 XXXZ=              0.0000 YYYX=              0.0000 YYYZ=             -0.0000 ZZZX=              0.0000
 ZZZY=              0.0000 XXYY=            -25.2145 XXZZ=            -26.7874 YYZZ=            -26.7874
 XXYZ=              0.0000 YYXZ=              0.0000 ZZXY=              0.0000
 N-N= 7.933401733729D+01 E-N=-1.509360222894D+04  KE= 6.271595840595D+03
 Symmetry A1   KE= 4.292806451357D+03
 Symmetry A2   KE= 1.695242251489D+02
 Symmetry B1   KE= 9.045733256510D+02
 Symmetry B2   KE= 9.046918384380D+02
 1\1\GINC-SRU01\FOpt\RHF\3-21G\H5Sb1\JAMES\18-Jun-2023\0\\# opt freq=hp
 modes hf/3-21g geom=connectivity\\Title Card Required\\0,1\Sb,0.,0.,0.
 \H,1.4926107941,-0.8617592435,0.\H,0.,0.,-1.7758695711\H,0.,0.,1.77586
 95711\H,-0.0000000002,1.7235184874,0.\H,-1.4926107939,-0.8617592439,0.
 \\Version=AM64L-G09RevC.01\State=1-A1'\HF=-6288.8431735\RMSD=9.358e-09
 \RMSF=3.358e-05\Dipole=0.,0.,0.\Quadrupole=1.6362757,1.6362757,-3.2725
 514,0.,0.,0.\PG=D03H [O(Sb1),C3(H1.H1),3C2(H1)]\\@


 ALMOST ALL THE CHEMICAL PROCESSES WHICH OCCUR IN NATURE,
 WHETHER IN ANIMAL OR VEGETABLE ORGANISMS,
 OR IN THE NON-LIVING SURFACE OF THE EARTH ... 
 TAKE PLACE BETWEEN SUBSTANCES IN SOLUTION

                                    -- W. OSTWALD, 1890
 Job cpu time:  0 days  0 hours  0 minutes  2.8 seconds.
 File lengths (MBytes):  RWF=      5 Int=      0 D2E=      0 Chk=      2 Scr=      1
 Normal termination of Gaussian 09 at Sun Jun 18 20:40:57 2023.
 Link1:  Proceeding to internal job step number  2.
 --------------------------------------------------------------
 #N Geom=AllCheck Guess=TCheck SCRF=Check GenChk RHF/3-21G Freq
 --------------------------------------------------------------
 1/10=4,29=7,30=1,38=1,40=1/1,3;
 2/12=2,40=1/2;
 3/5=5,11=1,14=-4,16=1,25=1,30=1,70=2,71=2,116=1/1,2,3;
 4/5=101/1;
 5/5=2,98=1/2;
 8/6=4,10=90,11=11/1;
 10/13=10,15=4/2;
 11/6=3,8=1,9=11,15=111,16=1/1,2,10;
 10/6=1/2;
 6/7=2,8=2,9=2,10=2,18=1,28=1/1;
 7/8=11,10=1,25=1/1,2,3,16;
 1/10=4,30=1/3;
 99//99;
 Structure from the checkpoint file:  SbH5.chk
 -------------------
 Title Card Required
 -------------------
 Charge =  0 Multiplicity = 1
 Redundant internal coordinates found in file.
 Sb,0,0.,0.,0.
 H,0,1.4926107941,-0.8617592435,0.
 H,0,0.,0.,-1.7758695711
 H,0,0.,0.,1.7758695711
 H,0,-0.0000000002,1.7235184874,0.
 H,0,-1.4926107939,-0.8617592439,0.
 Recover connectivity data from disk.

 GradGradGradGradGradGradGradGradGradGradGradGradGradGradGradGradGradGrad
 Berny optimization.
 Initialization pass.
                           ----------------------------
                           !    Initial Parameters    !
                           ! (Angstroms and Degrees)  !
 --------------------------                            --------------------------
 ! Name  Definition              Value          Derivative Info.                !
 --------------------------------------------------------------------------------
 ! R1    R(1,2)                  1.7235         calculate D2E/DX2 analytically  !
 ! R2    R(1,3)                  1.7759         calculate D2E/DX2 analytically  !
 ! R3    R(1,4)                  1.7759         calculate D2E/DX2 analytically  !
 ! R4    R(1,5)                  1.7235         calculate D2E/DX2 analytically  !
 ! R5    R(1,6)                  1.7235         calculate D2E/DX2 analytically  !
 ! A1    A(2,1,3)               90.0            calculate D2E/DX2 analytically  !
 ! A2    A(2,1,4)               90.0            calculate D2E/DX2 analytically  !
 ! A3    A(2,1,5)              120.0            calculate D2E/DX2 analytically  !
 ! A4    A(2,1,6)              120.0            calculate D2E/DX2 analytically  !
 ! A5    A(3,1,5)               90.0            calculate D2E/DX2 analytically  !
 ! A6    A(3,1,6)               90.0            calculate D2E/DX2 analytically  !
 ! A7    A(4,1,5)               90.0            calculate D2E/DX2 analytically  !
 ! A8    A(4,1,6)               90.0            calculate D2E/DX2 analytically  !
 ! A9    A(5,1,6)              120.0            calculate D2E/DX2 analytically  !
 ! A10   L(3,1,4,2,-1)         180.0            calculate D2E/DX2 analytically  !
 ! A11   L(3,1,4,2,-2)         180.0            calculate D2E/DX2 analytically  !
 ! D1    D(2,1,5,3)             90.0            calculate D2E/DX2 analytically  !
 ! D2    D(2,1,6,3)            -90.0            calculate D2E/DX2 analytically  !
 ! D3    D(2,1,5,4)            -90.0            calculate D2E/DX2 analytically  !
 ! D4    D(2,1,6,4)             90.0            calculate D2E/DX2 analytically  !
 ! D5    D(2,1,6,5)            180.0            calculate D2E/DX2 analytically  !
 ! D6    D(3,1,6,5)            -90.0            calculate D2E/DX2 analytically  !
 ! D7    D(4,1,6,5)             90.0            calculate D2E/DX2 analytically  !
 --------------------------------------------------------------------------------
 Trust Radius=3.00D-01 FncErr=1.00D-07 GrdErr=1.00D-07
 Number of steps in this run=      2 maximum allowed number of steps=      2.
 GradGradGradGradGradGradGradGradGradGradGradGradGradGradGradGradGradGrad

                          Input orientation:                          
 ---------------------------------------------------------------------
 Center     Atomic      Atomic             Coordinates (Angstroms)
 Number     Number       Type             X           Y           Z
 ---------------------------------------------------------------------
      1         51           0       -0.000000    0.000000    0.000000
      2          1           0        1.492611   -0.861759    0.000000
      3          1           0       -0.000000    0.000000   -1.775870
      4          1           0        0.000000    0.000000    1.775870
      5          1           0       -0.000000    1.723518    0.000000
      6          1           0       -1.492611   -0.861759    0.000000
 ---------------------------------------------------------------------
                    Distance matrix (angstroms):
                    1          2          3          4          5
     1  Sb   0.000000
     2  H    1.723518   0.000000
     3  H    1.775870   2.474718   0.000000
     4  H    1.775870   2.474718   3.551739   0.000000
     5  H    1.723518   2.985222   2.474718   2.474718   0.000000
     6  H    1.723518   2.985222   2.474718   2.474718   2.985222
                    6
     6  H    0.000000
 Stoichiometry    H5Sb
 Framework group  D3H[O(Sb),C3(H.H),3C2(H)]
 Deg. of freedom     2
 Full point group                 D3H     NOp  12
 Largest Abelian subgroup         C2V     NOp   4
 Largest concise Abelian subgroup C2V     NOp   4
                         Standard orientation:                         
 ---------------------------------------------------------------------
 Center     Atomic      Atomic             Coordinates (Angstroms)
 Number     Number       Type             X           Y           Z
 ---------------------------------------------------------------------
      1         51           0        0.000000    0.000000    0.000000
      2          1           0       -0.000000    1.723518   -0.000000
      3          1           0        0.000000    0.000000    1.775870
      4          1           0        0.000000    0.000000   -1.775870
      5          1           0        1.492611   -0.861759   -0.000000
      6          1           0       -1.492611   -0.861759   -0.000000
 ---------------------------------------------------------------------
 Rotational constants (GHZ):     56.2702579     46.5897806     46.5897806
 Standard basis: 3-21G (6D, 7F)
 There are    23 symmetry adapted basis functions of A1  symmetry.
 There are     2 symmetry adapted basis functions of A2  symmetry.
 There are     9 symmetry adapted basis functions of B1  symmetry.
 There are     9 symmetry adapted basis functions of B2  symmetry.
 Integral buffers will be    131072 words long.
 Raffenetti 1 integral format.
 Two-electron integral symmetry is turned on.
    43 basis functions,   102 primitive gaussians,    43 cartesian basis functions
    28 alpha electrons       28 beta electrons
       nuclear repulsion energy        79.3340173373 Hartrees.
 NAtoms=    6 NActive=    6 NUniq=    3 SFac= 4.00D+00 NAtFMM=   60 NAOKFM=F Big=F
 One-electron integrals computed using PRISM.
 NBasis=    43 RedAO= T  NBF=    23     2     9     9
 NBsUse=    43 1.00D-06 NBFU=    23     2     9     9
 Initial guess read from the checkpoint file:  SbH5.chk
 B after Tr=    -0.000000    0.000000    0.000000
         Rot=    1.000000   -0.000000    0.000000    0.000000 Ang=   0.00 deg.
 Initial guess orbital symmetries:
       Occupied  (A1') (A1') (E') (E') (A2") (A1') (E') (E') (A2")
                 (E') (E') (A1') (E") (E") (A1') (E') (E') (A2")
                 (E') (E') (A1') (E") (E") (A1') (E') (E') (A2")
                 (A1')
       Virtual   (E') (E') (A1') (A2") (E') (E') (A2") (A1') (A1')
                 (E') (E') (A1') (A2") (A1') (A1')
 Requested convergence on RMS density matrix=1.00D-08 within 128 cycles.
 Requested convergence on MAX density matrix=1.00D-06.
 Requested convergence on             energy=1.00D-06.
 No special actions if energy rises.
 Keep R1 ints in memory in canonical form, NReq=1292554.
 SCF Done:  E(RHF) =  -6288.84317346     A.U. after    1 cycles
             Convg  =    0.7269D-09             -V/T =  2.0028
 Range of M.O.s used for correlation:     1    43
 NBasis=    43 NAE=    28 NBE=    28 NFC=     0 NFV=     0
 NROrb=     43 NOA=    28 NOB=    28 NVA=    15 NVB=    15

 **** Warning!!: The largest alpha MO coefficient is  0.21315601D+02

          Differentiating once with respect to electric field.
                with respect to dipole field.
          Electric field/nuclear overlap derivatives assumed to be zero.
          Keep R1 ints in memory in canonical form, NReq=1268843.
          There are     3 degrees of freedom in the 1st order CPHF.  IDoFFX=0.
      3 vectors produced by pass  0 Test12= 1.40D-14 3.33D-08 XBig12= 1.23D+01 2.91D+00.
 AX will form     3 AO Fock derivatives at one time.
      3 vectors produced by pass  1 Test12= 1.40D-14 3.33D-08 XBig12= 7.51D-02 1.38D-01.
      3 vectors produced by pass  2 Test12= 1.40D-14 3.33D-08 XBig12= 7.43D-04 1.56D-02.
      3 vectors produced by pass  3 Test12= 1.40D-14 3.33D-08 XBig12= 5.69D-06 1.21D-03.
      3 vectors produced by pass  4 Test12= 1.40D-14 3.33D-08 XBig12= 5.79D-08 9.79D-05.
      3 vectors produced by pass  5 Test12= 1.40D-14 3.33D-08 XBig12= 1.52D-10 5.39D-06.
      3 vectors produced by pass  6 Test12= 1.40D-14 3.33D-08 XBig12= 1.11D-12 3.67D-07.
 Inverted reduced A of dimension    21 with in-core refinement.
 End of Minotr Frequency-dependent properties file   721 does not exist.
 End of Minotr Frequency-dependent properties file   722 does not exist.
 Symmetrizing basis deriv contribution to polar:
 IMax=3 JMax=2 DiffMx= 0.00D+00
 G2DrvN: will do     7 centers at a time, making    1 passes doing MaxLOS=2.
 Calling FoFCou, ICntrl=  3107 FMM=F I1Cent=   0 AccDes= 0.00D+00.
 FoFDir/FoFCou used for L=0 through L=2.
 End of G2Drv Frequency-dependent properties file   721 does not exist.
 End of G2Drv Frequency-dependent properties file   722 does not exist.
          IDoAtm=111111
          Differentiating once with respect to electric field.
                with respect to dipole field.
          Differentiating once with respect to nuclear coordinates.
          Keep R1 ints in memory in canonical form, NReq=1268969.
          There are    12 degrees of freedom in the 1st order CPHF.  IDoFFX=4.
 Will reuse    3 saved solutions.
      9 vectors produced by pass  0 Test12= 3.50D-15 8.33D-09 XBig12= 2.95D-02 1.05D-01.
 AX will form     9 AO Fock derivatives at one time.
      9 vectors produced by pass  1 Test12= 3.50D-15 8.33D-09 XBig12= 6.64D-04 1.54D-02.
      9 vectors produced by pass  2 Test12= 3.50D-15 8.33D-09 XBig12= 1.79D-06 7.13D-04.
      9 vectors produced by pass  3 Test12= 3.50D-15 8.33D-09 XBig12= 1.15D-08 6.41D-05.
      9 vectors produced by pass  4 Test12= 3.50D-15 8.33D-09 XBig12= 6.69D-11 3.83D-06.
      9 vectors produced by pass  5 Test12= 3.50D-15 8.33D-09 XBig12= 1.55D-13 1.73D-07.
      1 vectors produced by pass  6 Test12= 3.50D-15 8.33D-09 XBig12= 5.25D-16 9.72D-09.
 Inverted reduced A of dimension    55 with in-core refinement.
 Isotropic polarizability for W=    0.000000       32.53 Bohr**3.
 End of Minotr Frequency-dependent properties file   721 does not exist.
 End of Minotr Frequency-dependent properties file   722 does not exist.

 **********************************************************************

            Population analysis using the SCF density.

 **********************************************************************

 Orbital symmetries:
       Occupied  (A1') (A1') (E') (E') (A2") (A1') (E') (E') (A2")
                 (E') (E') (A1') (E") (E") (A1') (E') (E') (A2")
                 (E') (E') (A1') (E") (E") (A1') (E') (E') (A2")
                 (A1')
       Virtual   (E') (E') (A1') (A2") (E') (E') (A2") (A1') (A1')
                 (E') (E') (A1') (A2") (A1') (A1')
 The electronic state is 1-A1'.
 Alpha  occ. eigenvalues -- **********-164.03146-152.87831-152.87831-152.87785
 Alpha  occ. eigenvalues --  -33.62146 -28.85899 -28.85899 -28.85721 -20.76443
 Alpha  occ. eigenvalues --  -20.76443 -20.76339 -20.76297 -20.76297  -6.15448
 Alpha  occ. eigenvalues --   -4.46343  -4.46343  -4.45965  -1.79419  -1.79419
 Alpha  occ. eigenvalues --   -1.79397  -1.78803  -1.78803  -0.78416  -0.51894
 Alpha  occ. eigenvalues --   -0.51894  -0.51771  -0.31949
 Alpha virt. eigenvalues --    0.14030   0.14030   0.17211   0.27114   0.38952
 Alpha virt. eigenvalues --    0.38952   0.39390   0.44955   1.24582   1.26973
 Alpha virt. eigenvalues --    1.26973   1.31389   1.40156   3.59414 218.28261
          Condensed to atoms (all electrons):
              1          2          3          4          5          6
     1  Sb  48.442458   0.304957   0.245168   0.245168   0.304957   0.304957
     2  H    0.304957   0.965139  -0.043565  -0.043565   0.003324   0.003324
     3  H    0.245168  -0.043565   1.171375   0.005900  -0.043565  -0.043565
     4  H    0.245168  -0.043565   0.005900   1.171375  -0.043565  -0.043565
     5  H    0.304957   0.003324  -0.043565  -0.043565   0.965139   0.003324
     6  H    0.304957   0.003324  -0.043565  -0.043565   0.003324   0.965139
 Mulliken atomic charges:
              1
     1  Sb   1.152336
     2  H   -0.189614
     3  H   -0.291747
     4  H   -0.291747
     5  H   -0.189614
     6  H   -0.189614
 Sum of Mulliken atomic charges =   0.00000
 Mulliken charges with hydrogens summed into heavy atoms:
              1
     1  Sb   0.000000
 Sum of Mulliken charges with hydrogens summed into heavy atoms =   0.00000
 APT atomic charges:
              1
     1  Sb   2.046624
     2  H   -0.327013
     3  H   -0.532792
     4  H   -0.532792
     5  H   -0.327013
     6  H   -0.327013
 Sum of APT charges=   0.00000
 APT Atomic charges with hydrogens summed into heavy atoms:
              1
     1  Sb   0.000000
     2  H    0.000000
     3  H    0.000000
     4  H    0.000000
     5  H    0.000000
     6  H    0.000000
 Sum of APT charges=   0.00000
 Electronic spatial extent (au):  <R**2>=            131.9363
 Charge=              0.0000 electrons
 Dipole moment (field-independent basis, Debye):
    X=              0.0000    Y=              0.0000    Z=             -0.0000  Tot=              0.0000
 Quadrupole moment (field-independent basis, Debye-Ang):
   XX=            -32.5855   YY=            -32.5855   ZZ=            -39.1880
   XY=              0.0000   XZ=              0.0000   YZ=              0.0000
 Traceless Quadrupole moment (field-independent basis, Debye-Ang):
   XX=              2.2008   YY=              2.2008   ZZ=             -4.4017
   XY=              0.0000   XZ=              0.0000   YZ=              0.0000
 Octapole moment (field-independent basis, Debye-Ang**2):
  XXX=              0.0000  YYY=             -3.6760  ZZZ=              0.0000  XYY=             -0.0000
  XXY=              3.6760  XXZ=             -0.0000  XZZ=             -0.0000  YZZ=             -0.0000
  YYZ=             -0.0000  XYZ=             -0.0000
 Hexadecapole moment (field-independent basis, Debye-Ang**3):
 XXXX=            -75.6435 YYYY=            -75.6435 ZZZZ=           -126.7506 XXXY=              0.0000
 XXXZ=              0.0000 YYYX=              0.0000 YYYZ=              0.0000 ZZZX=              0.0000
 ZZZY=             -0.0000 XXYY=            -25.2145 XXZZ=            -26.7874 YYZZ=            -26.7874
 XXYZ=              0.0000 YYXZ=              0.0000 ZZXY=              0.0000
 N-N= 7.933401733729D+01 E-N=-1.509360222885D+04  KE= 6.271595840556D+03
 Symmetry A1   KE= 4.292806451311D+03
 Symmetry A2   KE= 1.695242251489D+02
 Symmetry B1   KE= 9.045733256745D+02
 Symmetry B2   KE= 9.046918384222D+02
  Exact polarizability:  30.435  -0.000  30.435  -0.000  -0.000  36.735
 Approx polarizability:  25.522  -0.000  25.522  -0.000   0.000  31.190
 Calling FoFJK, ICntrl=    100127 FMM=F ISym2X=1 I1Cent= 0 IOpClX= 0 NMat=1 NMatS=1 NMatT=0.
 Full mass-weighted force constant matrix:
 Low frequencies ---  -23.1475  -23.1468  -17.5661    0.0273    0.0316    0.0316
 Low frequencies ---  494.6050  494.6051  928.3020
 Harmonic frequencies (cm**-1), IR intensities (KM/Mole), Raman scattering
 activities (A**4/AMU), depolarization ratios for plane and unpolarized
 incident light, reduced masses (AMU), force constants (mDyne/A),
 and normal coordinates:
                           1         2         3         4         5
                          E'        E'        E'        E'        A2"
       Frequencies ---   494.6050  494.6051  928.3020  928.3020  981.6764
    Reduced masses ---     1.0104    1.0104    1.0355    1.0355    1.0378
   Force constants ---     0.1456    0.1456    0.5257    0.5257    0.5892
    IR Intensities ---     5.0645    5.0645  510.1327  510.1326  673.3045
  Raman Activities ---    31.3587   31.3587    0.3275    0.3275    0.0000
    Depol. (Plane) ---     0.7500    0.7500    0.7500    0.7500    0.0000
    Depol. (Unpol) ---     0.8571    0.8571    0.8571    0.8571    0.0000
 Coord Atom Element:
   1     1    51          0.00000  -0.00467   0.01519  -0.00000   0.00000
   2     1    51          0.00467   0.00000   0.00000   0.01519   0.00000
   3     1    51          0.00000  -0.00000  -0.00000  -0.00000   0.01581
   1     2     1         -0.00004   0.76088  -0.28810   0.00000  -0.00000
   2     2     1          0.04996   0.00000  -0.00000  -0.04619   0.00000
   3     2     1          0.00000   0.00000   0.00000   0.00000  -0.57264
   1     3     1          0.00001  -0.25281  -0.66033   0.00001  -0.00000
   2     3     1          0.25281   0.00001  -0.00001  -0.66033  -0.00000
   3     3     1          0.00000   0.00000   0.00000   0.00000  -0.08940
   1     4     1          0.00001  -0.25281  -0.66033   0.00001  -0.00000
   2     4     1          0.25281   0.00001  -0.00001  -0.66033   0.00000
   3     4     1         -0.00000  -0.00000   0.00000  -0.00000  -0.08940
   1     5     1         -0.35111   0.15273  -0.10667  -0.10475   0.00000
   2     5     1         -0.55819   0.35107  -0.10475  -0.22762  -0.00000
   3     5     1         -0.00000  -0.00000   0.00000  -0.00000  -0.57264
   1     6     1          0.35110   0.15277  -0.10667   0.10475  -0.00000
   2     6     1         -0.55815  -0.35114   0.10475  -0.22763  -0.00000
   3     6     1         -0.00000   0.00000  -0.00000  -0.00000  -0.57264
                           6         7         8         9        10
                          E"        E"        A1'       A2"       E'
       Frequencies ---  1163.5992 1163.5992 1697.8130 1767.1223 2006.2552
    Reduced masses ---     1.0078    1.0078    1.0078    1.0188    1.0184
   Force constants ---     0.8040    0.8040    1.7117    1.8745    2.4151
    IR Intensities ---     0.0000    0.0000    0.0000  721.9694  217.8509
  Raman Activities ---   178.2478  178.2479  296.4354    0.0000   95.5623
    Depol. (Plane) ---     0.7500    0.7500    0.6859    0.3515    0.7500
    Depol. (Unpol) ---     0.8571    0.8571    0.8137    0.5201    0.8571
 Coord Atom Element:
   1     1    51          0.00000  -0.00000   0.00000  -0.00000   0.00000
   2     1    51         -0.00000  -0.00000  -0.00000   0.00000  -0.00939
   3     1    51         -0.00000   0.00000  -0.00000   0.00958   0.00000
   1     2     1         -0.00000   0.00000  -0.00000   0.00000  -0.00000
   2     2     1         -0.00000  -0.00000  -0.30115  -0.00000   0.81299
   3     2     1          0.00000   0.62504  -0.00000   0.08340   0.00000
   1     3     1         -0.45496   0.00000   0.00000  -0.00000   0.00001
   2     3     1          0.00000   0.45496  -0.00000   0.00000  -0.06250
   3     3     1          0.00000   0.00000   0.60329  -0.69966   0.00000
   1     4     1          0.45496  -0.00000   0.00000  -0.00000   0.00001
   2     4     1         -0.00000  -0.45496  -0.00000  -0.00000  -0.06250
   3     4     1         -0.00000   0.00000  -0.60329  -0.69966  -0.00000
   1     5     1         -0.00000   0.00000  -0.26081  -0.00000  -0.34297
   2     5     1         -0.00000   0.00000   0.15058   0.00000   0.21910
   3     5     1         -0.54130  -0.31252  -0.00000   0.08340  -0.00000
   1     6     1         -0.00000  -0.00000   0.26081   0.00000   0.34284
   2     6     1          0.00000   0.00000   0.15058   0.00000   0.21902
   3     6     1          0.54130  -0.31252  -0.00000   0.08340  -0.00000
                          11        12
                          E'        A1'
       Frequencies ---  2006.2552 2048.0956
    Reduced masses ---     1.0184    1.0078
   Force constants ---     2.4151    2.4908
    IR Intensities ---   217.8509    0.0000
  Raman Activities ---    95.5623  463.3501
    Depol. (Plane) ---     0.7500    0.0001
    Depol. (Unpol) ---     0.8571    0.0002
 Coord Atom Element:
   1     1    51          0.00939   0.00000
   2     1    51          0.00000  -0.00000
   3     1    51          0.00000  -0.00000
   1     2     1         -0.02108  -0.00000
   2     2     1         -0.00009   0.49259
   3     2     1         -0.00000  -0.00000
   1     3     1          0.06250   0.00000
   2     3     1          0.00001   0.00000
   3     3     1         -0.00000   0.36884
   1     4     1          0.06250   0.00000
   2     4     1          0.00001   0.00000
   3     4     1          0.00000  -0.36884
   1     5     1         -0.61498   0.42659
   2     5     1          0.34288  -0.24629
   3     5     1         -0.00000  -0.00000
   1     6     1         -0.61505  -0.42659
   2     6     1         -0.34293  -0.24629
   3     6     1          0.00000  -0.00000
 Harmonic frequencies (cm**-1), IR intensities (KM/Mole), Raman scattering
 activities (A**4/AMU), depolarization ratios for plane and unpolarized
 incident light, reduced masses (AMU), force constants (mDyne/A),
 and normal coordinates:
                     1                      2                      3
                    E'                     E'                     E'
 Frequencies --   494.6050               494.6051               928.3020
 Red. masses --     1.0104                 1.0104                 1.0355
 Frc consts  --     0.1456                 0.1456                 0.5257
 IR Inten    --     5.0645                 5.0645               510.1327
 Raman Activ --    31.3587                31.3587                 0.3275
 Depolar (P) --     0.7500                 0.7500                 0.7500
 Depolar (U) --     0.8571                 0.8571                 0.8571
  Atom  AN      X      Y      Z        X      Y      Z        X      Y      Z
     1  51     0.00   0.00   0.00    -0.00   0.00  -0.00     0.02   0.00  -0.00
     2   1    -0.00   0.05   0.00     0.76   0.00   0.00    -0.29  -0.00   0.00
     3   1     0.00   0.25   0.00    -0.25   0.00   0.00    -0.66  -0.00   0.00
     4   1     0.00   0.25  -0.00    -0.25   0.00  -0.00    -0.66  -0.00   0.00
     5   1    -0.35  -0.56  -0.00     0.15   0.35  -0.00    -0.11  -0.10   0.00
     6   1     0.35  -0.56  -0.00     0.15  -0.35   0.00    -0.11   0.10  -0.00
                     4                      5                      6
                    E'                     A2"                    E"
 Frequencies --   928.3020               981.6764              1163.5992
 Red. masses --     1.0355                 1.0378                 1.0078
 Frc consts  --     0.5257                 0.5892                 0.8040
 IR Inten    --   510.1326               673.3045                 0.0000
 Raman Activ --     0.3275                 0.0000               178.2478
 Depolar (P) --     0.7500                 0.0000                 0.7500
 Depolar (U) --     0.8571                 0.0000                 0.8571
  Atom  AN      X      Y      Z        X      Y      Z        X      Y      Z
     1  51    -0.00   0.02  -0.00     0.00   0.00   0.02     0.00  -0.00  -0.00
     2   1     0.00  -0.05   0.00    -0.00   0.00  -0.57    -0.00  -0.00   0.00
     3   1     0.00  -0.66   0.00    -0.00  -0.00  -0.09    -0.45   0.00   0.00
     4   1     0.00  -0.66  -0.00    -0.00   0.00  -0.09     0.45  -0.00  -0.00
     5   1    -0.10  -0.23  -0.00     0.00  -0.00  -0.57    -0.00  -0.00  -0.54
     6   1     0.10  -0.23  -0.00    -0.00  -0.00  -0.57    -0.00   0.00   0.54
                     7                      8                      9
                    E"                     A1'                    A2"
 Frequencies --  1163.5992              1697.8130              1767.1223
 Red. masses --     1.0078                 1.0078                 1.0188
 Frc consts  --     0.8040                 1.7117                 1.8745
 IR Inten    --     0.0000                 0.0000               721.9694
 Raman Activ --   178.2479               296.4354                 0.0000
 Depolar (P) --     0.7500                 0.6859                 0.3515
 Depolar (U) --     0.8571                 0.8137                 0.5201
  Atom  AN      X      Y      Z        X      Y      Z        X      Y      Z
     1  51    -0.00  -0.00   0.00     0.00  -0.00  -0.00    -0.00   0.00   0.01
     2   1     0.00  -0.00   0.63    -0.00  -0.30  -0.00     0.00  -0.00   0.08
     3   1     0.00   0.45   0.00     0.00  -0.00   0.60    -0.00   0.00  -0.70
     4   1    -0.00  -0.45   0.00     0.00  -0.00  -0.60    -0.00  -0.00  -0.70
     5   1     0.00   0.00  -0.31    -0.26   0.15  -0.00    -0.00   0.00   0.08
     6   1    -0.00   0.00  -0.31     0.26   0.15  -0.00     0.00   0.00   0.08
                    10                     11                     12
                    E'                     E'                     A1'
 Frequencies --  2006.2552              2006.2552              2048.0956
 Red. masses --     1.0184                 1.0184                 1.0078
 Frc consts  --     2.4151                 2.4151                 2.4908
 IR Inten    --   217.8509               217.8509                 0.0000
 Raman Activ --    95.5623                95.5623               463.3501
 Depolar (P) --     0.7500                 0.7500                 0.0001
 Depolar (U) --     0.8571                 0.8571                 0.0002
  Atom  AN      X      Y      Z        X      Y      Z        X      Y      Z
     1  51     0.00  -0.01   0.00     0.01   0.00   0.00     0.00  -0.00  -0.00
     2   1    -0.00   0.81   0.00    -0.02  -0.00  -0.00    -0.00   0.49  -0.00
     3   1     0.00  -0.06   0.00     0.06   0.00  -0.00     0.00   0.00   0.37
     4   1     0.00  -0.06  -0.00     0.06   0.00   0.00     0.00   0.00  -0.37
     5   1    -0.34   0.22  -0.00    -0.61   0.34  -0.00     0.43  -0.25  -0.00
     6   1     0.34   0.22  -0.00    -0.62  -0.34   0.00    -0.43  -0.25  -0.00

 -------------------
 - Thermochemistry -
 -------------------
 Temperature   298.150 Kelvin.  Pressure   1.00000 Atm.
 Atom     1 has atomic number 51 and mass 120.90380
 Atom     2 has atomic number  1 and mass   1.00783
 Atom     3 has atomic number  1 and mass   1.00783
 Atom     4 has atomic number  1 and mass   1.00783
 Atom     5 has atomic number  1 and mass   1.00783
 Atom     6 has atomic number  1 and mass   1.00783
 Molecular mass:   125.94293 amu.
 Principal axes and moments of inertia in atomic units:
                           1         2         3
     Eigenvalues --    32.07274  38.73685  38.73685
           X            0.00000   0.43319   0.90130
           Y            0.00000   0.90130  -0.43319
           Z            1.00000   0.00000   0.00000
 This molecule is a prolate symmetric top.
 Rotational symmetry number  6.
 Rotational temperatures (Kelvin)      2.70054     2.23595     2.23595
 Rotational constants (GHZ):          56.27026    46.58978    46.58978
 Zero-point vibrational energy      93788.6 (Joules/Mol)
                                   22.41601 (Kcal/Mol)
 Warning -- explicit consideration of   2 degrees of freedom as
           vibrations may cause significant error
 Vibrational temperatures:    711.63   711.63  1335.62  1335.62  1412.41
          (Kelvin)           1674.16  1674.16  2442.77  2542.49  2886.55
                             2886.55  2946.75
 
 Zero-point correction=                           0.035722 (Hartree/Particle)
 Thermal correction to Energy=                    0.039192
 Thermal correction to Enthalpy=                  0.040136
 Thermal correction to Gibbs Free Energy=         0.012976
 Sum of electronic and zero-point Energies=          -6288.807451
 Sum of electronic and thermal Energies=             -6288.803982
 Sum of electronic and thermal Enthalpies=           -6288.803038
 Sum of electronic and thermal Free Energies=        -6288.830198
 
                     E (Thermal)             CV                S
                      KCal/Mol        Cal/Mol-Kelvin    Cal/Mol-Kelvin
 Total                   24.593             10.367             57.163
 Electronic               0.000              0.000              0.000
 Translational            0.889              2.981             40.406
 Rotational               0.889              2.981             14.955
 Vibrational             22.816              4.405              1.802
 Vibration     1          0.850              1.262              0.672
 Vibration     2          0.850              1.262              0.672
                       Q            Log10(Q)             Ln(Q)
 Total Bot       0.107523D-05         -5.968497        -13.742973
 Total V=0       0.290092D+11         10.462536         24.090879
 Vib (Bot)       0.467627D-16        -16.330101        -37.601446
 Vib (Bot)    1  0.333879D+00         -0.476410         -1.096976
 Vib (Bot)    2  0.333879D+00         -0.476410         -1.096976
 Vib (V=0)       0.126163D+01          0.100932          0.232405
 Vib (V=0)    1  0.110123D+01          0.041877          0.096426
 Vib (V=0)    2  0.110123D+01          0.041877          0.096426
 Electronic      0.100000D+01          0.000000          0.000000
 Translational   0.555541D+08          7.744716         17.832867
 Rotational      0.413892D+03          2.616887          6.025606
 ***** Axes restored to original set *****
 -------------------------------------------------------------------
 Center     Atomic                   Forces (Hartrees/Bohr)
 Number     Number              X              Y              Z
 -------------------------------------------------------------------
      1       51           0.000000000    0.000000000   -0.000000000
      2        1           0.000033191   -0.000019163    0.000000000
      3        1           0.000000000   -0.000000000   -0.000089120
      4        1           0.000000000   -0.000000000    0.000089120
      5        1           0.000000000    0.000038325    0.000000000
      6        1          -0.000033191   -0.000019163    0.000000000
 -------------------------------------------------------------------
 Cartesian Forces:  Max     0.000089120 RMS     0.000033575

 GradGradGradGradGradGradGradGradGradGradGradGradGradGradGradGradGradGrad
 Berny optimization.
 Internal  Forces:  Max     0.000089120 RMS     0.000029702
 Search for a local minimum.
 Step number   1 out of a maximum of    2
 All quantities printed in internal units (Hartrees-Bohrs-Radians)
 Second derivative matrix not updated -- analytic derivatives used.
 ITU=  0
     Eigenvalues ---    0.02874   0.03056   0.03139   0.06470   0.06965
     Eigenvalues ---    0.08927   0.10994   0.11506   0.12223   0.15359
     Eigenvalues ---    0.15570   0.15998
 Angle between quadratic step and forces=  10.14 degrees.
 Linear search not attempted -- first point.
 Iteration  1 RMS(Cart)=  0.00021109 RMS(Int)=  0.00000000
 Iteration  2 RMS(Cart)=  0.00000000 RMS(Int)=  0.00000000
 ClnCor:  largest displacement from symmetrization is 1.20D-10 for atom     6.
 Variable       Old X    -DE/DX   Delta X   Delta X   Delta X     New X
                                 (Linear)    (Quad)   (Total)
    R1        3.25698   0.00004   0.00000   0.00018   0.00018   3.25716
    R2        3.35591   0.00009   0.00000   0.00068   0.00068   3.35659
    R3        3.35591   0.00009   0.00000   0.00068   0.00068   3.35659
    R4        3.25698   0.00004   0.00000   0.00018   0.00018   3.25716
    R5        3.25698   0.00004   0.00000   0.00018   0.00018   3.25716
    A1        1.57080  -0.00000   0.00000   0.00000   0.00000   1.57080
    A2        1.57080  -0.00000   0.00000  -0.00000   0.00000   1.57080
    A3        2.09440  -0.00000   0.00000   0.00000   0.00000   2.09440
    A4        2.09440   0.00000   0.00000   0.00000   0.00000   2.09440
    A5        1.57080   0.00000   0.00000   0.00000   0.00000   1.57080
    A6        1.57080  -0.00000   0.00000   0.00000   0.00000   1.57080
    A7        1.57080   0.00000   0.00000  -0.00000   0.00000   1.57080
    A8        1.57080  -0.00000   0.00000  -0.00000   0.00000   1.57080
    A9        2.09440   0.00000   0.00000  -0.00000   0.00000   2.09440
   A10        3.14159  -0.00000   0.00000  -0.00000   0.00000   3.14159
   A11        3.14159   0.00000   0.00000   0.00000   0.00000   3.14159
    D1        1.57080  -0.00000   0.00000   0.00000   0.00000   1.57080
    D2       -1.57080   0.00000   0.00000  -0.00000   0.00000  -1.57080
    D3       -1.57080  -0.00000   0.00000   0.00000   0.00000  -1.57080
    D4        1.57080  -0.00000   0.00000  -0.00000   0.00000   1.57080
    D5        3.14159   0.00000   0.00000  -0.00000   0.00000   3.14159
    D6       -1.57080  -0.00000   0.00000  -0.00000   0.00000  -1.57080
    D7        1.57080   0.00000   0.00000  -0.00000   0.00000   1.57080
         Item               Value     Threshold  Converged?
 Maximum Force            0.000089     0.000450     YES
 RMS     Force            0.000030     0.000300     YES
 Maximum Displacement     0.000682     0.001800     YES
 RMS     Displacement     0.000211     0.001200     YES
 Predicted change in Energy=-7.097806D-08
 Optimization completed.
    -- Stationary point found.
                           ----------------------------
                           !   Optimized Parameters   !
                           ! (Angstroms and Degrees)  !
 --------------------------                            --------------------------
 ! Name  Definition              Value          Derivative Info.                !
 --------------------------------------------------------------------------------
 ! R1    R(1,2)                  1.7235         -DE/DX =    0.0                 !
 ! R2    R(1,3)                  1.7759         -DE/DX =    0.0001              !
 ! R3    R(1,4)                  1.7759         -DE/DX =    0.0001              !
 ! R4    R(1,5)                  1.7235         -DE/DX =    0.0                 !
 ! R5    R(1,6)                  1.7235         -DE/DX =    0.0                 !
 ! A1    A(2,1,3)               90.0            -DE/DX =    0.0                 !
 ! A2    A(2,1,4)               90.0            -DE/DX =    0.0                 !
 ! A3    A(2,1,5)              120.0            -DE/DX =    0.0                 !
 ! A4    A(2,1,6)              120.0            -DE/DX =    0.0                 !
 ! A5    A(3,1,5)               90.0            -DE/DX =    0.0                 !
 ! A6    A(3,1,6)               90.0            -DE/DX =    0.0                 !
 ! A7    A(4,1,5)               90.0            -DE/DX =    0.0                 !
 ! A8    A(4,1,6)               90.0            -DE/DX =    0.0                 !
 ! A9    A(5,1,6)              120.0            -DE/DX =    0.0                 !
 ! A10   L(3,1,4,2,-1)         180.0            -DE/DX =    0.0                 !
 ! A11   L(3,1,4,2,-2)         180.0            -DE/DX =    0.0                 !
 ! D1    D(2,1,5,3)             90.0            -DE/DX =    0.0                 !
 ! D2    D(2,1,6,3)            -90.0            -DE/DX =    0.0                 !
 ! D3    D(2,1,5,4)            -90.0            -DE/DX =    0.0                 !
 ! D4    D(2,1,6,4)             90.0            -DE/DX =    0.0                 !
 ! D5    D(2,1,6,5)            180.0            -DE/DX =    0.0                 !
 ! D6    D(3,1,6,5)            -90.0            -DE/DX =    0.0                 !
 ! D7    D(4,1,6,5)             90.0            -DE/DX =    0.0                 !
 --------------------------------------------------------------------------------
 GradGradGradGradGradGradGradGradGradGradGradGradGradGradGradGradGradGrad

 1\1\GINC-SRU01\Freq\RHF\3-21G\H5Sb1\JAMES\18-Jun-2023\0\\#N Geom=AllCh
 eck Guess=TCheck SCRF=Check GenChk RHF/3-21G Freq\\Title Card Required
 \\0,1\Sb,0.,0.,0.\H,1.4926107941,-0.8617592435,0.\H,0.,0.,-1.775869571
 1\H,0.,0.,1.7758695711\H,-0.0000000002,1.7235184874,0.\H,-1.4926107939
 ,-0.8617592439,0.\\Version=AM64L-G09RevC.01\State=1-A1'\HF=-6288.84317
 35\RMSD=7.269e-10\RMSF=3.358e-05\ZeroPoint=0.0357222\Thermal=0.0391917
 \Dipole=0.,0.,0.\DipoleDeriv=1.7965296,0.,0.,0.,1.7965296,0.,0.,0.,2.5
 468138,-0.3557313,0.1122109,0.,0.1122109,-0.2261613,0.,0.,0.,-0.399147
 6,-0.4618454,0.,0.,0.,-0.4618454,0.,0.,0.,-0.6746855,-0.4618454,0.,0.,
 0.,-0.4618454,0.,0.,0.,-0.6746855,-0.1613763,0.,0.,0.,-0.4205162,0.,0.
 ,0.,-0.3991476,-0.3557313,-0.1122109,0.,-0.1122109,-0.2261613,0.,0.,0.
 ,-0.3991476\Polar=30.4347633,0.,30.4347633,0.,0.,36.7349072\PolarDeriv
 =0.,5.3089248,0.,0.0000002,0.0000003,0.0000001,5.3089247,0.,-5.3089247
 ,0.0000003,0.0000006,0.,0.,0.,0.,0.,0.,0.,10.601608,-3.9634904,2.21923
 85,-0.0000002,-0.0000004,0.2784284,-2.8249867,4.1911847,-4.5771324,-0.
 0000004,-0.0000007,-0.1607507,0.,0.,0.,5.1913706,-2.9972392,0.,0.,-0.3
 388995,0.,-5.3019896,0.0000001,0.,-0.3388995,0.,0.3388996,0.0000001,-5
 .3019894,0.,-0.9799205,0.,-0.9799206,0.,0.,-14.5169001,0.,-0.3388995,0
 .,5.3019896,-0.0000001,0.,-0.3388995,0.,0.3388996,-0.0000001,5.3019894
 ,0.,0.9799205,0.,0.9799206,0.,0.,14.5169001,0.,3.2958545,0.,-0.0000009
 ,0.,0.,1.0188471,0.,13.7853912,0.,0.,0.3215014,0.,0.,0.,0.,5.9944784,0
 .,-10.601608,-3.9634904,-2.2192385,-0.0000002,0.0000004,-0.2784284,-2.
 8249867,-4.1911847,-4.5771324,0.0000004,-0.0000007,-0.1607507,0.,0.,0.
 ,-5.1913706,-2.9972392,0.\HyperPolar=0.,19.4649183,0.,-19.4649183,0.,0
 .,0.,0.,0.,0.\PG=D03H [O(Sb1),C3(H1.H1),3C2(H1)]\NImag=0\\0.30178321,0
 .,0.30178321,0.,0.,0.28398066,-0.11223086,0.05072653,0.,0.11399733,0.0
 5072653,-0.05365691,0.,-0.06113615,0.04340338,0.,0.,-0.02747781,0.,0.,
 0.03269766,-0.02647578,0.,0.,-0.00394617,0.00464274,-0.01272184,0.0258
 1578,0.,-0.02647578,0.,0.00464274,0.00141481,0.00734496,0.,0.02581578,
 0.,0.,-0.10077362,-0.00787403,0.00454607,-0.00504712,0.,0.,0.11973552,
 -0.02647578,0.,0.,-0.00394617,0.00464274,0.01272184,0.00445703,0.,0.,0
 .02581578,0.,-0.02647578,0.,0.00464274,0.00141481,-0.00734496,0.,0.004
 45703,0.,0.,0.02581578,0.,0.,-0.10077362,0.00787403,-0.00454607,-0.005
 04711,0.,0.,-0.00382056,0.,0.,0.11973552,-0.02436993,0.,0.,0.00403646,
 0.00235658,0.,0.00409530,0.,0.,0.00409530,0.,0.,0.00810641,0.,-0.14151
 784,0.,-0.00010833,0.00273843,0.,0.,-0.00662666,-0.00909214,0.,-0.0066
 2666,0.00909214,0.,0.14929430,0.,0.,-0.02747781,0.,0.,0.00243719,0.,-0
 .01468992,-0.00504711,0.,0.01468992,-0.00504711,0.,0.,0.03269766,-0.11
 223086,-0.05072654,0.,0.00208941,-0.00123246,0.,-0.00394617,-0.0046427
 5,0.00787403,-0.00394617,-0.00464274,-0.00787403,0.00403646,0.00010833
 ,0.,0.11399733,-0.05072654,-0.05365691,0.,0.00123246,0.00468547,0.,-0.
 00464275,0.00141481,0.00454607,-0.00464275,0.00141481,-0.00454607,-0.0
 0235658,0.00273843,0.,0.06113615,0.04340338,0.,0.,-0.02747781,0.,0.,0.
 00243719,0.01272184,0.00734496,-0.00504711,-0.01272184,-0.00734496,-0.
 00504711,0.,0.,0.00243719,0.,0.,0.03269766\\0.,0.,0.,-0.00003319,0.000
 01916,0.,0.,0.,0.00008912,0.,0.,-0.00008912,0.,-0.00003833,0.,0.000033
 19,0.00001916,0.\\\@


 I am not a vegetarian because I love animals;
 I am a vegetarian because I hate plants.
                               -- A. Whitney Brown
 Job cpu time:  0 days  0 hours  0 minutes  2.1 seconds.
 File lengths (MBytes):  RWF=      5 Int=      0 D2E=      0 Chk=      2 Scr=      1
 Normal termination of Gaussian 09 at Sun Jun 18 20:40:59 2023.
