 Entering Gaussian System, Link 0=g16
 Input=SeCl2.gjf
 Output=SeCl2.log
 Initial command:
 /opt/g16/g16/l1.exe "/home/pnatt/scratch/Gau-1492868.inp" -scrdir="/home/pnatt/scratch/"
 Entering Link 1 = /opt/g16/g16/l1.exe PID=   1492878.
  
 Copyright (c) 1988-2019, Gaussian, Inc.  All Rights Reserved.
  
 This is part of the Gaussian(R) 16 program.  It is based on
 the Gaussian(R) 09 system (copyright 2009, Gaussian, Inc.),
 the Gaussian(R) 03 system (copyright 2003, Gaussian, Inc.),
 the Gaussian(R) 98 system (copyright 1998, Gaussian, Inc.),
 the Gaussian(R) 94 system (copyright 1995, Gaussian, Inc.),
 the Gaussian 92(TM) system (copyright 1992, Gaussian, Inc.),
 the Gaussian 90(TM) system (copyright 1990, Gaussian, Inc.),
 the Gaussian 88(TM) system (copyright 1988, Gaussian, Inc.),
 the Gaussian 86(TM) system (copyright 1986, Carnegie Mellon
 University), and the Gaussian 82(TM) system (copyright 1983,
 Carnegie Mellon University). Gaussian is a federally registered
 trademark of Gaussian, Inc.
  
 This software contains proprietary and confidential information,
 including trade secrets, belonging to Gaussian, Inc.
  
 This software is provided under written license and may be
 used, copied, transmitted, or stored only in accord with that
 written license.
  
 The following legend is applicable only to US Government
 contracts under FAR:
  
                    RESTRICTED RIGHTS LEGEND
  
 Use, reproduction and disclosure by the US Government is
 subject to restrictions as set forth in subparagraphs (a)
 and (c) of the Commercial Computer Software - Restricted
 Rights clause in FAR 52.227-19.
  
 Gaussian, Inc.
 340 Quinnipiac St., Bldg. 40, Wallingford CT 06492
  
  
 ---------------------------------------------------------------
 Warning -- This program may not be used in any manner that
 competes with the business of Gaussian, Inc. or will provide
 assistance to any competitor of Gaussian, Inc.  The licensee
 of this program is prohibited from giving any competitor of
 Gaussian, Inc. access to this program.  By using this program,
 the user acknowledges that Gaussian, Inc. is engaged in the
 business of creating and licensing software in the field of
 computational chemistry and represents and warrants to the
 licensee that it is not a competitor of Gaussian, Inc. and that
 it will not use this program in any manner prohibited above.
 ---------------------------------------------------------------
  

 Cite this work as:
 Gaussian 16, Revision C.01,
 M. J. Frisch, G. W. Trucks, H. B. Schlegel, G. E. Scuseria, 
 M. A. Robb, J. R. Cheeseman, G. Scalmani, V. Barone, 
 G. A. Petersson, H. Nakatsuji, X. Li, M. Caricato, A. V. Marenich, 
 J. Bloino, B. G. Janesko, R. Gomperts, B. Mennucci, H. P. Hratchian, 
 J. V. Ortiz, A. F. Izmaylov, J. L. Sonnenberg, D. Williams-Young, 
 F. Ding, F. Lipparini, F. Egidi, J. Goings, B. Peng, A. Petrone, 
 T. Henderson, D. Ranasinghe, V. G. Zakrzewski, J. Gao, N. Rega, 
 G. Zheng, W. Liang, M. Hada, M. Ehara, K. Toyota, R. Fukuda, 
 J. Hasegawa, M. Ishida, T. Nakajima, Y. Honda, O. Kitao, H. Nakai, 
 T. Vreven, K. Throssell, J. A. Montgomery, Jr., J. E. Peralta, 
 F. Ogliaro, M. J. Bearpark, J. J. Heyd, E. N. Brothers, K. N. Kudin, 
 V. N. Staroverov, T. A. Keith, R. Kobayashi, J. Normand, 
 K. Raghavachari, A. P. Rendell, J. C. Burant, S. S. Iyengar, 
 J. Tomasi, M. Cossi, J. M. Millam, M. Klene, C. Adamo, R. Cammi, 
 J. W. Ochterski, R. L. Martin, K. Morokuma, O. Farkas, 
 J. B. Foresman, and D. J. Fox, Gaussian, Inc., Wallingford CT, 2019.
 
 ******************************************
 Gaussian 16:  ES64L-G16RevC.01  3-Jul-2019
                10-Aug-2026 
 ******************************************
 %chk=SeCl2.chk
 ----------------------------------------------
 # opt freq=hpmodes mp2/3-21g geom=connectivity
 ----------------------------------------------
 1/18=20,19=15,38=1,57=2/1,3;
 2/9=110,12=2,17=6,18=5,40=1/2;
 3/5=5,11=9,25=1,30=1,71=1/1,2,3;
 4//1;
 5/5=2,38=5/2;
 8/6=4,10=1/1;
 9/15=2,16=-3/6;
 10/5=1/2;
 6/7=2,8=2,9=2,10=2/1;
 7/12=2/1,2,3,16;
 1/18=20,19=15/3(2);
 2/9=110/2;
 99//99;
 2/9=110/2;
 3/5=5,11=9,25=1,30=1,71=1/1,2,3;
 4/5=5,16=3,69=1/1;
 5/5=2,38=5/2;
 8/6=4,10=1/1;
 9/15=2,16=-3/6;
 10/5=1/2;
 7/12=2/1,2,3,16;
 1/18=20,19=15/3(-8);
 2/9=110/2;
 6/7=2,8=2,9=2,10=2/1;
 99/9=10/99;
 -------------------
 Title Card Required
 -------------------
 Symbolic Z-matrix:
 Charge =  0 Multiplicity = 1
 Se                    0.        0.        0.62354 
 Cl                    0.        1.76363  -0.62354 
 Cl                    0.       -1.76363  -0.62354 
 

 GradGradGradGradGradGradGradGradGradGradGradGradGradGradGradGradGradGrad
 Berny optimization.
 Initialization pass.
                           ----------------------------
                           !    Initial Parameters    !
                           ! (Angstroms and Degrees)  !
 --------------------------                            --------------------------
 ! Name  Definition              Value          Derivative Info.                !
 --------------------------------------------------------------------------------
 ! R1    R(1,2)                  2.16           estimate D2E/DX2                !
 ! R2    R(1,3)                  2.16           estimate D2E/DX2                !
 ! A1    A(2,1,3)              109.4712         estimate D2E/DX2                !
 --------------------------------------------------------------------------------
 Trust Radius=3.00D-01 FncErr=1.00D-07 GrdErr=1.00D-07 EigMax=2.50D+02 EigMin=1.00D-04
 Number of steps in this run=     20 maximum allowed number of steps=    100.
 GradGradGradGradGradGradGradGradGradGradGradGradGradGradGradGradGradGrad

                          Input orientation:                          
 ---------------------------------------------------------------------
 Center     Atomic      Atomic             Coordinates (Angstroms)
 Number     Number       Type             X           Y           Z
 ---------------------------------------------------------------------
      1         34           0        0.000000    0.000000    0.623538
      2         17           0        0.000000    1.763633   -0.623538
      3         17           0        0.000000   -1.763633   -0.623538
 ---------------------------------------------------------------------
                    Distance matrix (angstroms):
                    1          2          3
     1  Se   0.000000
     2  Cl   2.160000   0.000000
     3  Cl   2.160000   3.527265   0.000000
 Stoichiometry    Cl2Se
 Framework group  C2V[C2(Se),SGV(Cl2)]
 Deg. of freedom     2
 Full point group                 C2V     NOp   4
 Largest Abelian subgroup         C2V     NOp   4
 Largest concise Abelian subgroup C2      NOp   2
                         Standard orientation:                         
 ---------------------------------------------------------------------
 Center     Atomic      Atomic             Coordinates (Angstroms)
 Number     Number       Type             X           Y           Z
 ---------------------------------------------------------------------
      1         34           0        0.000000   -0.000000    0.623538
      2         17           0        0.000000    1.763633   -0.623538
      3         17           0       -0.000000   -1.763633   -0.623538
 ---------------------------------------------------------------------
 Rotational constants (GHZ):           8.7126848           2.3232159           1.8341455
 Standard basis: 3-21G (6D, 7F)
 There are    22 symmetry adapted cartesian basis functions of A1  symmetry.
 There are     4 symmetry adapted cartesian basis functions of A2  symmetry.
 There are     8 symmetry adapted cartesian basis functions of B1  symmetry.
 There are    15 symmetry adapted cartesian basis functions of B2  symmetry.
 There are    22 symmetry adapted basis functions of A1  symmetry.
 There are     4 symmetry adapted basis functions of A2  symmetry.
 There are     8 symmetry adapted basis functions of B1  symmetry.
 There are    15 symmetry adapted basis functions of B2  symmetry.
    49 basis functions,   111 primitive gaussians,    49 cartesian basis functions
    34 alpha electrons       34 beta electrons
       nuclear repulsion energy       326.5649674921 Hartrees.
 NAtoms=    3 NActive=    3 NUniq=    2 SFac= 2.25D+00 NAtFMM=   60 NAOKFM=F Big=F
 Integral buffers will be    131072 words long.
 Raffenetti 1 integral format.
 Two-electron integral symmetry is turned on.
 One-electron integrals computed using PRISM.
 NBasis=    49 RedAO= T EigKep=  6.37D-03  NBF=    22     4     8    15
 NBsUse=    49 1.00D-06 EigRej= -1.00D+00 NBFU=    22     4     8    15
 ExpMin= 1.37D-01 ExpMax= 5.75D+03 ExpMxC= 5.75D+03 IAcc=3 IRadAn=         5 AccDes= 0.00D+00
 Harris functional with IExCor=  205 and IRadAn=       5 diagonalized for initial guess.
 HarFok:  IExCor=  205 AccDes= 0.00D+00 IRadAn=         5 IDoV= 1 UseB2=F ITyADJ=14
 ICtDFT=  3500011 ScaDFX=  1.000000  1.000000  1.000000  1.000000
 FoFCou: FMM=F IPFlag=           0 FMFlag=      100000 FMFlg1=           0
         NFxFlg=           0 DoJE=T BraDBF=F KetDBF=T FulRan=T
         wScrn=  0.000000 ICntrl=       500 IOpCl=  0 I1Cent=   200000004 NGrid=           0
         NMat0=    1 NMatS0=      1 NMatT0=    0 NMatD0=    1 NMtDS0=    0 NMtDT0=    0
 Petite list used in FoFCou.
 Initial guess orbital symmetries:
       Occupied  (A1) (B2) (A1) (A1) (B2) (A1) (B1) (B2) (A1) (A1)
                 (B2) (A1) (B2) (B1) (A2) (A1) (B2) (A1) (B1) (B2)
                 (A1) (A1) (A2) (B1) (A1) (B2) (A1) (B2) (A1) (B1)
                 (A2) (B2) (A1) (B1)
       Virtual   (A1) (B2) (A1) (B2) (A1) (B1) (A1) (B2) (A2) (B1)
                 (B2) (A1) (A1) (B2) (A1)
 The electronic state of the initial guess is 1-A1.
 Keep R1 ints in memory in symmetry-blocked form, NReq=1584767.
 Requested convergence on RMS density matrix=1.00D-08 within 128 cycles.
 Requested convergence on MAX density matrix=1.00D-06.
 Requested convergence on             energy=1.00D-06.
 No special actions if energy rises.
 SCF Done:  E(RHF) =  -3303.04681858     A.U. after   11 cycles
            NFock= 11  Conv=0.41D-08     -V/T= 1.9993
 ExpMin= 1.37D-01 ExpMax= 5.75D+03 ExpMxC= 5.75D+03 IAcc=3 IRadAn=         5 AccDes= 0.00D+00
 HarFok:  IExCor=  205 AccDes= 0.00D+00 IRadAn=         5 IDoV=-2 UseB2=F ITyADJ=14
 ICtDFT= 12500011 ScaDFX=  1.000000  1.000000  1.000000  1.000000
 Range of M.O.s used for correlation:    20    49
 NBasis=    49 NAE=    34 NBE=    34 NFC=    19 NFV=     0
 NROrb=     30 NOA=    15 NOB=    15 NVA=    15 NVB=    15
 Fully direct method using O(ONN) memory.
 JobTyp=1 Pass  1:  I=  20 to  34 NPSUse=  1 ParTrn=F ParDer=F DoDerP=T.
 Spin components of T(2) and E(2):
     alpha-alpha T2 =       0.7653789359D-02 E2=     -0.1629634132D-01
     alpha-beta  T2 =       0.5645870557D-01 E2=     -0.1100387344D+00
     beta-beta   T2 =       0.7653789359D-02 E2=     -0.1629634132D-01
 ANorm=    0.1035261457D+01
 E2 =    -0.1426314170D+00 EUMP2 =    -0.33031894499921D+04
          IDoAtm=111
          Differentiating once with respect to electric field.
                with respect to dipole field.
          Differentiating once with respect to nuclear coordinates.
 Keep R1 ints in memory in symmetry-blocked form, NReq=1585394.
          There are     1 degrees of freedom in the 1st order CPHF.  IDoFFX=0 NUNeed=     1.
 LinEq1:  Iter=  0 NonCon=     1 RMS=6.02D-03 Max=6.80D-02 NDo=     1
 AX will form     1 AO Fock derivatives at one time.
 LinEq1:  Iter=  1 NonCon=     1 RMS=1.90D-03 Max=2.82D-02 NDo=     1
 LinEq1:  Iter=  2 NonCon=     1 RMS=4.28D-04 Max=4.06D-03 NDo=     1
 LinEq1:  Iter=  3 NonCon=     1 RMS=6.04D-05 Max=7.08D-04 NDo=     1
 LinEq1:  Iter=  4 NonCon=     1 RMS=1.03D-05 Max=8.11D-05 NDo=     1
 LinEq1:  Iter=  5 NonCon=     1 RMS=1.46D-06 Max=1.80D-05 NDo=     1
 LinEq1:  Iter=  6 NonCon=     1 RMS=2.34D-07 Max=2.62D-06 NDo=     1
 LinEq1:  Iter=  7 NonCon=     1 RMS=3.72D-08 Max=4.05D-07 NDo=     1
 LinEq1:  Iter=  8 NonCon=     1 RMS=3.48D-09 Max=2.54D-08 NDo=     1
 LinEq1:  Iter=  9 NonCon=     1 RMS=4.59D-10 Max=5.39D-09 NDo=     1
 LinEq1:  Iter= 10 NonCon=     0 RMS=4.37D-11 Max=3.03D-10 NDo=     1
 Linear equations converged to 1.000D-10 1.000D-09 after    10 iterations.
 End of Minotr F.D. properties file   721 does not exist.
 End of Minotr F.D. properties file   722 does not exist.
 End of Minotr F.D. properties file   788 does not exist.

 **********************************************************************

            Population analysis using the SCF Density.

 **********************************************************************

 Orbital symmetries:
       Occupied  (A1) (B2) (A1) (A1) (B2) (A1) (B1) (B2) (A1) (A1)
                 (B2) (A1) (B2) (A1) (B1) (A2) (B2) (A1) (B1) (B2)
                 (A1) (A2) (B1) (A1) (A1) (B2) (A1) (B2) (B1) (A1)
                 (A2) (B2) (A1) (B1)
       Virtual   (A1) (B2) (A1) (B2) (A1) (B1) (B2) (A1) (A2) (B1)
                 (A1) (B2) (A1) (B2) (A1)
 The electronic state is 1-A1.
 Alpha  occ. eigenvalues -- -458.06982-104.14461-104.14452 -60.49366 -53.99456
 Alpha  occ. eigenvalues --  -53.99374 -53.99151 -10.54084 -10.54054  -8.98204
 Alpha  occ. eigenvalues --   -8.00445  -8.00424  -7.99948  -7.99926  -7.99890
 Alpha  occ. eigenvalues --   -7.99890  -6.69128  -6.68622  -6.67282  -2.66614
 Alpha  occ. eigenvalues --   -2.66575  -2.64978  -2.64517  -2.64151  -1.18707
 Alpha  occ. eigenvalues --   -1.13061  -0.88928  -0.58405  -0.55539  -0.55385
 Alpha  occ. eigenvalues --   -0.50736  -0.48941  -0.46680  -0.38323
 Alpha virt. eigenvalues --   -0.00359   0.04321   0.59677   0.63764   0.64977
 Alpha virt. eigenvalues --    0.65212   0.71677   0.73490   0.77888   0.80138
 Alpha virt. eigenvalues --    0.82963   0.83883   0.85101   0.93865  17.40221
          Condensed to atoms (all electrons):
               1          2          3
     1  Se  33.515736  -0.005371  -0.005371
     2  Cl  -0.005371  17.279993  -0.027119
     3  Cl  -0.005371  -0.027119  17.279993
 Mulliken charges:
               1
     1  Se   0.495006
     2  Cl  -0.247503
     3  Cl  -0.247503
 Sum of Mulliken charges =  -0.00000
 Mulliken charges with hydrogens summed into heavy atoms:
               1
     1  Se   0.495006
     2  Cl  -0.247503
     3  Cl  -0.247503
 Electronic spatial extent (au):  <R**2>=            574.7470
 Charge=             -0.0000 electrons
 Dipole moment (field-independent basis, Debye):
    X=              0.0000    Y=              0.0000    Z=              1.8672  Tot=              1.8672
 Quadrupole moment (field-independent basis, Debye-Ang):
   XX=            -45.6941   YY=            -48.5714   ZZ=            -43.8438
   XY=             -0.0000   XZ=             -0.0000   YZ=              0.0000
 Traceless Quadrupole moment (field-independent basis, Debye-Ang):
   XX=              0.3423   YY=             -2.5350   ZZ=              2.1927
   XY=             -0.0000   XZ=             -0.0000   YZ=              0.0000
 Octapole moment (field-independent basis, Debye-Ang**2):
  XXX=              0.0000  YYY=              0.0000  ZZZ=             18.7674  XYY=              0.0000
  XXY=             -0.0000  XXZ=              4.4932  XZZ=              0.0000  YZZ=              0.0000
  YYZ=              9.2492  XYZ=              0.0000
 Hexadecapole moment (field-independent basis, Debye-Ang**3):
 XXXX=            -54.3042 YYYY=           -540.5593 ZZZZ=           -148.0527 XXXY=             -0.0000
 XXXZ=             -0.0000 YYYX=             -0.0000 YYYZ=              0.0000 ZZZX=             -0.0000
 ZZZY=             -0.0000 XXYY=           -100.3602 XXZZ=            -35.5359 YYZZ=           -111.0122
 XXYZ=              0.0000 YYXZ=             -0.0000 ZZXY=             -0.0000
 N-N= 3.265649674921D+02 E-N=-8.550653642727D+03  KE= 3.305363760498D+03
 Symmetry A1   KE= 2.146418487956D+03
 Symmetry A2   KE= 8.375347991698D+01
 Symmetry B1   KE= 3.557483968838D+02
 Symmetry B2   KE= 7.194433957408D+02
 Calling FoFJK, ICntrl=  10002127 FMM=F ISym2X=1 I1Cent= 0 IOpClX= 0 NMat=1 NMatS=1 NMatT=0.
 ***** Axes restored to original set *****
 -------------------------------------------------------------------
 Center     Atomic                   Forces (Hartrees/Bohr)
 Number     Number              X              Y              Z
 -------------------------------------------------------------------
      1       34          -0.000000000   -0.000000000    0.085368044
      2       17           0.000000000    0.051364952   -0.042684022
      3       17           0.000000000   -0.051364952   -0.042684022
 -------------------------------------------------------------------
 Cartesian Forces:  Max     0.085368044 RMS     0.042437236

 GradGradGradGradGradGradGradGradGradGradGradGradGradGradGradGradGradGrad
 Berny optimization.
 FormGI is forming the generalized inverse of G from B-inverse, IUseBI=4.
 Internal  Forces:  Max     0.066582940 RMS     0.055726607
 Search for a local minimum.
 Step number   1 out of a maximum of   20
 All quantities printed in internal units (Hartrees-Bohrs-Radians)
 Mixed Optimization -- RFO/linear search
 Second derivative matrix not updated -- first step.
 The second derivative matrix:
                          R1        R2        A1
           R1           0.15062
           R2           0.00000   0.15062
           A1           0.00000   0.00000   0.25000
 ITU=  0
     Eigenvalues ---    0.15062   0.15062   0.25000
 RFO step:  Lambda=-4.64987097D-02 EMin= 1.50616455D-01
 Linear search not attempted -- first point.
 Maximum step size (   0.300) exceeded in Quadratic search.
    -- Step size scaled by   0.621
 Iteration  1 RMS(Cart)=  0.12676944 RMS(Int)=  0.00791181
 Iteration  2 RMS(Cart)=  0.00598529 RMS(Int)=  0.00000318
 Iteration  3 RMS(Cart)=  0.00000741 RMS(Int)=  0.00000000
 Iteration  4 RMS(Cart)=  0.00000000 RMS(Int)=  0.00000000
 ClnCor:  largest displacement from symmetrization is 5.67D-15 for atom     3.
 Variable       Old X    -DE/DX   Delta X   Delta X   Delta X     New X
                                 (Linear)    (Quad)   (Total)
    R1        4.08181   0.06658   0.00000   0.20979   0.20979   4.29160
    R2        4.08181   0.06658   0.00000   0.20979   0.20979   4.29160
    A1        1.91063  -0.02121   0.00000  -0.04443  -0.04443   1.86621
         Item               Value     Threshold  Converged?
 Maximum Force            0.066583     0.000450     NO 
 RMS     Force            0.055727     0.000300     NO 
 Maximum Displacement     0.132228     0.001800     NO 
 RMS     Displacement     0.132740     0.001200     NO 
 Predicted change in Energy=-2.200367D-02
 GradGradGradGradGradGradGradGradGradGradGradGradGradGradGradGradGradGrad

                          Input orientation:                          
 ---------------------------------------------------------------------
 Center     Atomic      Atomic             Coordinates (Angstroms)
 Number     Number       Type             X           Y           Z
 ---------------------------------------------------------------------
      1         34           0        0.000000    0.000000    0.693510
      2         17           0        0.000000    1.824699   -0.658524
      3         17           0       -0.000000   -1.824699   -0.658524
 ---------------------------------------------------------------------
                    Distance matrix (angstroms):
                    1          2          3
     1  Se   0.000000
     2  Cl   2.271018   0.000000
     3  Cl   2.271018   3.649397   0.000000
 Stoichiometry    Cl2Se
 Framework group  C2V[C2(Se),SGV(Cl2)]
 Deg. of freedom     2
 Full point group                 C2V     NOp   4
 Largest Abelian subgroup         C2V     NOp   4
 Largest concise Abelian subgroup C2      NOp   2
                         Standard orientation:                         
 ---------------------------------------------------------------------
 Center     Atomic      Atomic             Coordinates (Angstroms)
 Number     Number       Type             X           Y           Z
 ---------------------------------------------------------------------
      1         34           0        0.000000    0.000000    0.676017
      2         17           0        0.000000    1.824699   -0.676017
      3         17           0       -0.000000   -1.824699   -0.676017
 ---------------------------------------------------------------------
 Rotational constants (GHZ):           7.4124682           2.1703188           1.6787829
 Standard basis: 3-21G (6D, 7F)
 There are    22 symmetry adapted cartesian basis functions of A1  symmetry.
 There are     4 symmetry adapted cartesian basis functions of A2  symmetry.
 There are     8 symmetry adapted cartesian basis functions of B1  symmetry.
 There are    15 symmetry adapted cartesian basis functions of B2  symmetry.
 There are    22 symmetry adapted basis functions of A1  symmetry.
 There are     4 symmetry adapted basis functions of A2  symmetry.
 There are     8 symmetry adapted basis functions of B1  symmetry.
 There are    15 symmetry adapted basis functions of B2  symmetry.
    49 basis functions,   111 primitive gaussians,    49 cartesian basis functions
    34 alpha electrons       34 beta electrons
       nuclear repulsion energy       311.2694607715 Hartrees.
 NAtoms=    3 NActive=    3 NUniq=    2 SFac= 2.25D+00 NAtFMM=   60 NAOKFM=F Big=F
 Integral buffers will be    131072 words long.
 Raffenetti 1 integral format.
 Two-electron integral symmetry is turned on.
 One-electron integrals computed using PRISM.
 NBasis=    49 RedAO= T EigKep=  6.38D-03  NBF=    22     4     8    15
 NBsUse=    49 1.00D-06 EigRej= -1.00D+00 NBFU=    22     4     8    15
 Initial guess from the checkpoint file:  "SeCl2.chk"
 B after Tr=    -0.000000    0.000000   -0.000000
         Rot=    1.000000   -0.000000    0.000000   -0.000000 Ang=   0.00 deg.
 Initial guess orbital symmetries:
       Occupied  (A1) (B2) (A1) (A1) (B2) (A1) (B1) (B2) (A1) (A1)
                 (B2) (A1) (B2) (A1) (B1) (A2) (B2) (A1) (B1) (B2)
                 (A1) (A2) (B1) (A1) (A1) (B2) (A1) (B2) (B1) (A1)
                 (A2) (B2) (A1) (B1)
       Virtual   (A1) (B2) (A1) (B2) (A1) (B1) (B2) (A1) (A2) (B1)
                 (A1) (B2) (A1) (B2) (A1)
 ExpMin= 1.37D-01 ExpMax= 5.75D+03 ExpMxC= 5.75D+03 IAcc=3 IRadAn=         5 AccDes= 0.00D+00
 Harris functional with IExCor=  205 and IRadAn=       5 diagonalized for initial guess.
 HarFok:  IExCor=  205 AccDes= 0.00D+00 IRadAn=         5 IDoV= 1 UseB2=F ITyADJ=14
 ICtDFT=  3500011 ScaDFX=  1.000000  1.000000  1.000000  1.000000
 FoFCou: FMM=F IPFlag=           0 FMFlag=      100000 FMFlg1=           0
         NFxFlg=           0 DoJE=T BraDBF=F KetDBF=T FulRan=T
         wScrn=  0.000000 ICntrl=       500 IOpCl=  0 I1Cent=   200000004 NGrid=           0
         NMat0=    1 NMatS0=      1 NMatT0=    0 NMatD0=    1 NMtDS0=    0 NMtDT0=    0
 Petite list used in FoFCou.
 Keep R1 ints in memory in symmetry-blocked form, NReq=1584737.
 Requested convergence on RMS density matrix=1.00D-08 within 128 cycles.
 Requested convergence on MAX density matrix=1.00D-06.
 Requested convergence on             energy=1.00D-06.
 No special actions if energy rises.
 SCF Done:  E(RHF) =  -3303.06125238     A.U. after   11 cycles
            NFock= 11  Conv=0.36D-08     -V/T= 1.9995
 ExpMin= 1.37D-01 ExpMax= 5.75D+03 ExpMxC= 5.75D+03 IAcc=3 IRadAn=         5 AccDes= 0.00D+00
 HarFok:  IExCor=  205 AccDes= 0.00D+00 IRadAn=         5 IDoV=-2 UseB2=F ITyADJ=14
 ICtDFT= 12500011 ScaDFX=  1.000000  1.000000  1.000000  1.000000
 Range of M.O.s used for correlation:    20    49
 NBasis=    49 NAE=    34 NBE=    34 NFC=    19 NFV=     0
 NROrb=     30 NOA=    15 NOB=    15 NVA=    15 NVB=    15
 Fully direct method using O(ONN) memory.
 JobTyp=1 Pass  1:  I=  20 to  34 NPSUse=  1 ParTrn=F ParDer=F DoDerP=T.
 Spin components of T(2) and E(2):
     alpha-alpha T2 =       0.8053839885D-02 E2=     -0.1661087536D-01
     alpha-beta  T2 =       0.6250291165D-01 E2=     -0.1141853969D+00
     beta-beta   T2 =       0.8053839885D-02 E2=     -0.1661087536D-01
 ANorm=    0.1038561790D+01
 E2 =    -0.1474071476D+00 EUMP2 =    -0.33032086595234D+04
          IDoAtm=111
          Differentiating once with respect to electric field.
                with respect to dipole field.
          Differentiating once with respect to nuclear coordinates.
 Keep R1 ints in memory in symmetry-blocked form, NReq=1585394.
          There are     1 degrees of freedom in the 1st order CPHF.  IDoFFX=0 NUNeed=     1.
 LinEq1:  Iter=  0 NonCon=     1 RMS=6.66D-03 Max=8.01D-02 NDo=     1
 AX will form     1 AO Fock derivatives at one time.
 LinEq1:  Iter=  1 NonCon=     1 RMS=2.27D-03 Max=3.37D-02 NDo=     1
 LinEq1:  Iter=  2 NonCon=     1 RMS=5.09D-04 Max=4.59D-03 NDo=     1
 LinEq1:  Iter=  3 NonCon=     1 RMS=8.08D-05 Max=9.61D-04 NDo=     1
 LinEq1:  Iter=  4 NonCon=     1 RMS=1.37D-05 Max=1.05D-04 NDo=     1
 LinEq1:  Iter=  5 NonCon=     1 RMS=1.61D-06 Max=1.53D-05 NDo=     1
 LinEq1:  Iter=  6 NonCon=     1 RMS=1.75D-07 Max=1.43D-06 NDo=     1
 LinEq1:  Iter=  7 NonCon=     1 RMS=2.58D-08 Max=2.37D-07 NDo=     1
 LinEq1:  Iter=  8 NonCon=     1 RMS=3.15D-09 Max=3.55D-08 NDo=     1
 LinEq1:  Iter=  9 NonCon=     1 RMS=6.13D-10 Max=7.65D-09 NDo=     1
 LinEq1:  Iter= 10 NonCon=     0 RMS=6.84D-11 Max=4.65D-10 NDo=     1
 Linear equations converged to 1.000D-10 1.000D-09 after    10 iterations.
 End of Minotr F.D. properties file   721 does not exist.
 End of Minotr F.D. properties file   722 does not exist.
 End of Minotr F.D. properties file   788 does not exist.
 Calling FoFJK, ICntrl=  10002127 FMM=F ISym2X=1 I1Cent= 0 IOpClX= 0 NMat=1 NMatS=1 NMatT=0.
 ***** Axes restored to original set *****
 -------------------------------------------------------------------
 Center     Atomic                   Forces (Hartrees/Bohr)
 Number     Number              X              Y              Z
 -------------------------------------------------------------------
      1       34          -0.000000000   -0.000000000    0.033925897
      2       17           0.000000000    0.017223354   -0.016962948
      3       17           0.000000000   -0.017223354   -0.016962948
 -------------------------------------------------------------------
 Cartesian Forces:  Max     0.033925897 RMS     0.016054551

 GradGradGradGradGradGradGradGradGradGradGradGradGradGradGradGradGradGrad
 Berny optimization.
 Using GEDIIS/GDIIS optimizer.
 FormGI is forming the generalized inverse of G from B-inverse, IUseBI=4.
 Internal  Forces:  Max     0.023937249 RMS     0.021258961
 Search for a local minimum.
 Step number   2 out of a maximum of   20
 All quantities printed in internal units (Hartrees-Bohrs-Radians)
 Mixed Optimization -- RFO/linear search
 Update second derivatives using D2CorX and points    1    2
 DE= -1.92D-02 DEPred=-2.20D-02 R= 8.73D-01
 TightC=F SS=  1.41D+00  RLast= 3.00D-01 DXNew= 5.0454D-01 9.0000D-01
 Trust test= 8.73D-01 RLast= 3.00D-01 DXMaxT set to 5.05D-01
 The second derivative matrix:
                          R1        R2        A1
           R1           0.17798
           R2           0.02736   0.17798
           A1           0.00976   0.00976   0.24351
 ITU=  1  0
 Use linear search instead of GDIIS.
     Eigenvalues ---    0.15062   0.20087   0.24798
 RFO step:  Lambda=-5.16518415D-04 EMin= 1.50616455D-01
 Quartic linear search produced a step of  0.86760.
 Iteration  1 RMS(Cart)=  0.12020787 RMS(Int)=  0.00272122
 Iteration  2 RMS(Cart)=  0.00671260 RMS(Int)=  0.00000931
 Iteration  3 RMS(Cart)=  0.00000741 RMS(Int)=  0.00000000
 Iteration  4 RMS(Cart)=  0.00000000 RMS(Int)=  0.00000000
 ClnCor:  largest displacement from symmetrization is 3.20D-15 for atom     3.
 Variable       Old X    -DE/DX   Delta X   Delta X   Delta X     New X
                                 (Linear)    (Quad)   (Total)
    R1        4.29160   0.02394   0.18202  -0.00359   0.17843   4.47003
    R2        4.29160   0.02394   0.18202  -0.00359   0.17843   4.47003
    A1        1.86621  -0.01449  -0.03854  -0.04548  -0.08403   1.78218
         Item               Value     Threshold  Converged?
 Maximum Force            0.023937     0.000450     NO 
 RMS     Force            0.021259     0.000300     NO 
 Maximum Displacement     0.169818     0.001800     NO 
 RMS     Displacement     0.122301     0.001200     NO 
 Predicted change in Energy=-2.655043D-03
 GradGradGradGradGradGradGradGradGradGradGradGradGradGradGradGradGradGrad

                          Input orientation:                          
 ---------------------------------------------------------------------
 Center     Atomic      Atomic             Coordinates (Angstroms)
 Number     Number       Type             X           Y           Z
 ---------------------------------------------------------------------
      1         34           0        0.000000   -0.000000    0.783374
      2         17           0        0.000000    1.839737   -0.703456
      3         17           0       -0.000000   -1.839737   -0.703456
 ---------------------------------------------------------------------
                    Distance matrix (angstroms):
                    1          2          3
     1  Se   0.000000
     2  Cl   2.365438   0.000000
     3  Cl   2.365438   3.679474   0.000000
 Stoichiometry    Cl2Se
 Framework group  C2V[C2(Se),SGV(Cl2)]
 Deg. of freedom     2
 Full point group                 C2V     NOp   4
 Largest Abelian subgroup         C2V     NOp   4
 Largest concise Abelian subgroup C2      NOp   2
                         Standard orientation:                         
 ---------------------------------------------------------------------
 Center     Atomic      Atomic             Coordinates (Angstroms)
 Number     Number       Type             X           Y           Z
 ---------------------------------------------------------------------
      1         34           0        0.000000    0.000000    0.743415
      2         17           0       -0.000000    1.839737   -0.743415
      3         17           0       -0.000000   -1.839737   -0.743415
 ---------------------------------------------------------------------
 Rotational constants (GHZ):           6.1293687           2.1349820           1.5834386
 Standard basis: 3-21G (6D, 7F)
 There are    22 symmetry adapted cartesian basis functions of A1  symmetry.
 There are     4 symmetry adapted cartesian basis functions of A2  symmetry.
 There are     8 symmetry adapted cartesian basis functions of B1  symmetry.
 There are    15 symmetry adapted cartesian basis functions of B2  symmetry.
 There are    22 symmetry adapted basis functions of A1  symmetry.
 There are     4 symmetry adapted basis functions of A2  symmetry.
 There are     8 symmetry adapted basis functions of B1  symmetry.
 There are    15 symmetry adapted basis functions of B2  symmetry.
    49 basis functions,   111 primitive gaussians,    49 cartesian basis functions
    34 alpha electrons       34 beta electrons
       nuclear repulsion energy       300.1748673114 Hartrees.
 NAtoms=    3 NActive=    3 NUniq=    2 SFac= 2.25D+00 NAtFMM=   60 NAOKFM=F Big=F
 Integral buffers will be    131072 words long.
 Raffenetti 1 integral format.
 Two-electron integral symmetry is turned on.
 One-electron integrals computed using PRISM.
 NBasis=    49 RedAO= T EigKep=  6.39D-03  NBF=    22     4     8    15
 NBsUse=    49 1.00D-06 EigRej= -1.00D+00 NBFU=    22     4     8    15
 Initial guess from the checkpoint file:  "SeCl2.chk"
 B after Tr=    -0.000000   -0.000000   -0.000000
         Rot=    1.000000   -0.000000   -0.000000   -0.000000 Ang=   0.00 deg.
 Initial guess orbital symmetries:
       Occupied  (A1) (B2) (A1) (A1) (B2) (A1) (B1) (B2) (A1) (A1)
                 (B2) (A1) (B2) (A1) (B1) (A2) (B2) (A1) (B1) (B2)
                 (A1) (A2) (B1) (A1) (A1) (B2) (A1) (B2) (B1) (A1)
                 (A2) (B2) (A1) (B1)
       Virtual   (A1) (B2) (A1) (B2) (B1) (A1) (B2) (A1) (A2) (B1)
                 (B2) (A1) (A1) (B2) (A1)
 ExpMin= 1.37D-01 ExpMax= 5.75D+03 ExpMxC= 5.75D+03 IAcc=3 IRadAn=         5 AccDes= 0.00D+00
 Harris functional with IExCor=  205 and IRadAn=       5 diagonalized for initial guess.
 HarFok:  IExCor=  205 AccDes= 0.00D+00 IRadAn=         5 IDoV= 1 UseB2=F ITyADJ=14
 ICtDFT=  3500011 ScaDFX=  1.000000  1.000000  1.000000  1.000000
 FoFCou: FMM=F IPFlag=           0 FMFlag=      100000 FMFlg1=           0
         NFxFlg=           0 DoJE=T BraDBF=F KetDBF=T FulRan=T
         wScrn=  0.000000 ICntrl=       500 IOpCl=  0 I1Cent=   200000004 NGrid=           0
         NMat0=    1 NMatS0=      1 NMatT0=    0 NMatD0=    1 NMtDS0=    0 NMtDT0=    0
 Petite list used in FoFCou.
 Keep R1 ints in memory in symmetry-blocked form, NReq=1584645.
 Requested convergence on RMS density matrix=1.00D-08 within 128 cycles.
 Requested convergence on MAX density matrix=1.00D-06.
 Requested convergence on             energy=1.00D-06.
 No special actions if energy rises.
 SCF Done:  E(RHF) =  -3303.06201563     A.U. after   11 cycles
            NFock= 11  Conv=0.36D-08     -V/T= 1.9996
 ExpMin= 1.37D-01 ExpMax= 5.75D+03 ExpMxC= 5.75D+03 IAcc=3 IRadAn=         5 AccDes= 0.00D+00
 HarFok:  IExCor=  205 AccDes= 0.00D+00 IRadAn=         5 IDoV=-2 UseB2=F ITyADJ=14
 ICtDFT= 12500011 ScaDFX=  1.000000  1.000000  1.000000  1.000000
 Range of M.O.s used for correlation:    20    49
 NBasis=    49 NAE=    34 NBE=    34 NFC=    19 NFV=     0
 NROrb=     30 NOA=    15 NOB=    15 NVA=    15 NVB=    15
 Fully direct method using O(ONN) memory.
 JobTyp=1 Pass  1:  I=  20 to  34 NPSUse=  1 ParTrn=F ParDer=F DoDerP=T.
 Spin components of T(2) and E(2):
     alpha-alpha T2 =       0.8317522307D-02 E2=     -0.1679109547D-01
     alpha-beta  T2 =       0.6802679901D-01 E2=     -0.1176281796D+00
     beta-beta   T2 =       0.8317522307D-02 E2=     -0.1679109547D-01
 ANorm=    0.1041471000D+01
 E2 =    -0.1512103705D+00 EUMP2 =    -0.33032132259990D+04
          IDoAtm=111
          Differentiating once with respect to electric field.
                with respect to dipole field.
          Differentiating once with respect to nuclear coordinates.
 Keep R1 ints in memory in symmetry-blocked form, NReq=1585394.
          There are     1 degrees of freedom in the 1st order CPHF.  IDoFFX=0 NUNeed=     1.
 LinEq1:  Iter=  0 NonCon=     1 RMS=7.08D-03 Max=9.10D-02 NDo=     1
 AX will form     1 AO Fock derivatives at one time.
 LinEq1:  Iter=  1 NonCon=     1 RMS=2.56D-03 Max=3.78D-02 NDo=     1
 LinEq1:  Iter=  2 NonCon=     1 RMS=5.70D-04 Max=4.86D-03 NDo=     1
 LinEq1:  Iter=  3 NonCon=     1 RMS=9.76D-05 Max=1.13D-03 NDo=     1
 LinEq1:  Iter=  4 NonCon=     1 RMS=1.73D-05 Max=1.76D-04 NDo=     1
 LinEq1:  Iter=  5 NonCon=     1 RMS=3.16D-06 Max=4.27D-05 NDo=     1
 LinEq1:  Iter=  6 NonCon=     1 RMS=5.24D-07 Max=5.45D-06 NDo=     1
 LinEq1:  Iter=  7 NonCon=     1 RMS=7.10D-08 Max=5.66D-07 NDo=     1
 LinEq1:  Iter=  8 NonCon=     1 RMS=8.01D-09 Max=7.16D-08 NDo=     1
 LinEq1:  Iter=  9 NonCon=     1 RMS=1.11D-09 Max=9.68D-09 NDo=     1
 LinEq1:  Iter= 10 NonCon=     0 RMS=9.45D-11 Max=6.51D-10 NDo=     1
 Linear equations converged to 1.000D-10 1.000D-09 after    10 iterations.
 End of Minotr F.D. properties file   721 does not exist.
 End of Minotr F.D. properties file   722 does not exist.
 End of Minotr F.D. properties file   788 does not exist.
 Calling FoFJK, ICntrl=  10002127 FMM=F ISym2X=1 I1Cent= 0 IOpClX= 0 NMat=1 NMatS=1 NMatT=0.
 ***** Axes restored to original set *****
 -------------------------------------------------------------------
 Center     Atomic                   Forces (Hartrees/Bohr)
 Number     Number              X              Y              Z
 -------------------------------------------------------------------
      1       34          -0.000000000    0.000000000   -0.000033466
      2       17           0.000000000   -0.001447279    0.000016733
      3       17           0.000000000    0.001447279    0.000016733
 -------------------------------------------------------------------
 Cartesian Forces:  Max     0.001447279 RMS     0.000682391

 GradGradGradGradGradGradGradGradGradGradGradGradGradGradGradGradGradGrad
 Berny optimization.
 Using GEDIIS/GDIIS optimizer.
 FormGI is forming the generalized inverse of G from B-inverse, IUseBI=4.
 Internal  Forces:  Max     0.004008246 RMS     0.002493171
 Search for a local minimum.
 Step number   3 out of a maximum of   20
 All quantities printed in internal units (Hartrees-Bohrs-Radians)
 Mixed Optimization -- RFO/linear search
 Update second derivatives using D2CorX and points    1    2    3
 DE= -4.57D-03 DEPred=-2.66D-03 R= 1.72D+00
 TightC=F SS=  1.41D+00  RLast= 2.66D-01 DXNew= 8.4853D-01 7.9787D-01
 Trust test= 1.72D+00 RLast= 2.66D-01 DXMaxT set to 7.98D-01
 The second derivative matrix:
                          R1        R2        A1
           R1           0.15171
           R2           0.00109   0.15171
           A1           0.02605   0.02605   0.23535
 ITU=  1  1  0
 Use linear search instead of GDIIS.
     Eigenvalues ---    0.13874   0.15062   0.24940
 RFO step:  Lambda=-7.42261583D-05 EMin= 1.38740213D-01
 Quartic linear search produced a step of -0.00836.
 Iteration  1 RMS(Cart)=  0.02425481 RMS(Int)=  0.00011534
 Iteration  2 RMS(Cart)=  0.00008882 RMS(Int)=  0.00000000
 Iteration  3 RMS(Cart)=  0.00000000 RMS(Int)=  0.00000000
 ClnCor:  largest displacement from symmetrization is 5.50D-15 for atom     3.
 Variable       Old X    -DE/DX   Delta X   Delta X   Delta X     New X
                                 (Linear)    (Quad)   (Total)
    R1        4.47003  -0.00114  -0.00149  -0.00346  -0.00495   4.46508
    R2        4.47003  -0.00114  -0.00149  -0.00346  -0.00495   4.46508
    A1        1.78218  -0.00401   0.00070  -0.01656  -0.01586   1.76632
         Item               Value     Threshold  Converged?
 Maximum Force            0.004008     0.000450     NO 
 RMS     Force            0.002493     0.000300     NO 
 Maximum Displacement     0.026219     0.001800     NO 
 RMS     Displacement     0.024289     0.001200     NO 
 Predicted change in Energy=-3.738446D-05
 GradGradGradGradGradGradGradGradGradGradGradGradGradGradGradGradGradGrad

                          Input orientation:                          
 ---------------------------------------------------------------------
 Center     Atomic      Atomic             Coordinates (Angstroms)
 Number     Number       Type             X           Y           Z
 ---------------------------------------------------------------------
      1         34           0        0.000000   -0.000000    0.791961
      2         17           0        0.000000    1.825863   -0.707750
      3         17           0       -0.000000   -1.825863   -0.707750
 ---------------------------------------------------------------------
                    Distance matrix (angstroms):
                    1          2          3
     1  Se   0.000000
     2  Cl   2.362817   0.000000
     3  Cl   2.362817   3.651726   0.000000
 Stoichiometry    Cl2Se
 Framework group  C2V[C2(Se),SGV(Cl2)]
 Deg. of freedom     2
 Full point group                 C2V     NOp   4
 Largest Abelian subgroup         C2V     NOp   4
 Largest concise Abelian subgroup C2      NOp   2
                         Standard orientation:                         
 ---------------------------------------------------------------------
 Center     Atomic      Atomic             Coordinates (Angstroms)
 Number     Number       Type             X           Y           Z
 ---------------------------------------------------------------------
      1         34           0       -0.000000    0.000000    0.749855
      2         17           0        0.000000    1.825863   -0.749855
      3         17           0       -0.000000   -1.825863   -0.749855
 ---------------------------------------------------------------------
 Rotational constants (GHZ):           6.0245350           2.1675521           1.5940374
 Standard basis: 3-21G (6D, 7F)
 There are    22 symmetry adapted cartesian basis functions of A1  symmetry.
 There are     4 symmetry adapted cartesian basis functions of A2  symmetry.
 There are     8 symmetry adapted cartesian basis functions of B1  symmetry.
 There are    15 symmetry adapted cartesian basis functions of B2  symmetry.
 There are    22 symmetry adapted basis functions of A1  symmetry.
 There are     4 symmetry adapted basis functions of A2  symmetry.
 There are     8 symmetry adapted basis functions of B1  symmetry.
 There are    15 symmetry adapted basis functions of B2  symmetry.
    49 basis functions,   111 primitive gaussians,    49 cartesian basis functions
    34 alpha electrons       34 beta electrons
       nuclear repulsion energy       300.7775129953 Hartrees.
 NAtoms=    3 NActive=    3 NUniq=    2 SFac= 2.25D+00 NAtFMM=   60 NAOKFM=F Big=F
 Integral buffers will be    131072 words long.
 Raffenetti 1 integral format.
 Two-electron integral symmetry is turned on.
 One-electron integrals computed using PRISM.
 NBasis=    49 RedAO= T EigKep=  6.38D-03  NBF=    22     4     8    15
 NBsUse=    49 1.00D-06 EigRej= -1.00D+00 NBFU=    22     4     8    15
 Initial guess from the checkpoint file:  "SeCl2.chk"
 B after Tr=     0.000000    0.000000    0.000000
         Rot=    1.000000    0.000000   -0.000000    0.000000 Ang=   0.00 deg.
 Initial guess orbital symmetries:
       Occupied  (A1) (B2) (A1) (A1) (B2) (A1) (B1) (B2) (A1) (A1)
                 (B2) (A1) (B2) (A1) (A2) (B1) (B2) (A1) (B1) (B2)
                 (A1) (A2) (B1) (A1) (A1) (B2) (A1) (B2) (A1) (B1)
                 (A2) (B2) (A1) (B1)
       Virtual   (A1) (B2) (A1) (B2) (B1) (A1) (B2) (A1) (A2) (B1)
                 (B2) (A1) (A1) (B2) (A1)
 ExpMin= 1.37D-01 ExpMax= 5.75D+03 ExpMxC= 5.75D+03 IAcc=3 IRadAn=         5 AccDes= 0.00D+00
 Harris functional with IExCor=  205 and IRadAn=       5 diagonalized for initial guess.
 HarFok:  IExCor=  205 AccDes= 0.00D+00 IRadAn=         5 IDoV= 1 UseB2=F ITyADJ=14
 ICtDFT=  3500011 ScaDFX=  1.000000  1.000000  1.000000  1.000000
 FoFCou: FMM=F IPFlag=           0 FMFlag=      100000 FMFlg1=           0
         NFxFlg=           0 DoJE=T BraDBF=F KetDBF=T FulRan=T
         wScrn=  0.000000 ICntrl=       500 IOpCl=  0 I1Cent=   200000004 NGrid=           0
         NMat0=    1 NMatS0=      1 NMatT0=    0 NMatD0=    1 NMtDS0=    0 NMtDT0=    0
 Petite list used in FoFCou.
 Keep R1 ints in memory in symmetry-blocked form, NReq=1584645.
 Requested convergence on RMS density matrix=1.00D-08 within 128 cycles.
 Requested convergence on MAX density matrix=1.00D-06.
 Requested convergence on             energy=1.00D-06.
 No special actions if energy rises.
 SCF Done:  E(RHF) =  -3303.06228368     A.U. after    9 cycles
            NFock=  9  Conv=0.66D-08     -V/T= 1.9996
 ExpMin= 1.37D-01 ExpMax= 5.75D+03 ExpMxC= 5.75D+03 IAcc=3 IRadAn=         5 AccDes= 0.00D+00
 HarFok:  IExCor=  205 AccDes= 0.00D+00 IRadAn=         5 IDoV=-2 UseB2=F ITyADJ=14
 ICtDFT= 12500011 ScaDFX=  1.000000  1.000000  1.000000  1.000000
 Range of M.O.s used for correlation:    20    49
 NBasis=    49 NAE=    34 NBE=    34 NFC=    19 NFV=     0
 NROrb=     30 NOA=    15 NOB=    15 NVA=    15 NVB=    15
 Fully direct method using O(ONN) memory.
 JobTyp=1 Pass  1:  I=  20 to  34 NPSUse=  1 ParTrn=F ParDer=F DoDerP=T.
 Spin components of T(2) and E(2):
     alpha-alpha T2 =       0.8289737593D-02 E2=     -0.1676528289D-01
     alpha-beta  T2 =       0.6778262078D-01 E2=     -0.1174664859D+00
     beta-beta   T2 =       0.8289737593D-02 E2=     -0.1676528289D-01
 ANorm=    0.1041327084D+01
 E2 =    -0.1509970517D+00 EUMP2 =    -0.33032132807355D+04
          IDoAtm=111
          Differentiating once with respect to electric field.
                with respect to dipole field.
          Differentiating once with respect to nuclear coordinates.
 Keep R1 ints in memory in symmetry-blocked form, NReq=1585394.
          There are     1 degrees of freedom in the 1st order CPHF.  IDoFFX=0 NUNeed=     1.
 LinEq1:  Iter=  0 NonCon=     1 RMS=7.03D-03 Max=9.08D-02 NDo=     1
 AX will form     1 AO Fock derivatives at one time.
 LinEq1:  Iter=  1 NonCon=     1 RMS=2.54D-03 Max=3.73D-02 NDo=     1
 LinEq1:  Iter=  2 NonCon=     1 RMS=5.66D-04 Max=4.72D-03 NDo=     1
 LinEq1:  Iter=  3 NonCon=     1 RMS=9.66D-05 Max=1.11D-03 NDo=     1
 LinEq1:  Iter=  4 NonCon=     1 RMS=1.76D-05 Max=1.91D-04 NDo=     1
 LinEq1:  Iter=  5 NonCon=     1 RMS=3.49D-06 Max=4.38D-05 NDo=     1
 LinEq1:  Iter=  6 NonCon=     1 RMS=5.38D-07 Max=5.37D-06 NDo=     1
 LinEq1:  Iter=  7 NonCon=     1 RMS=6.95D-08 Max=5.12D-07 NDo=     1
 LinEq1:  Iter=  8 NonCon=     1 RMS=7.51D-09 Max=6.69D-08 NDo=     1
 LinEq1:  Iter=  9 NonCon=     1 RMS=1.08D-09 Max=9.80D-09 NDo=     1
 LinEq1:  Iter= 10 NonCon=     0 RMS=9.28D-11 Max=6.41D-10 NDo=     1
 Linear equations converged to 1.000D-10 1.000D-09 after    10 iterations.
 End of Minotr F.D. properties file   721 does not exist.
 End of Minotr F.D. properties file   722 does not exist.
 End of Minotr F.D. properties file   788 does not exist.
 Calling FoFJK, ICntrl=  10002127 FMM=F ISym2X=1 I1Cent= 0 IOpClX= 0 NMat=1 NMatS=1 NMatT=0.
 ***** Axes restored to original set *****
 -------------------------------------------------------------------
 Center     Atomic                   Forces (Hartrees/Bohr)
 Number     Number              X              Y              Z
 -------------------------------------------------------------------
      1       34          -0.000000000   -0.000000000    0.000048862
      2       17           0.000000000   -0.000631399   -0.000024431
      3       17           0.000000000    0.000631399   -0.000024431
 -------------------------------------------------------------------
 Cartesian Forces:  Max     0.000631399 RMS     0.000298312

 GradGradGradGradGradGradGradGradGradGradGradGradGradGradGradGradGradGrad
 Berny optimization.
 Using GEDIIS/GDIIS optimizer.
 FormGI is forming the generalized inverse of G from B-inverse, IUseBI=4.
 Internal  Forces:  Max     0.001873706 RMS     0.001148493
 Search for a local minimum.
 Step number   4 out of a maximum of   20
 All quantities printed in internal units (Hartrees-Bohrs-Radians)
 Mixed Optimization -- RFO/linear search
 Update second derivatives using D2CorX and points    1    2    3    4
 DE= -5.47D-05 DEPred=-3.74D-05 R= 1.46D+00
 TightC=F SS=  1.41D+00  RLast= 1.73D-02 DXNew= 1.3419D+00 5.2016D-02
 Trust test= 1.46D+00 RLast= 1.73D-02 DXMaxT set to 7.98D-01
 The second derivative matrix:
                          R1        R2        A1
           R1           0.14413
           R2          -0.00648   0.14413
           A1          -0.00113  -0.00113   0.13528
 ITU=  1  1  1  0
 Use linear search instead of GDIIS.
     Eigenvalues ---    0.13448   0.13845   0.15062
 RFO step:  Lambda=-1.47288054D-07 EMin= 1.34475312D-01
 Quartic linear search produced a step of  0.82334.
 Iteration  1 RMS(Cart)=  0.02033541 RMS(Int)=  0.00008301
 Iteration  2 RMS(Cart)=  0.00006474 RMS(Int)=  0.00000000
 Iteration  3 RMS(Cart)=  0.00000000 RMS(Int)=  0.00000000
 ClnCor:  largest displacement from symmetrization is 1.17D-14 for atom     3.
 Variable       Old X    -DE/DX   Delta X   Delta X   Delta X     New X
                                 (Linear)    (Quad)   (Total)
    R1        4.46508  -0.00047  -0.00408   0.00067  -0.00341   4.46167
    R2        4.46508  -0.00047  -0.00408   0.00067  -0.00341   4.46167
    A1        1.76632  -0.00187  -0.01306  -0.00042  -0.01347   1.75284
         Item               Value     Threshold  Converged?
 Maximum Force            0.001874     0.000450     NO 
 RMS     Force            0.001148     0.000300     NO 
 Maximum Displacement     0.021792     0.001800     NO 
 RMS     Displacement     0.020362     0.001200     NO 
 Predicted change in Energy=-1.469153D-05
 GradGradGradGradGradGradGradGradGradGradGradGradGradGradGradGradGradGrad

                          Input orientation:                          
 ---------------------------------------------------------------------
 Center     Atomic      Atomic             Coordinates (Angstroms)
 Number     Number       Type             X           Y           Z
 ---------------------------------------------------------------------
      1         34           0        0.000000   -0.000000    0.799369
      2         17           0        0.000000    1.814331   -0.711454
      3         17           0       -0.000000   -1.814331   -0.711454
 ---------------------------------------------------------------------
                    Distance matrix (angstroms):
                    1          2          3
     1  Se   0.000000
     2  Cl   2.361013   0.000000
     3  Cl   2.361013   3.628662   0.000000
 Stoichiometry    Cl2Se
 Framework group  C2V[C2(Se),SGV(Cl2)]
 Deg. of freedom     2
 Full point group                 C2V     NOp   4
 Largest Abelian subgroup         C2V     NOp   4
 Largest concise Abelian subgroup C2      NOp   2
                         Standard orientation:                         
 ---------------------------------------------------------------------
 Center     Atomic      Atomic             Coordinates (Angstroms)
 Number     Number       Type             X           Y           Z
 ---------------------------------------------------------------------
      1         34           0       -0.000000    0.000000    0.755412
      2         17           0       -0.000000    1.814331   -0.755412
      3         17           0       -0.000000   -1.814331   -0.755412
 ---------------------------------------------------------------------
 Rotational constants (GHZ):           5.9362339           2.1951938           1.6025702
 Standard basis: 3-21G (6D, 7F)
 There are    22 symmetry adapted cartesian basis functions of A1  symmetry.
 There are     4 symmetry adapted cartesian basis functions of A2  symmetry.
 There are     8 symmetry adapted cartesian basis functions of B1  symmetry.
 There are    15 symmetry adapted cartesian basis functions of B2  symmetry.
 There are    22 symmetry adapted basis functions of A1  symmetry.
 There are     4 symmetry adapted basis functions of A2  symmetry.
 There are     8 symmetry adapted basis functions of B1  symmetry.
 There are    15 symmetry adapted basis functions of B2  symmetry.
    49 basis functions,   111 primitive gaussians,    49 cartesian basis functions
    34 alpha electrons       34 beta electrons
       nuclear repulsion energy       301.2415441065 Hartrees.
 NAtoms=    3 NActive=    3 NUniq=    2 SFac= 2.25D+00 NAtFMM=   60 NAOKFM=F Big=F
 Integral buffers will be    131072 words long.
 Raffenetti 1 integral format.
 Two-electron integral symmetry is turned on.
 One-electron integrals computed using PRISM.
 NBasis=    49 RedAO= T EigKep=  6.38D-03  NBF=    22     4     8    15
 NBsUse=    49 1.00D-06 EigRej= -1.00D+00 NBFU=    22     4     8    15
 Initial guess from the checkpoint file:  "SeCl2.chk"
 B after Tr=     0.000000   -0.000000   -0.000000
         Rot=    1.000000   -0.000000    0.000000   -0.000000 Ang=   0.00 deg.
 Initial guess orbital symmetries:
       Occupied  (A1) (B2) (A1) (A1) (B2) (A1) (B1) (B2) (A1) (A1)
                 (B2) (A1) (B2) (A1) (A2) (B1) (B2) (A1) (B1) (B2)
                 (A1) (A2) (B1) (A1) (A1) (B2) (A1) (B2) (A1) (B1)
                 (A2) (B2) (A1) (B1)
       Virtual   (A1) (B2) (A1) (B2) (B1) (A1) (B2) (A1) (A2) (B1)
                 (B2) (A1) (A1) (B2) (A1)
 ExpMin= 1.37D-01 ExpMax= 5.75D+03 ExpMxC= 5.75D+03 IAcc=3 IRadAn=         5 AccDes= 0.00D+00
 Harris functional with IExCor=  205 and IRadAn=       5 diagonalized for initial guess.
 HarFok:  IExCor=  205 AccDes= 0.00D+00 IRadAn=         5 IDoV= 1 UseB2=F ITyADJ=14
 ICtDFT=  3500011 ScaDFX=  1.000000  1.000000  1.000000  1.000000
 FoFCou: FMM=F IPFlag=           0 FMFlag=      100000 FMFlg1=           0
         NFxFlg=           0 DoJE=T BraDBF=F KetDBF=T FulRan=T
         wScrn=  0.000000 ICntrl=       500 IOpCl=  0 I1Cent=   200000004 NGrid=           0
         NMat0=    1 NMatS0=      1 NMatT0=    0 NMatD0=    1 NMtDS0=    0 NMtDT0=    0
 Petite list used in FoFCou.
 Keep R1 ints in memory in symmetry-blocked form, NReq=1584645.
 Requested convergence on RMS density matrix=1.00D-08 within 128 cycles.
 Requested convergence on MAX density matrix=1.00D-06.
 Requested convergence on             energy=1.00D-06.
 No special actions if energy rises.
 SCF Done:  E(RHF) =  -3303.06245635     A.U. after    9 cycles
            NFock=  9  Conv=0.48D-08     -V/T= 1.9996
 ExpMin= 1.37D-01 ExpMax= 5.75D+03 ExpMxC= 5.75D+03 IAcc=3 IRadAn=         5 AccDes= 0.00D+00
 HarFok:  IExCor=  205 AccDes= 0.00D+00 IRadAn=         5 IDoV=-2 UseB2=F ITyADJ=14
 ICtDFT= 12500011 ScaDFX=  1.000000  1.000000  1.000000  1.000000
 Range of M.O.s used for correlation:    20    49
 NBasis=    49 NAE=    34 NBE=    34 NFC=    19 NFV=     0
 NROrb=     30 NOA=    15 NOB=    15 NVA=    15 NVB=    15
 Fully direct method using O(ONN) memory.
 JobTyp=1 Pass  1:  I=  20 to  34 NPSUse=  1 ParTrn=F ParDer=F DoDerP=T.
 Spin components of T(2) and E(2):
     alpha-alpha T2 =       0.8267965854D-02 E2=     -0.1674478430D-01
     alpha-beta  T2 =       0.6760814964D-01 E2=     -0.1173491164D+00
     beta-beta   T2 =       0.8267965854D-02 E2=     -0.1674478430D-01
 ANorm=    0.1041222398D+01
 E2 =    -0.1508386850D+00 EUMP2 =    -0.33032132950379D+04
          IDoAtm=111
          Differentiating once with respect to electric field.
                with respect to dipole field.
          Differentiating once with respect to nuclear coordinates.
 Keep R1 ints in memory in symmetry-blocked form, NReq=1585394.
          There are     1 degrees of freedom in the 1st order CPHF.  IDoFFX=0 NUNeed=     1.
 LinEq1:  Iter=  0 NonCon=     1 RMS=6.99D-03 Max=9.07D-02 NDo=     1
 AX will form     1 AO Fock derivatives at one time.
 LinEq1:  Iter=  1 NonCon=     1 RMS=2.52D-03 Max=3.69D-02 NDo=     1
 LinEq1:  Iter=  2 NonCon=     1 RMS=5.62D-04 Max=4.62D-03 NDo=     1
 LinEq1:  Iter=  3 NonCon=     1 RMS=9.59D-05 Max=1.09D-03 NDo=     1
 LinEq1:  Iter=  4 NonCon=     1 RMS=1.80D-05 Max=2.03D-04 NDo=     1
 LinEq1:  Iter=  5 NonCon=     1 RMS=3.74D-06 Max=4.36D-05 NDo=     1
 LinEq1:  Iter=  6 NonCon=     1 RMS=5.42D-07 Max=5.20D-06 NDo=     1
 LinEq1:  Iter=  7 NonCon=     1 RMS=6.82D-08 Max=4.74D-07 NDo=     1
 LinEq1:  Iter=  8 NonCon=     1 RMS=7.13D-09 Max=6.27D-08 NDo=     1
 LinEq1:  Iter=  9 NonCon=     1 RMS=1.05D-09 Max=9.86D-09 NDo=     1
 LinEq1:  Iter= 10 NonCon=     0 RMS=9.15D-11 Max=6.34D-10 NDo=     1
 Linear equations converged to 1.000D-10 1.000D-09 after    10 iterations.
 End of Minotr F.D. properties file   721 does not exist.
 End of Minotr F.D. properties file   722 does not exist.
 End of Minotr F.D. properties file   788 does not exist.
 Calling FoFJK, ICntrl=  10002127 FMM=F ISym2X=1 I1Cent= 0 IOpClX= 0 NMat=1 NMatS=1 NMatT=0.
 ***** Axes restored to original set *****
 -------------------------------------------------------------------
 Center     Atomic                   Forces (Hartrees/Bohr)
 Number     Number              X              Y              Z
 -------------------------------------------------------------------
      1       34          -0.000000000   -0.000000000    0.000022858
      2       17           0.000000000    0.000011285   -0.000011429
      3       17           0.000000000   -0.000011285   -0.000011429
 -------------------------------------------------------------------
 Cartesian Forces:  Max     0.000022858 RMS     0.000010742

 GradGradGradGradGradGradGradGradGradGradGradGradGradGradGradGradGradGrad
 Berny optimization.
 Using GEDIIS/GDIIS optimizer.
 FormGI is forming the generalized inverse of G from B-inverse, IUseBI=4.
 Internal  Forces:  Max     0.000015986 RMS     0.000013658
 Search for a local minimum.
 Step number   5 out of a maximum of   20
 All quantities printed in internal units (Hartrees-Bohrs-Radians)
 Mixed Optimization -- En-DIIS/RFO-DIIS
 Update second derivatives using D2CorX and points    2    3    4    5
 DE= -1.43D-05 DEPred=-1.47D-05 R= 9.74D-01
 TightC=F SS=  1.41D+00  RLast= 1.43D-02 DXNew= 1.3419D+00 4.2934D-02
 Trust test= 9.74D-01 RLast= 1.43D-02 DXMaxT set to 7.98D-01
 The second derivative matrix:
                          R1        R2        A1
           R1           0.14517
           R2          -0.00544   0.14517
           A1           0.00089   0.00089   0.13809
 ITU=  1  1  1  1
 Use linear search instead of GDIIS.
     Eigenvalues ---    0.13741   0.14041   0.15062
 RFO step:  Lambda= 0.00000000D+00 EMin= 1.37407634D-01
 Quartic linear search produced a step of -0.00052.
 Iteration  1 RMS(Cart)=  0.00007748 RMS(Int)=  0.00000000
 Iteration  2 RMS(Cart)=  0.00000000 RMS(Int)=  0.00000000
 ClnCor:  largest displacement from symmetrization is 3.14D-15 for atom     3.
 Variable       Old X    -DE/DX   Delta X   Delta X   Delta X     New X
                                 (Linear)    (Quad)   (Total)
    R1        4.46167   0.00002   0.00000   0.00011   0.00011   4.46178
    R2        4.46167   0.00002   0.00000   0.00011   0.00011   4.46178
    A1        1.75284  -0.00001   0.00001  -0.00006  -0.00005   1.75279
         Item               Value     Threshold  Converged?
 Maximum Force            0.000016     0.000450     YES
 RMS     Force            0.000014     0.000300     YES
 Maximum Displacement     0.000108     0.001800     YES
 RMS     Displacement     0.000077     0.001200     YES
 Predicted change in Energy=-2.014894D-09
 Optimization completed.
    -- Stationary point found.
                           ----------------------------
                           !   Optimized Parameters   !
                           ! (Angstroms and Degrees)  !
 --------------------------                            --------------------------
 ! Name  Definition              Value          Derivative Info.                !
 --------------------------------------------------------------------------------
 ! R1    R(1,2)                  2.361          -DE/DX =    0.0                 !
 ! R2    R(1,3)                  2.361          -DE/DX =    0.0                 !
 ! A1    A(2,1,3)              100.4306         -DE/DX =    0.0                 !
 --------------------------------------------------------------------------------
 GradGradGradGradGradGradGradGradGradGradGradGradGradGradGradGradGradGrad

                          Input orientation:                          
 ---------------------------------------------------------------------
 Center     Atomic      Atomic             Coordinates (Angstroms)
 Number     Number       Type             X           Y           Z
 ---------------------------------------------------------------------
      1         34           0        0.000000   -0.000000    0.799369
      2         17           0        0.000000    1.814331   -0.711454
      3         17           0       -0.000000   -1.814331   -0.711454
 ---------------------------------------------------------------------
                    Distance matrix (angstroms):
                    1          2          3
     1  Se   0.000000
     2  Cl   2.361013   0.000000
     3  Cl   2.361013   3.628662   0.000000
 Stoichiometry    Cl2Se
 Framework group  C2V[C2(Se),SGV(Cl2)]
 Deg. of freedom     2
 Full point group                 C2V     NOp   4
 Largest Abelian subgroup         C2V     NOp   4
 Largest concise Abelian subgroup C2      NOp   2
                         Standard orientation:                         
 ---------------------------------------------------------------------
 Center     Atomic      Atomic             Coordinates (Angstroms)
 Number     Number       Type             X           Y           Z
 ---------------------------------------------------------------------
      1         34           0        0.000000   -0.000000    0.755412
      2         17           0        0.000000    1.814331   -0.755412
      3         17           0       -0.000000   -1.814331   -0.755412
 ---------------------------------------------------------------------
 Rotational constants (GHZ):           5.9362339           2.1951938           1.6025702

 **********************************************************************

            Population analysis using the SCF Density.

 **********************************************************************

 Orbital symmetries:
       Occupied  (A1) (B2) (A1) (A1) (B2) (A1) (B1) (B2) (A1) (A1)
                 (B2) (A1) (B2) (A1) (A2) (B1) (B2) (A1) (B1) (B2)
                 (A1) (A2) (B1) (A1) (A1) (B2) (A1) (B2) (A1) (B1)
                 (A2) (B2) (A1) (B1)
       Virtual   (A1) (B2) (A1) (B2) (B1) (A1) (B2) (A1) (A2) (B1)
                 (B2) (A1) (A1) (B2) (A1)
 The electronic state is 1-A1.
 Alpha  occ. eigenvalues -- -458.09053-104.14404-104.14398 -60.51082 -54.01189
 Alpha  occ. eigenvalues --  -54.01145 -54.00913 -10.53483 -10.53461  -8.99437
 Alpha  occ. eigenvalues --   -7.99833  -7.99815  -7.99413  -7.99388  -7.99372
 Alpha  occ. eigenvalues --   -7.99371  -6.70195  -6.69928  -6.68567  -2.67809
 Alpha  occ. eigenvalues --   -2.67773  -2.66151  -2.65883  -2.65442  -1.13354
 Alpha  occ. eigenvalues --   -1.09719  -0.90219  -0.54185  -0.52810  -0.52677
 Alpha  occ. eigenvalues --   -0.49129  -0.47429  -0.46903  -0.40269
 Alpha virt. eigenvalues --   -0.04022  -0.02254   0.57539   0.63858   0.64206
 Alpha virt. eigenvalues --    0.65067   0.71756   0.73692   0.78839   0.80449
 Alpha virt. eigenvalues --    0.84123   0.84763   0.87804   0.95380  17.44019
          Condensed to atoms (all electrons):
               1          2          3
     1  Se  33.319716   0.093467   0.093467
     2  Cl   0.093467  17.172556  -0.019349
     3  Cl   0.093467  -0.019349  17.172556
 Mulliken charges:
               1
     1  Se   0.493349
     2  Cl  -0.246675
     3  Cl  -0.246675
 Sum of Mulliken charges =   0.00000
 Mulliken charges with hydrogens summed into heavy atoms:
               1
     1  Se   0.493349
     2  Cl  -0.246675
     3  Cl  -0.246675
 Electronic spatial extent (au):  <R**2>=            640.7382
 Charge=              0.0000 electrons
 Dipole moment (field-independent basis, Debye):
    X=              0.0000    Y=              0.0000    Z=              2.8102  Tot=              2.8102
 Quadrupole moment (field-independent basis, Debye-Ang):
   XX=            -46.1077   YY=            -48.7059   ZZ=            -43.0380
   XY=             -0.0000   XZ=             -0.0000   YZ=              0.0000
 Traceless Quadrupole moment (field-independent basis, Debye-Ang):
   XX=             -0.1572   YY=             -2.7553   ZZ=              2.9125
   XY=             -0.0000   XZ=             -0.0000   YZ=              0.0000
 Octapole moment (field-independent basis, Debye-Ang**2):
  XXX=              0.0000  YYY=              0.0000  ZZZ=             24.0924  XYY=              0.0000
  XXY=             -0.0000  XXZ=              5.8397  XZZ=              0.0000  YZZ=              0.0000
  YYZ=              9.9231  XYZ=              0.0000
 Hexadecapole moment (field-independent basis, Debye-Ang**3):
 XXXX=            -55.1452 YYYY=           -573.1896 ZZZZ=           -190.4844 XXXY=             -0.0000
 XXXZ=             -0.0000 YYYX=             -0.0000 YYYZ=              0.0000 ZZZX=             -0.0000
 ZZZY=              0.0000 XXYY=           -105.9112 XXZZ=            -43.7106 YYZZ=           -120.7049
 XXYZ=              0.0000 YYXZ=             -0.0000 ZZXY=             -0.0000
 N-N= 3.012415441065D+02 E-N=-8.499272131601D+03  KE= 3.304548054553D+03
 Symmetry A1   KE= 2.146056565684D+03
 Symmetry A2   KE= 8.374742917308D+01
 Symmetry B1   KE= 3.556343184035D+02
 Symmetry B2   KE= 7.191097412918D+02
 Unable to Open any file for archive entry.
 1\1\GINC-BS001\FOpt\RMP2-FC\3-21G\Cl2Se1\PNATT\10-Aug-2026\0\\# opt fr
 eq=hpmodes mp2/3-21g geom=connectivity\\Title Card Required\\0,1\Se,0.
 ,0.,0.799369314\Cl,0.,1.8143308199,-0.711453802\Cl,0.,-1.8143308199,-0
 .711453802\\Version=ES64L-G16RevC.01\State=1-A1\HF=-3303.0624564\MP2=-
 3303.213295\RMSD=4.763e-09\RMSF=1.074e-05\Dipole=0.,0.,0.9419623\PG=C0
 2V [C2(Se1),SGV(Cl2)]\\@
 The archive entry for this job was punched.


 Everywhere is walking distance if you have the time.
                                    -- Steven Wright
 Job cpu time:       0 days  0 hours  0 minutes 12.7 seconds.
 Elapsed time:       0 days  0 hours  0 minutes 12.2 seconds.
 File lengths (MBytes):  RWF=      6 Int=      0 D2E=      0 Chk=      1 Scr=      1
 Normal termination of Gaussian 16 at Mon Aug 10 16:49:19 2026.
 Link1:  Proceeding to internal job step number  2.
 -------------------------------------------------------------------
 #N Geom=AllCheck Guess=TCheck SCRF=Check GenChk RMP2(FC)/3-21G Freq
 -------------------------------------------------------------------
 1/10=4,29=7,30=1,38=1,40=1/1,3;
 2/12=2,40=1/2;
 3/5=5,11=1,14=-4,25=1,30=1,70=2,71=2,116=1,140=1/1,2,3;
 4/5=101/1;
 5/5=2,38=6,98=1/2;
 8/6=3,8=1,10=1,19=11,30=-1/1;
 9/15=3,16=-3/6;
 11/6=1,8=1,15=11,17=12,24=-1,27=1,28=-2,29=300,32=6,42=3/1,2,10;
 10/6=2,21=1/2;
 8/6=4,8=1,10=1,19=11,30=-1/11,4;
 10/5=1,20=4/2;
 11/12=2,14=11,16=1,17=2,28=-2,42=3,76=2/2,10,12;
 6/7=2,8=2,9=2,10=2/1;
 7/8=11,10=1,12=2,25=1,44=2/1,2,3,16;
 1/10=4,30=1/3;
 99//99;
 Structure from the checkpoint file:  "SeCl2.chk"
 -------------------
 Title Card Required
 -------------------
 Charge =  0 Multiplicity = 1
 Redundant internal coordinates found in file.  (old form).
 Se,0,0.,0.,0.799369314
 Cl,0,0.,1.8143308199,-0.711453802
 Cl,0,0.,-1.8143308199,-0.711453802
 Recover connectivity data from disk.

 GradGradGradGradGradGradGradGradGradGradGradGradGradGradGradGradGradGrad
 Berny optimization.
 Initialization pass.
                           ----------------------------
                           !    Initial Parameters    !
                           ! (Angstroms and Degrees)  !
 --------------------------                            --------------------------
 ! Name  Definition              Value          Derivative Info.                !
 --------------------------------------------------------------------------------
 ! R1    R(1,2)                  2.361          calculate D2E/DX2 analytically  !
 ! R2    R(1,3)                  2.361          calculate D2E/DX2 analytically  !
 ! A1    A(2,1,3)              100.4306         calculate D2E/DX2 analytically  !
 --------------------------------------------------------------------------------
 Trust Radius=3.00D-01 FncErr=1.00D-07 GrdErr=1.00D-07 EigMax=2.50D+02 EigMin=1.00D-04
 Number of steps in this run=      2 maximum allowed number of steps=      2.
 GradGradGradGradGradGradGradGradGradGradGradGradGradGradGradGradGradGrad

                          Input orientation:                          
 ---------------------------------------------------------------------
 Center     Atomic      Atomic             Coordinates (Angstroms)
 Number     Number       Type             X           Y           Z
 ---------------------------------------------------------------------
      1         34           0        0.000000   -0.000000    0.799369
      2         17           0        0.000000    1.814331   -0.711454
      3         17           0       -0.000000   -1.814331   -0.711454
 ---------------------------------------------------------------------
                    Distance matrix (angstroms):
                    1          2          3
     1  Se   0.000000
     2  Cl   2.361013   0.000000
     3  Cl   2.361013   3.628662   0.000000
 Stoichiometry    Cl2Se
 Framework group  C2V[C2(Se),SGV(Cl2)]
 Deg. of freedom     2
 Full point group                 C2V     NOp   4
 Largest Abelian subgroup         C2V     NOp   4
 Largest concise Abelian subgroup C2      NOp   2
                         Standard orientation:                         
 ---------------------------------------------------------------------
 Center     Atomic      Atomic             Coordinates (Angstroms)
 Number     Number       Type             X           Y           Z
 ---------------------------------------------------------------------
      1         34           0       -0.000000   -0.000000    0.755412
      2         17           0        0.000000    1.814331   -0.755412
      3         17           0       -0.000000   -1.814331   -0.755412
 ---------------------------------------------------------------------
 Rotational constants (GHZ):           5.9362339           2.1951938           1.6025702
 Standard basis: 3-21G (6D, 7F)
 There are    22 symmetry adapted cartesian basis functions of A1  symmetry.
 There are     4 symmetry adapted cartesian basis functions of A2  symmetry.
 There are     8 symmetry adapted cartesian basis functions of B1  symmetry.
 There are    15 symmetry adapted cartesian basis functions of B2  symmetry.
 There are    22 symmetry adapted basis functions of A1  symmetry.
 There are     4 symmetry adapted basis functions of A2  symmetry.
 There are     8 symmetry adapted basis functions of B1  symmetry.
 There are    15 symmetry adapted basis functions of B2  symmetry.
    49 basis functions,   111 primitive gaussians,    49 cartesian basis functions
    34 alpha electrons       34 beta electrons
       nuclear repulsion energy       301.2415441065 Hartrees.
 NAtoms=    3 NActive=    3 NUniq=    2 SFac= 2.25D+00 NAtFMM=   60 NAOKFM=F Big=F
 Integral buffers will be    131072 words long.
 Raffenetti 1 integral format.
 Two-electron integral symmetry is turned on.
 One-electron integrals computed using PRISM.
 NBasis=    49 RedAO= T EigKep=  6.38D-03  NBF=    22     4     8    15
 NBsUse=    49 1.00D-06 EigRej= -1.00D+00 NBFU=    22     4     8    15
 Initial guess from the checkpoint file:  "SeCl2.chk"
 B after Tr=    -0.000000    0.000000   -0.000000
         Rot=    1.000000    0.000000   -0.000000    0.000000 Ang=   0.00 deg.
 Initial guess orbital symmetries:
       Occupied  (A1) (B2) (A1) (A1) (B2) (A1) (B1) (B2) (A1) (A1)
                 (B2) (A1) (B2) (A1) (A2) (B1) (B2) (A1) (B1) (B2)
                 (A1) (A2) (B1) (A1) (A1) (B2) (A1) (B2) (A1) (B1)
                 (A2) (B2) (A1) (B1)
       Virtual   (A1) (B2) (A1) (B2) (B1) (A1) (B2) (A1) (A2) (B1)
                 (B2) (A1) (A1) (B2) (A1)
 Keep R1 ints in memory in symmetry-blocked form, NReq=1584645.
 Requested convergence on RMS density matrix=1.00D-08 within 128 cycles.
 Requested convergence on MAX density matrix=1.00D-06.
 Requested convergence on             energy=1.00D-06.
 No special actions if energy rises.
 SCF Done:  E(RHF) =  -3303.06245635     A.U. after    1 cycles
            NFock=  1  Conv=0.88D-09     -V/T= 1.9996
 ExpMin= 1.37D-01 ExpMax= 5.75D+03 ExpMxC= 5.75D+03 IAcc=3 IRadAn=         5 AccDes= 0.00D+00
 HarFok:  IExCor=  205 AccDes= 0.00D+00 IRadAn=         5 IDoV=-2 UseB2=F ITyADJ=14
 ICtDFT= 12500011 ScaDFX=  1.000000  1.000000  1.000000  1.000000
 Range of M.O.s used for correlation:    20    49
 NBasis=    49 NAE=    34 NBE=    34 NFC=    19 NFV=     0
 NROrb=     30 NOA=    15 NOB=    15 NVA=    15 NVB=    15
 Disk-based method using ON**2 memory for 15 occupieds at a time.
 Permanent disk used for amplitudes=      319005 words.
 Estimated scratch disk usage=     2688746 words.
 Actual    scratch disk usage=     2688746 words.
 JobTyp=1 Pass  1:  I=  20 to  34 NPSUse=  1 ParTrn=F ParDer=F DoDerP=T.
 (rs|ai) integrals will be sorted in core.
 Spin components of T(2) and E(2):
     alpha-alpha T2 =       0.8267966081D-02 E2=     -0.1674478453D-01
     alpha-beta  T2 =       0.6760814992D-01 E2=     -0.1173491167D+00
     beta-beta   T2 =       0.8267966081D-02 E2=     -0.1674478453D-01
 ANorm=    0.1041222398D+01
 E2 =    -0.1508386857D+00 EUMP2 =    -0.33032132950386D+04
 G2DrvN: will do     4 centers at a time, making    1 passes.
 Calling FoFCou, ICntrl=  3107 FMM=F I1Cent=   0 AccDes= 0.00D+00.
 End of G2Drv F.D. properties file   721 does not exist.
 End of G2Drv F.D. properties file   722 does not exist.
 End of G2Drv F.D. properties file   788 does not exist.
          IDoAtm=111
          Differentiating once with respect to electric field.
                with respect to dipole field.
          Differentiating once with respect to nuclear coordinates.
 Keep R1 ints in memory in symmetry-blocked form, NReq=1585010.
          There are    12 degrees of freedom in the 1st order CPHF.  IDoFFX=6 NUNeed=    12.
      9 vectors produced by pass  0 Test12= 4.25D-15 8.33D-09 XBig12= 3.29D+01 3.68D+00.
 AX will form     9 AO Fock derivatives at one time.
      9 vectors produced by pass  1 Test12= 4.25D-15 8.33D-09 XBig12= 1.73D+00 6.01D-01.
      9 vectors produced by pass  2 Test12= 4.25D-15 8.33D-09 XBig12= 1.09D-01 1.06D-01.
      9 vectors produced by pass  3 Test12= 4.25D-15 8.33D-09 XBig12= 5.91D-04 7.74D-03.
      9 vectors produced by pass  4 Test12= 4.25D-15 8.33D-09 XBig12= 3.77D-06 6.25D-04.
      9 vectors produced by pass  5 Test12= 4.25D-15 8.33D-09 XBig12= 2.23D-08 6.21D-05.
      9 vectors produced by pass  6 Test12= 4.25D-15 8.33D-09 XBig12= 1.26D-10 3.05D-06.
      3 vectors produced by pass  7 Test12= 4.25D-15 8.33D-09 XBig12= 4.91D-13 2.53D-07.
      1 vectors produced by pass  8 Test12= 4.25D-15 8.33D-09 XBig12= 2.08D-15 1.60D-08.
 InvSVY:  IOpt=1 It=  1 EMax= 3.33D-16
 Solved reduced A of dimension    67 with     9 vectors.
 End of Minotr F.D. properties file   721 does not exist.
 End of Minotr F.D. properties file   722 does not exist.
 End of Minotr F.D. properties file   788 does not exist.
 MDV=   104857600.
 Form MO integral derivatives with frozen-active canonical formalism.
 Discarding MO integrals.
 Reordered first order wavefunction length =       520200
 In DefCFB: NBatch=  1 ICI= 34 ICA= 15 LFMax= 34
            Large arrays: LIAPS=     4898040 LIARS=     4023390 words.
 Semi-Direct transformation.
 ModeAB=           4 MOrb=            34 LenV=     104654635
 LASXX=       816306 LTotXX=      816306 LenRXX=     1866481
 LTotAB=     1050175 MaxLAS=     1292816 LenRXY=           0
 NonZer=     2682787 LenScr=     4715520 LnRSAI=     1292816
 LnScr1=     2584576 LExtra=           0 Total=     10459393
 MaxDsk=          -1 SrtSym=           T ITran=            4
 JobTyp=0 Pass  1:  I=   1 to  34.
 (rs|ai) integrals will be sorted in core.
 Spin components of T(2) and E(2):
     alpha-alpha T2 =       0.8267966081D-02 E2=     -0.1674478453D-01
     alpha-beta  T2 =       0.6760814992D-01 E2=     -0.1173491167D+00
     beta-beta   T2 =       0.8267966081D-02 E2=     -0.1674478453D-01
 ANorm=    0.1472510837D+01
 E2 =    -0.1508386857D+00 EUMP2 =    -0.33032132950386D+04
          IDoAtm=111
          Differentiating once with respect to electric field.
                with respect to dipole field.
          Differentiating once with respect to nuclear coordinates.
          There are     1 degrees of freedom in the 1st order CPHF.  IDoFFX=0 NUNeed=     1.
 LinEq1:  Iter=  0 NonCon=     1 RMS=6.99D-03 Max=9.07D-02 NDo=     1
 LinEq1:  Iter=  1 NonCon=     1 RMS=2.52D-03 Max=3.69D-02 NDo=     1
 LinEq1:  Iter=  2 NonCon=     1 RMS=5.62D-04 Max=4.62D-03 NDo=     1
 LinEq1:  Iter=  3 NonCon=     1 RMS=9.59D-05 Max=1.09D-03 NDo=     1
 LinEq1:  Iter=  4 NonCon=     1 RMS=1.80D-05 Max=2.03D-04 NDo=     1
 LinEq1:  Iter=  5 NonCon=     1 RMS=3.74D-06 Max=4.36D-05 NDo=     1
 LinEq1:  Iter=  6 NonCon=     1 RMS=5.42D-07 Max=5.20D-06 NDo=     1
 LinEq1:  Iter=  7 NonCon=     1 RMS=6.82D-08 Max=4.74D-07 NDo=     1
 LinEq1:  Iter=  8 NonCon=     1 RMS=7.13D-09 Max=6.27D-08 NDo=     1
 LinEq1:  Iter=  9 NonCon=     1 RMS=1.05D-09 Max=9.86D-09 NDo=     1
 LinEq1:  Iter= 10 NonCon=     0 RMS=9.15D-11 Max=6.34D-10 NDo=     1
 Linear equations converged to 1.000D-10 1.000D-09 after    10 iterations.
 End of Minotr F.D. properties file   721 does not exist.
 End of Minotr F.D. properties file   722 does not exist.
 End of Minotr F.D. properties file   788 does not exist.
 Symmetrizing basis deriv contribution to polar:
 IMax=3 JMax=2 DiffMx= 0.00D+00
 G2DrvN: will do     4 centers at a time, making    1 passes.
 Calling FoFCou, ICntrl=  3107 FMM=F I1Cent=   0 AccDes= 0.00D+00.
 End of G2Drv F.D. properties file   721 does not exist.
 End of G2Drv F.D. properties file   722 does not exist.
 End of G2Drv F.D. properties file   788 does not exist.
 R2 and R3 integrals will be kept in memory, NReq=     2321850.
 DD1Dir will call FoFMem   1 times, MxPair=      1190
 NAB=   595 NAA=     0 NBB=     0.
 Discarding MO integrals.

 **********************************************************************

            Population analysis using the SCF Density.

 **********************************************************************

 Orbital symmetries:
       Occupied  (A1) (B2) (A1) (A1) (B2) (A1) (B1) (B2) (A1) (A1)
                 (B2) (A1) (B2) (A1) (A2) (B1) (B2) (A1) (B1) (B2)
                 (A1) (A2) (B1) (A1) (A1) (B2) (A1) (B2) (A1) (B1)
                 (A2) (B2) (A1) (B1)
       Virtual   (A1) (B2) (A1) (B2) (B1) (A1) (B2) (A1) (A2) (B1)
                 (B2) (A1) (A1) (B2) (A1)
 The electronic state is 1-A1.
 Alpha  occ. eigenvalues -- -458.09053-104.14404-104.14398 -60.51082 -54.01189
 Alpha  occ. eigenvalues --  -54.01145 -54.00913 -10.53483 -10.53461  -8.99437
 Alpha  occ. eigenvalues --   -7.99833  -7.99815  -7.99413  -7.99388  -7.99372
 Alpha  occ. eigenvalues --   -7.99371  -6.70195  -6.69928  -6.68567  -2.67809
 Alpha  occ. eigenvalues --   -2.67773  -2.66151  -2.65883  -2.65442  -1.13354
 Alpha  occ. eigenvalues --   -1.09719  -0.90219  -0.54185  -0.52810  -0.52677
 Alpha  occ. eigenvalues --   -0.49129  -0.47429  -0.46903  -0.40269
 Alpha virt. eigenvalues --   -0.04022  -0.02254   0.57539   0.63858   0.64206
 Alpha virt. eigenvalues --    0.65067   0.71756   0.73692   0.78839   0.80449
 Alpha virt. eigenvalues --    0.84123   0.84763   0.87804   0.95380  17.44019
          Condensed to atoms (all electrons):
               1          2          3
     1  Se  33.319716   0.093467   0.093467
     2  Cl   0.093467  17.172556  -0.019349
     3  Cl   0.093467  -0.019349  17.172556
 Mulliken charges:
               1
     1  Se   0.493349
     2  Cl  -0.246675
     3  Cl  -0.246675
 Sum of Mulliken charges =  -0.00000
 Mulliken charges with hydrogens summed into heavy atoms:
               1
     1  Se   0.493349
     2  Cl  -0.246675
     3  Cl  -0.246675
 APT charges:
               1
     1  Se   0.544226
     2  Cl  -0.272113
     3  Cl  -0.272113
 Sum of APT charges =  -0.00000
 APT charges with hydrogens summed into heavy atoms:
               1
     1  Se   0.544226
     2  Cl  -0.272113
     3  Cl  -0.272113
 Electronic spatial extent (au):  <R**2>=            640.7382
 Charge=              0.0000 electrons
 Dipole moment (field-independent basis, Debye):
    X=              0.0000    Y=              0.0000    Z=              2.8102  Tot=              2.8102
 Quadrupole moment (field-independent basis, Debye-Ang):
   XX=            -46.1077   YY=            -48.7059   ZZ=            -43.0380
   XY=             -0.0000   XZ=             -0.0000   YZ=              0.0000
 Traceless Quadrupole moment (field-independent basis, Debye-Ang):
   XX=             -0.1572   YY=             -2.7553   ZZ=              2.9125
   XY=             -0.0000   XZ=             -0.0000   YZ=              0.0000
 Octapole moment (field-independent basis, Debye-Ang**2):
  XXX=              0.0000  YYY=              0.0000  ZZZ=             24.0924  XYY=              0.0000
  XXY=             -0.0000  XXZ=              5.8397  XZZ=              0.0000  YZZ=             -0.0000
  YYZ=              9.9231  XYZ=              0.0000
 Hexadecapole moment (field-independent basis, Debye-Ang**3):
 XXXX=            -55.1452 YYYY=           -573.1896 ZZZZ=           -190.4844 XXXY=             -0.0000
 XXXZ=             -0.0000 YYYX=             -0.0000 YYYZ=              0.0000 ZZZX=             -0.0000
 ZZZY=             -0.0000 XXYY=           -105.9112 XXZZ=            -43.7106 YYZZ=           -120.7049
 XXYZ=              0.0000 YYXZ=             -0.0000 ZZXY=             -0.0000
 N-N= 3.012415441065D+02 E-N=-8.499272131560D+03  KE= 3.304548054530D+03
 Symmetry A1   KE= 2.146056565680D+03
 Symmetry A2   KE= 8.374742915399D+01
 Symmetry B1   KE= 3.556343184413D+02
 Symmetry B2   KE= 7.191097412542D+02
  Exact polarizability:       8.770       0.000      70.400       0.000       0.000      40.274
 Approx polarizability:       6.761       0.000      62.844       0.000      -0.000      41.424
 Calling FoFJK, ICntrl=  10100127 FMM=F ISym2X=1 I1Cent= 0 IOpClX= 0 NMat=1 NMatS=1 NMatT=0.
 Full mass-weighted force constant matrix:
 Low frequencies ---   -2.3819   -1.8298   -1.5837   -0.0139   -0.0119    0.0069
 Low frequencies ---  119.9398  351.3412  351.9962
 Diagonal vibrational polarizability:
        0.0000000       4.1381845       3.9982899
 Harmonic frequencies (cm**-1), IR intensities (KM/Mole), Raman scattering
 activities (A**4/AMU), depolarization ratios for plane and unpolarized
 incident light, reduced masses (AMU), force constants (mDyne/A),
 and normal coordinates:
                           1         2         3
                          A1        B2        A1
       Frequencies ---   119.9398  351.3412  351.9962
    Reduced masses ---    39.3035   43.2583   41.2467
   Force constants ---     0.3331    3.1461    3.0110
    IR Intensities ---     1.5805   18.9817    4.7956
 Coord Atom Element:
   1     1    34         -0.00000   0.00000   0.00000
   2     1    34          0.00000   0.42945   0.00000
   3     1    34         -0.31055  -0.00000   0.37373
   1     2    17          0.00000  -0.00000  -0.00000
   2     2    17          0.57084  -0.49072   0.49779
   3     2    17          0.35485   0.40863  -0.42705
   1     3    17         -0.00000  -0.00000  -0.00000
   2     3    17         -0.57084  -0.49072  -0.49779
   3     3    17          0.35485  -0.40863  -0.42705
 Harmonic frequencies (cm**-1), IR intensities (KM/Mole), Raman scattering
 activities (A**4/AMU), depolarization ratios for plane and unpolarized
 incident light, reduced masses (AMU), force constants (mDyne/A),
 and normal coordinates:
                      1                      2                      3
                     A1                     B2                     A1
 Frequencies --    119.9398               351.3412               351.9962
 Red. masses --     39.3035                43.2583                41.2467
 Frc consts  --      0.3331                 3.1461                 3.0110
 IR Inten    --      1.5805                18.9817                 4.7956
  Atom  AN      X      Y      Z        X      Y      Z        X      Y      Z
     1  34    -0.00   0.00  -0.31     0.00   0.43  -0.00     0.00   0.00   0.37
     2  17     0.00   0.57   0.35    -0.00  -0.49   0.41    -0.00   0.50  -0.43
     3  17    -0.00  -0.57   0.35    -0.00  -0.49  -0.41    -0.00  -0.50  -0.43

 -------------------
 - Thermochemistry -
 -------------------
 Temperature   298.150 Kelvin.  Pressure   1.00000 Atm.
 Atom     1 has atomic number 34 and mass  79.91652
 Atom     2 has atomic number 17 and mass  34.96885
 Atom     3 has atomic number 17 and mass  34.96885
 Molecular mass:   149.85423 amu.
 Principal axes and moments of inertia in atomic units:
                           1         2         3
     Eigenvalues --   304.02124 822.132981126.15422
           X           -0.00000   0.00000   1.00000
           Y            1.00000   0.00000   0.00000
           Z           -0.00000   1.00000   0.00000
 This molecule is an asymmetric top.
 Rotational symmetry number  2.
 Rotational temperatures (Kelvin)      0.28489     0.10535     0.07691
 Rotational constants (GHZ):           5.93623     2.19519     1.60257
 Zero-point vibrational energy       4924.3 (Joules/Mol)
                                    1.17693 (Kcal/Mol)
 Warning -- explicit consideration of   3 degrees of freedom as
           vibrations may cause significant error
 Vibrational temperatures:    172.57   505.50   506.44
          (Kelvin)
 
 Zero-point correction=                           0.001876 (Hartree/Particle)
 Thermal correction to Energy=                    0.006124
 Thermal correction to Enthalpy=                  0.007068
 Thermal correction to Gibbs Free Energy=        -0.027188
 Sum of electronic and zero-point Energies=          -3303.211419
 Sum of electronic and thermal Energies=             -3303.207171
 Sum of electronic and thermal Enthalpies=           -3303.206227
 Sum of electronic and thermal Free Energies=        -3303.240483
 
                     E (Thermal)             CV                S
                      KCal/Mol        Cal/Mol-Kelvin    Cal/Mol-Kelvin
 Total                    3.843             11.038             72.099
 Electronic               0.000              0.000              0.000
 Translational            0.889              2.981             40.924
 Rotational               0.889              2.981             25.757
 Vibrational              2.066              5.076              5.419
 Vibration     1          0.609              1.933              3.101
 Vibration     2          0.728              1.573              1.160
 Vibration     3          0.729              1.571              1.157
                       Q            Log10(Q)             Ln(Q)
 Total Bot       0.320411D+13         12.505707         28.795456
 Total V=0       0.233564D+14         13.368406         30.781892
 Vib (Bot)       0.467964D+00         -0.329787         -0.759364
 Vib (Bot)    1  0.170386D+01          0.231433          0.532894
 Vib (Bot)    2  0.524671D+00         -0.280113         -0.644984
 Vib (Bot)    3  0.523471D+00         -0.281107         -0.647274
 Vib (V=0)       0.341123D+01          0.532911          1.227073
 Vib (V=0)    1  0.227570D+01          0.357116          0.822290
 Vib (V=0)    2  0.122476D+01          0.088052          0.202746
 Vib (V=0)    3  0.122389D+01          0.087744          0.202037
 Electronic      0.100000D+01          0.000000          0.000000
 Translational   0.721037D+08          7.857957         18.093616
 Rotational      0.949593D+05          4.977538         11.461204
 ***** Axes restored to original set *****
 -------------------------------------------------------------------
 Center     Atomic                   Forces (Hartrees/Bohr)
 Number     Number              X              Y              Z
 -------------------------------------------------------------------
      1       34          -0.000000000   -0.000000000    0.000022856
      2       17          -0.000000000    0.000011285   -0.000011428
      3       17           0.000000000   -0.000011285   -0.000011428
 -------------------------------------------------------------------
 Cartesian Forces:  Max     0.000022856 RMS     0.000010741
 FormGI is forming the generalized inverse of G from B-inverse, IUseBI=4.

 GradGradGradGradGradGradGradGradGradGradGradGradGradGradGradGradGradGrad
 Berny optimization.
 Internal  Forces:  Max     0.000015985 RMS     0.000013657
 Search for a local minimum.
 Step number   1 out of a maximum of    2
 All quantities printed in internal units (Hartrees-Bohrs-Radians)
 Second derivative matrix not updated -- analytic derivatives used.
 The second derivative matrix:
                          R1        R2        A1
           R1           0.11439
           R2           0.00669   0.11439
           A1           0.00629   0.00629   0.13752
 ITU=  0
     Eigenvalues ---    0.10770   0.11720   0.14141
 Angle between quadratic step and forces=   1.11 degrees.
 Linear search not attempted -- first point.
 Iteration  1 RMS(Cart)=  0.00009242 RMS(Int)=  0.00000000
 Iteration  2 RMS(Cart)=  0.00000000 RMS(Int)=  0.00000000
 ClnCor:  largest displacement from symmetrization is 1.72D-14 for atom     3.
 Variable       Old X    -DE/DX   Delta X   Delta X   Delta X     New X
                                 (Linear)    (Quad)   (Total)
    R1        4.46167   0.00002   0.00000   0.00014   0.00014   4.46180
    R2        4.46167   0.00002   0.00000   0.00014   0.00014   4.46180
    A1        1.75284  -0.00001   0.00000  -0.00006  -0.00006   1.75278
         Item               Value     Threshold  Converged?
 Maximum Force            0.000016     0.000450     YES
 RMS     Force            0.000014     0.000300     YES
 Maximum Displacement     0.000130     0.001800     YES
 RMS     Displacement     0.000092     0.001200     YES
 Predicted change in Energy=-2.381775D-09
 Optimization completed.
    -- Stationary point found.
                           ----------------------------
                           !   Optimized Parameters   !
                           ! (Angstroms and Degrees)  !
 --------------------------                            --------------------------
 ! Name  Definition              Value          Derivative Info.                !
 --------------------------------------------------------------------------------
 ! R1    R(1,2)                  2.361          -DE/DX =    0.0                 !
 ! R2    R(1,3)                  2.361          -DE/DX =    0.0                 !
 ! A1    A(2,1,3)              100.4306         -DE/DX =    0.0                 !
 --------------------------------------------------------------------------------
 GradGradGradGradGradGradGradGradGradGradGradGradGradGradGradGradGradGrad


 ----------------------------------------------------------------------

 Electric dipole moment (input orientation):
 (Debye = 10**-18 statcoulomb cm , SI units = C m)
                  (au)            (Debye)         (10**-30 SI)
   Tot        0.941962D+00      0.239423D+01      0.798629D+01
   x          0.000000D+00      0.000000D+00      0.000000D+00
   y          0.000000D+00      0.000000D+00      0.000000D+00
   z          0.941962D+00      0.239423D+01      0.798629D+01

 Dipole polarizability, Alpha (input orientation).
 (esu units = cm**3 , SI units = C**2 m**2 J**-1)
 Alpha(0;0):
               (au)            (10**-24 esu)      (10**-40 SI)
   iso        0.398147D+02      0.589993D+01      0.656456D+01
   aniso      0.533768D+02      0.790963D+01      0.880065D+01
   xx         0.877046D+01      0.129965D+01      0.144605D+01
   yx         0.000000D+00      0.000000D+00      0.000000D+00
   yy         0.703996D+02      0.104321D+02      0.116073D+02
   zx         0.000000D+00      0.000000D+00      0.000000D+00
   zy         0.000000D+00      0.000000D+00      0.000000D+00
   zz         0.402741D+02      0.596800D+01      0.664030D+01

 ----------------------------------------------------------------------

 Dipole orientation:
    34         -0.00000000          0.00000000          1.51058908
    17          0.00000000          3.42858835         -1.34445284
    17         -0.00000000         -3.42858835         -1.34445284

 Electric dipole moment (dipole orientation):
 (Debye = 10**-18 statcoulomb cm , SI units = C m)
                  (au)            (Debye)         (10**-30 SI)
   Tot        0.941962D+00      0.239423D+01      0.798629D+01
   x          0.000000D+00      0.000000D+00      0.000000D+00
   y          0.000000D+00      0.000000D+00      0.000000D+00
   z          0.941962D+00      0.239423D+01      0.798629D+01

 Dipole polarizability, Alpha (dipole orientation).
 (esu units = cm**3 , SI units = C**2 m**2 J**-1)
 Alpha(0;0):
               (au)            (10**-24 esu)      (10**-40 SI)
   iso        0.398147D+02      0.589993D+01      0.656456D+01
   aniso      0.533768D+02      0.790963D+01      0.880065D+01
   xx         0.877046D+01      0.129965D+01      0.144605D+01
   yx         0.000000D+00      0.000000D+00      0.000000D+00
   yy         0.703996D+02      0.104321D+02      0.116073D+02
   zx         0.000000D+00      0.000000D+00      0.000000D+00
   zy         0.000000D+00      0.000000D+00      0.000000D+00
   zz         0.402741D+02      0.596800D+01      0.664030D+01

 ----------------------------------------------------------------------
 Unable to Open any file for archive entry.
 1\1\GINC-BS001\Freq\RMP2-FC\3-21G\Cl2Se1\PNATT\10-Aug-2026\0\\#N Geom=
 AllCheck Guess=TCheck SCRF=Check GenChk RMP2(FC)/3-21G Freq\\Title Car
 d Required\\0,1\Se,0.,0.,0.799369314\Cl,0.,1.8143308199,-0.711453802\C
 l,0.,-1.8143308199,-0.711453802\\Version=ES64L-G16RevC.01\State=1-A1\H
 F=-3303.0624564\MP2=-3303.213295\RMSD=8.837e-10\RMSF=1.074e-05\ZeroPoi
 nt=0.0018756\Thermal=0.0061242\ETot=-3303.2071709\HTot=-3303.2062267\G
 Tot=-3303.2404833\Dipole=0.,0.,0.9419623\DipoleDeriv=0.3299294,0.,0.,0
 .,0.8171898,0.,0.,0.,0.4855602,-0.1649647,0.,0.,0.,-0.4085949,0.061893
 1,0.,0.2028749,-0.2427801,-0.1649647,0.,0.,0.,-0.4085949,-0.0618931,0.
 ,-0.2028749,-0.2427801\Polar=8.7704615,0.,70.3995678,0.,0.,40.2740926\
 PG=C02V [C2(Se1),SGV(Cl2)]\NImag=0\\-0.00000801,0.,0.12719275,0.,0.,0.
 10993541,0.00000400,0.,0.,-0.00000366,0.,-0.06359638,0.05223895,0.,0.0
 7176284,0.,0.05296108,-0.05496770,0.,-0.05260002,0.04953299,0.00000400
 ,0.,0.,-0.00000034,0.,0.,-0.00000366,0.,-0.06359638,-0.05223895,0.,-0.
 00816646,-0.00036107,0.,0.07176284,0.,-0.05296108,-0.05496770,0.,0.000
 36107,0.00543472,0.,0.05260002,0.04953299\\0.,0.,-0.00002286,0.,-0.000
 01129,0.00001143,0.,0.00001129,0.00001143\\\@
 The archive entry for this job was punched.


 WAR ES EIN GOTT DER DIESE ZEICHEN SCHRIEB?
          - LUDWIG BOLTZMANN, QUOTING GOETHE, ABOUT MAXWELL'S EQUATIONS.
 Job cpu time:       0 days  0 hours  0 minutes  9.8 seconds.
 Elapsed time:       0 days  0 hours  0 minutes  9.6 seconds.
 File lengths (MBytes):  RWF=     91 Int=      0 D2E=      0 Chk=      1 Scr=      1
 Normal termination of Gaussian 16 at Mon Aug 10 16:49:29 2026.
