 Entering Gaussian System, Link 0=g16
 Input=SF2.gjf
 Output=SF2.log
 Initial command:
 /opt/g16/g16/l1.exe "/home/pnatt/scratch/Gau-1493285.inp" -scrdir="/home/pnatt/scratch/"
 Entering Link 1 = /opt/g16/g16/l1.exe PID=   1493287.
  
 Copyright (c) 1988-2019, Gaussian, Inc.  All Rights Reserved.
  
 This is part of the Gaussian(R) 16 program.  It is based on
 the Gaussian(R) 09 system (copyright 2009, Gaussian, Inc.),
 the Gaussian(R) 03 system (copyright 2003, Gaussian, Inc.),
 the Gaussian(R) 98 system (copyright 1998, Gaussian, Inc.),
 the Gaussian(R) 94 system (copyright 1995, Gaussian, Inc.),
 the Gaussian 92(TM) system (copyright 1992, Gaussian, Inc.),
 the Gaussian 90(TM) system (copyright 1990, Gaussian, Inc.),
 the Gaussian 88(TM) system (copyright 1988, Gaussian, Inc.),
 the Gaussian 86(TM) system (copyright 1986, Carnegie Mellon
 University), and the Gaussian 82(TM) system (copyright 1983,
 Carnegie Mellon University). Gaussian is a federally registered
 trademark of Gaussian, Inc.
  
 This software contains proprietary and confidential information,
 including trade secrets, belonging to Gaussian, Inc.
  
 This software is provided under written license and may be
 used, copied, transmitted, or stored only in accord with that
 written license.
  
 The following legend is applicable only to US Government
 contracts under FAR:
  
                    RESTRICTED RIGHTS LEGEND
  
 Use, reproduction and disclosure by the US Government is
 subject to restrictions as set forth in subparagraphs (a)
 and (c) of the Commercial Computer Software - Restricted
 Rights clause in FAR 52.227-19.
  
 Gaussian, Inc.
 340 Quinnipiac St., Bldg. 40, Wallingford CT 06492
  
  
 ---------------------------------------------------------------
 Warning -- This program may not be used in any manner that
 competes with the business of Gaussian, Inc. or will provide
 assistance to any competitor of Gaussian, Inc.  The licensee
 of this program is prohibited from giving any competitor of
 Gaussian, Inc. access to this program.  By using this program,
 the user acknowledges that Gaussian, Inc. is engaged in the
 business of creating and licensing software in the field of
 computational chemistry and represents and warrants to the
 licensee that it is not a competitor of Gaussian, Inc. and that
 it will not use this program in any manner prohibited above.
 ---------------------------------------------------------------
  

 Cite this work as:
 Gaussian 16, Revision C.01,
 M. J. Frisch, G. W. Trucks, H. B. Schlegel, G. E. Scuseria, 
 M. A. Robb, J. R. Cheeseman, G. Scalmani, V. Barone, 
 G. A. Petersson, H. Nakatsuji, X. Li, M. Caricato, A. V. Marenich, 
 J. Bloino, B. G. Janesko, R. Gomperts, B. Mennucci, H. P. Hratchian, 
 J. V. Ortiz, A. F. Izmaylov, J. L. Sonnenberg, D. Williams-Young, 
 F. Ding, F. Lipparini, F. Egidi, J. Goings, B. Peng, A. Petrone, 
 T. Henderson, D. Ranasinghe, V. G. Zakrzewski, J. Gao, N. Rega, 
 G. Zheng, W. Liang, M. Hada, M. Ehara, K. Toyota, R. Fukuda, 
 J. Hasegawa, M. Ishida, T. Nakajima, Y. Honda, O. Kitao, H. Nakai, 
 T. Vreven, K. Throssell, J. A. Montgomery, Jr., J. E. Peralta, 
 F. Ogliaro, M. J. Bearpark, J. J. Heyd, E. N. Brothers, K. N. Kudin, 
 V. N. Staroverov, T. A. Keith, R. Kobayashi, J. Normand, 
 K. Raghavachari, A. P. Rendell, J. C. Burant, S. S. Iyengar, 
 J. Tomasi, M. Cossi, J. M. Millam, M. Klene, C. Adamo, R. Cammi, 
 J. W. Ochterski, R. L. Martin, K. Morokuma, O. Farkas, 
 J. B. Foresman, and D. J. Fox, Gaussian, Inc., Wallingford CT, 2019.
 
 ******************************************
 Gaussian 16:  ES64L-G16RevC.01  3-Jul-2019
                10-Aug-2026 
 ******************************************
 %chk=SF2.chk
 ----------------------------------------------
 # opt freq=hpmodes mp2/3-21g geom=connectivity
 ----------------------------------------------
 1/18=20,19=15,38=1,57=2/1,3;
 2/9=110,12=2,17=6,18=5,40=1/2;
 3/5=5,11=9,25=1,30=1,71=1/1,2,3;
 4//1;
 5/5=2,38=5/2;
 8/6=4,10=1/1;
 9/15=2,16=-3/6;
 10/5=1/2;
 6/7=2,8=2,9=2,10=2/1;
 7/12=2/1,2,3,16;
 1/18=20,19=15/3(2);
 2/9=110/2;
 99//99;
 2/9=110/2;
 3/5=5,11=9,25=1,30=1,71=1/1,2,3;
 4/5=5,16=3,69=1/1;
 5/5=2,38=5/2;
 8/6=4,10=1/1;
 9/15=2,16=-3/6;
 10/5=1/2;
 7/12=2/1,2,3,16;
 1/18=20,19=15/3(-8);
 2/9=110/2;
 6/7=2,8=2,9=2,10=2/1;
 99/9=10/99;
 -------------------
 Title Card Required
 -------------------
 Symbolic Z-matrix:
 Charge =  0 Multiplicity = 1
 S                     0.        0.       -0.48599 
 F                     0.        1.29823   0.43199 
 F                     0.       -1.29823   0.43199 
 

 GradGradGradGradGradGradGradGradGradGradGradGradGradGradGradGradGradGrad
 Berny optimization.
 Initialization pass.
                           ----------------------------
                           !    Initial Parameters    !
                           ! (Angstroms and Degrees)  !
 --------------------------                            --------------------------
 ! Name  Definition              Value          Derivative Info.                !
 --------------------------------------------------------------------------------
 ! R1    R(1,2)                  1.59           estimate D2E/DX2                !
 ! R2    R(1,3)                  1.59           estimate D2E/DX2                !
 ! A1    A(2,1,3)              109.4712         estimate D2E/DX2                !
 --------------------------------------------------------------------------------
 Trust Radius=3.00D-01 FncErr=1.00D-07 GrdErr=1.00D-07 EigMax=2.50D+02 EigMin=1.00D-04
 Number of steps in this run=     20 maximum allowed number of steps=    100.
 GradGradGradGradGradGradGradGradGradGradGradGradGradGradGradGradGradGrad

                          Input orientation:                          
 ---------------------------------------------------------------------
 Center     Atomic      Atomic             Coordinates (Angstroms)
 Number     Number       Type             X           Y           Z
 ---------------------------------------------------------------------
      1         16           0        0.000000    0.000000   -0.485993
      2          9           0        0.000000    1.298230    0.431994
      3          9           0        0.000000   -1.298230    0.431994
 ---------------------------------------------------------------------
                    Distance matrix (angstroms):
                    1          2          3
     1  S    0.000000
     2  F    1.590000   0.000000
     3  F    1.590000   2.596459   0.000000
 Stoichiometry    F2S
 Framework group  C2V[C2(S),SGV(F2)]
 Deg. of freedom     2
 Full point group                 C2V     NOp   4
 Largest Abelian subgroup         C2V     NOp   4
 Largest concise Abelian subgroup C2      NOp   2
                         Standard orientation:                         
 ---------------------------------------------------------------------
 Center     Atomic      Atomic             Coordinates (Angstroms)
 Number     Number       Type             X           Y           Z
 ---------------------------------------------------------------------
      1         16           0       -0.000000    0.000000    0.485993
      2          9           0        0.000000    1.298230   -0.431994
      3          9           0       -0.000000   -1.298230   -0.431994
 ---------------------------------------------------------------------
 Rotational constants (GHZ):          34.5407083           7.8916373           6.4239376
 Standard basis: 3-21G (6D, 7F)
 There are    14 symmetry adapted cartesian basis functions of A1  symmetry.
 There are     2 symmetry adapted cartesian basis functions of A2  symmetry.
 There are     5 symmetry adapted cartesian basis functions of B1  symmetry.
 There are    10 symmetry adapted cartesian basis functions of B2  symmetry.
 There are    14 symmetry adapted basis functions of A1  symmetry.
 There are     2 symmetry adapted basis functions of A2  symmetry.
 There are     5 symmetry adapted basis functions of B1  symmetry.
 There are    10 symmetry adapted basis functions of B2  symmetry.
    31 basis functions,    57 primitive gaussians,    31 cartesian basis functions
    17 alpha electrons       17 beta electrons
       nuclear repulsion energy       112.3593544275 Hartrees.
 NAtoms=    3 NActive=    3 NUniq=    2 SFac= 2.25D+00 NAtFMM=   60 NAOKFM=F Big=F
 Integral buffers will be    131072 words long.
 Raffenetti 1 integral format.
 Two-electron integral symmetry is turned on.
 One-electron integrals computed using PRISM.
 NBasis=    31 RedAO= T EigKep=  9.70D-02  NBF=    14     2     5    10
 NBsUse=    31 1.00D-06 EigRej= -1.00D+00 NBFU=    14     2     5    10
 ExpMin= 1.42D-01 ExpMax= 1.21D+03 ExpMxC= 1.21D+03 IAcc=3 IRadAn=         5 AccDes= 0.00D+00
 Harris functional with IExCor=  205 and IRadAn=       5 diagonalized for initial guess.
 HarFok:  IExCor=  205 AccDes= 0.00D+00 IRadAn=         5 IDoV= 1 UseB2=F ITyADJ=14
 ICtDFT=  3500011 ScaDFX=  1.000000  1.000000  1.000000  1.000000
 FoFCou: FMM=F IPFlag=           0 FMFlag=      100000 FMFlg1=           0
         NFxFlg=           0 DoJE=T BraDBF=F KetDBF=T FulRan=T
         wScrn=  0.000000 ICntrl=       500 IOpCl=  0 I1Cent=   200000004 NGrid=           0
         NMat0=    1 NMatS0=      1 NMatT0=    0 NMatD0=    1 NMtDS0=    0 NMtDT0=    0
 Petite list used in FoFCou.
 Initial guess orbital symmetries:
       Occupied  (A1) (A1) (B2) (A1) (B2) (A1) (B1) (A1) (B2) (A1)
                 (B2) (A1) (B1) (A2) (B2) (A1) (B1)
       Virtual   (A1) (B2) (A1) (B2) (A1) (B1) (A2) (A1) (B2) (B1)
                 (B2) (A1) (B2) (A1)
 The electronic state of the initial guess is 1-A1.
 Keep R1 ints in memory in symmetry-blocked form, NReq=930069.
 Requested convergence on RMS density matrix=1.00D-08 within 128 cycles.
 Requested convergence on MAX density matrix=1.00D-06.
 Requested convergence on             energy=1.00D-06.
 No special actions if energy rises.
 SCF Done:  E(RHF) =  -593.272184177     A.U. after   11 cycles
            NFock= 11  Conv=0.15D-08     -V/T= 2.0011
 ExpMin= 1.42D-01 ExpMax= 1.21D+03 ExpMxC= 1.21D+03 IAcc=3 IRadAn=         5 AccDes= 0.00D+00
 HarFok:  IExCor=  205 AccDes= 0.00D+00 IRadAn=         5 IDoV=-2 UseB2=F ITyADJ=14
 ICtDFT= 12500011 ScaDFX=  1.000000  1.000000  1.000000  1.000000
 Range of M.O.s used for correlation:     8    31
 NBasis=    31 NAE=    17 NBE=    17 NFC=     7 NFV=     0
 NROrb=     24 NOA=    10 NOB=    10 NVA=    14 NVB=    14
 Fully direct method using O(ONN) memory.
 JobTyp=1 Pass  1:  I=   8 to  17 NPSUse=  1 ParTrn=F ParDer=F DoDerP=T.
 Spin components of T(2) and E(2):
     alpha-alpha T2 =       0.8727467840D-02 E2=     -0.3741915873D-01
     alpha-beta  T2 =       0.5640059364D-01 E2=     -0.2171312056D+00
     beta-beta   T2 =       0.8727467840D-02 E2=     -0.3741915873D-01
 ANorm=    0.1036270008D+01
 E2 =    -0.2919695231D+00 EUMP2 =    -0.59356415369968D+03
          IDoAtm=111
          Differentiating once with respect to electric field.
                with respect to dipole field.
          Differentiating once with respect to nuclear coordinates.
 Keep R1 ints in memory in symmetry-blocked form, NReq=930676.
          There are     1 degrees of freedom in the 1st order CPHF.  IDoFFX=0 NUNeed=     1.
 LinEq1:  Iter=  0 NonCon=     1 RMS=1.11D-02 Max=8.99D-02 NDo=     1
 AX will form     1 AO Fock derivatives at one time.
 LinEq1:  Iter=  1 NonCon=     1 RMS=2.06D-03 Max=1.92D-02 NDo=     1
 LinEq1:  Iter=  2 NonCon=     1 RMS=5.73D-04 Max=3.48D-03 NDo=     1
 LinEq1:  Iter=  3 NonCon=     1 RMS=2.07D-04 Max=1.55D-03 NDo=     1
 LinEq1:  Iter=  4 NonCon=     1 RMS=3.18D-05 Max=1.62D-04 NDo=     1
 LinEq1:  Iter=  5 NonCon=     1 RMS=3.36D-06 Max=2.16D-05 NDo=     1
 LinEq1:  Iter=  6 NonCon=     1 RMS=5.71D-07 Max=4.80D-06 NDo=     1
 LinEq1:  Iter=  7 NonCon=     1 RMS=8.56D-08 Max=4.33D-07 NDo=     1
 LinEq1:  Iter=  8 NonCon=     1 RMS=6.14D-09 Max=3.06D-08 NDo=     1
 LinEq1:  Iter=  9 NonCon=     1 RMS=5.10D-10 Max=3.84D-09 NDo=     1
 LinEq1:  Iter= 10 NonCon=     0 RMS=5.04D-11 Max=2.78D-10 NDo=     1
 Linear equations converged to 1.000D-10 1.000D-09 after    10 iterations.
 End of Minotr F.D. properties file   721 does not exist.
 End of Minotr F.D. properties file   722 does not exist.
 End of Minotr F.D. properties file   788 does not exist.

 **********************************************************************

            Population analysis using the SCF Density.

 **********************************************************************

 Orbital symmetries:
       Occupied  (A1) (A1) (B2) (A1) (B2) (A1) (B1) (A1) (B2) (A1)
                 (B2) (B1) (A1) (A2) (B2) (A1) (B1)
       Virtual   (A1) (B2) (A1) (B1) (A1) (B2) (A2) (A1) (B2) (B1)
                 (B2) (A1) (B2) (A1)
 The electronic state is 1-A1.
 Alpha  occ. eigenvalues --  -91.46593 -26.20039 -26.19999  -9.05653  -6.73059
 Alpha  occ. eigenvalues --   -6.72831  -6.72463  -1.65550  -1.61714  -0.97513
 Alpha  occ. eigenvalues --   -0.73969  -0.72761  -0.71323  -0.68197  -0.64864
 Alpha  occ. eigenvalues --   -0.56223  -0.40066
 Alpha virt. eigenvalues --    0.14234   0.15693   0.54363   0.64581   0.66337
 Alpha virt. eigenvalues --    0.68299   2.15526   2.19564   2.24439   2.25346
 Alpha virt. eigenvalues --    2.36075   2.39179   3.54742   3.76550
          Condensed to atoms (all electrons):
               1          2          3
     1  S   14.959262   0.071510   0.071510
     2  F    0.071510   9.381753  -0.004403
     3  F    0.071510  -0.004403   9.381753
 Mulliken charges:
               1
     1  S    0.897719
     2  F   -0.448859
     3  F   -0.448859
 Sum of Mulliken charges =   0.00000
 Mulliken charges with hydrogens summed into heavy atoms:
               1
     1  S    0.897719
     2  F   -0.448859
     3  F   -0.448859
 Electronic spatial extent (au):  <R**2>=            184.6547
 Charge=              0.0000 electrons
 Dipole moment (field-independent basis, Debye):
    X=              0.0000    Y=              0.0000    Z=              1.3869  Tot=              1.3869
 Quadrupole moment (field-independent basis, Debye-Ang):
   XX=            -22.3110   YY=            -24.7971   ZZ=            -21.2570
   XY=             -0.0000   XZ=             -0.0000   YZ=              0.0000
 Traceless Quadrupole moment (field-independent basis, Debye-Ang):
   XX=              0.4774   YY=             -2.0088   ZZ=              1.5313
   XY=             -0.0000   XZ=             -0.0000   YZ=              0.0000
 Octapole moment (field-independent basis, Debye-Ang**2):
  XXX=              0.0000  YYY=              0.0000  ZZZ=             -5.0305  XYY=              0.0000
  XXY=             -0.0000  XXZ=             -3.1029  XZZ=              0.0000  YZZ=              0.0000
  YYZ=              1.8656  XYZ=              0.0000
 Hexadecapole moment (field-independent basis, Debye-Ang**3):
 XXXX=            -21.5206 YYYY=           -117.3720 ZZZZ=            -44.2358 XXXY=             -0.0000
 XXXZ=             -0.0000 YYYX=             -0.0000 YYYZ=              0.0000 ZZZX=             -0.0000
 ZZZY=              0.0000 XXYY=            -21.5165 XXZZ=            -11.6973 YYZZ=            -25.7046
 XXYZ=              0.0000 YYXZ=             -0.0000 ZZXY=             -0.0000
 N-N= 1.123593544275D+02 E-N=-1.640220930597D+03  KE= 5.926141297292D+02
 Symmetry A1   KE= 4.122618045688D+02
 Symmetry A2   KE= 6.428081488120D+00
 Symmetry B1   KE= 4.545336351549D+01
 Symmetry B2   KE= 1.284708801568D+02
 Calling FoFJK, ICntrl=  10002127 FMM=F ISym2X=1 I1Cent= 0 IOpClX= 0 NMat=1 NMatS=1 NMatT=0.
 ***** Axes restored to original set *****
 -------------------------------------------------------------------
 Center     Atomic                   Forces (Hartrees/Bohr)
 Number     Number              X              Y              Z
 -------------------------------------------------------------------
      1       16           0.000000000   -0.000000000   -0.115457410
      2        9          -0.000000000    0.056352900    0.057728705
      3        9          -0.000000000   -0.056352900    0.057728705
 -------------------------------------------------------------------
 Cartesian Forces:  Max     0.115457410 RMS     0.054105780

 GradGradGradGradGradGradGradGradGradGradGradGradGradGradGradGradGradGrad
 Berny optimization.
 FormGI is forming the generalized inverse of G from B-inverse, IUseBI=4.
 Internal  Forces:  Max     0.079341634 RMS     0.069557126
 Search for a local minimum.
 Step number   1 out of a maximum of   20
 All quantities printed in internal units (Hartrees-Bohrs-Radians)
 Mixed Optimization -- RFO/linear search
 Second derivative matrix not updated -- first step.
 The second derivative matrix:
                          R1        R2        A1
           R1           0.53201
           R2           0.00000   0.53201
           A1           0.00000   0.00000   0.25000
 ITU=  0
     Eigenvalues ---    0.25000   0.53201   0.53201
 RFO step:  Lambda=-2.93188153D-02 EMin= 2.50000000D-01
 Linear search not attempted -- first point.
 Iteration  1 RMS(Cart)=  0.12739368 RMS(Int)=  0.00745248
 Iteration  2 RMS(Cart)=  0.01278589 RMS(Int)=  0.00003771
 Iteration  3 RMS(Cart)=  0.00002704 RMS(Int)=  0.00000000
 Iteration  4 RMS(Cart)=  0.00000000 RMS(Int)=  0.00000000
 ClnCor:  largest displacement from symmetrization is 4.87D-15 for atom     3.
 Variable       Old X    -DE/DX   Delta X   Delta X   Delta X     New X
                                 (Linear)    (Quad)   (Total)
    R1        3.00466   0.07934   0.00000   0.14135   0.14135   3.14601
    R2        3.00466   0.07934   0.00000   0.14135   0.14135   3.14601
    A1        1.91063  -0.04387   0.00000  -0.15705  -0.15705   1.75358
         Item               Value     Threshold  Converged?
 Maximum Force            0.079342     0.000450     NO 
 RMS     Force            0.069557     0.000300     NO 
 Maximum Displacement     0.185009     0.001800     NO 
 RMS     Displacement     0.133905     0.001200     NO 
 Predicted change in Energy=-1.560674D-02
 GradGradGradGradGradGradGradGradGradGradGradGradGradGradGradGradGradGrad

                          Input orientation:                          
 ---------------------------------------------------------------------
 Center     Atomic      Atomic             Coordinates (Angstroms)
 Number     Number       Type             X           Y           Z
 ---------------------------------------------------------------------
      1         16           0       -0.000000   -0.000000   -0.583896
      2          9           0       -0.000000    1.279712    0.480945
      3          9           0        0.000000   -1.279712    0.480945
 ---------------------------------------------------------------------
                    Distance matrix (angstroms):
                    1          2          3
     1  S    0.000000
     2  F    1.664797   0.000000
     3  F    1.664797   2.559425   0.000000
 Stoichiometry    F2S
 Framework group  C2V[C2(S),SGV(F2)]
 Deg. of freedom     2
 Full point group                 C2V     NOp   4
 Largest Abelian subgroup         C2V     NOp   4
 Largest concise Abelian subgroup C2      NOp   2
                         Standard orientation:                         
 ---------------------------------------------------------------------
 Center     Atomic      Atomic             Coordinates (Angstroms)
 Number     Number       Type             X           Y           Z
 ---------------------------------------------------------------------
      1         16           0       -0.000000    0.000000    0.563739
      2          9           0        0.000000    1.279712   -0.501101
      3          9           0       -0.000000   -1.279712   -0.501101
 ---------------------------------------------------------------------
 Rotational constants (GHZ):          25.6705414           8.1216710           6.1696964
 Standard basis: 3-21G (6D, 7F)
 There are    14 symmetry adapted cartesian basis functions of A1  symmetry.
 There are     2 symmetry adapted cartesian basis functions of A2  symmetry.
 There are     5 symmetry adapted cartesian basis functions of B1  symmetry.
 There are    10 symmetry adapted cartesian basis functions of B2  symmetry.
 There are    14 symmetry adapted basis functions of A1  symmetry.
 There are     2 symmetry adapted basis functions of A2  symmetry.
 There are     5 symmetry adapted basis functions of B1  symmetry.
 There are    10 symmetry adapted basis functions of B2  symmetry.
    31 basis functions,    57 primitive gaussians,    31 cartesian basis functions
    17 alpha electrons       17 beta electrons
       nuclear repulsion energy       108.2917765364 Hartrees.
 NAtoms=    3 NActive=    3 NUniq=    2 SFac= 2.25D+00 NAtFMM=   60 NAOKFM=F Big=F
 Integral buffers will be    131072 words long.
 Raffenetti 1 integral format.
 Two-electron integral symmetry is turned on.
 One-electron integrals computed using PRISM.
 NBasis=    31 RedAO= T EigKep=  9.30D-02  NBF=    14     2     5    10
 NBsUse=    31 1.00D-06 EigRej= -1.00D+00 NBFU=    14     2     5    10
 Initial guess from the checkpoint file:  "SF2.chk"
 B after Tr=     0.000000    0.000000   -0.000000
         Rot=    1.000000    0.000000    0.000000    0.000000 Ang=   0.00 deg.
 Initial guess orbital symmetries:
       Occupied  (A1) (A1) (B2) (A1) (B2) (A1) (B1) (A1) (B2) (A1)
                 (B2) (B1) (A1) (A2) (B2) (A1) (B1)
       Virtual   (A1) (B2) (A1) (B1) (A1) (B2) (A2) (A1) (B2) (B1)
                 (B2) (A1) (B2) (A1)
 ExpMin= 1.42D-01 ExpMax= 1.21D+03 ExpMxC= 1.21D+03 IAcc=3 IRadAn=         5 AccDes= 0.00D+00
 Harris functional with IExCor=  205 and IRadAn=       5 diagonalized for initial guess.
 HarFok:  IExCor=  205 AccDes= 0.00D+00 IRadAn=         5 IDoV= 1 UseB2=F ITyADJ=14
 ICtDFT=  3500011 ScaDFX=  1.000000  1.000000  1.000000  1.000000
 FoFCou: FMM=F IPFlag=           0 FMFlag=      100000 FMFlg1=           0
         NFxFlg=           0 DoJE=T BraDBF=F KetDBF=T FulRan=T
         wScrn=  0.000000 ICntrl=       500 IOpCl=  0 I1Cent=   200000004 NGrid=           0
         NMat0=    1 NMatS0=      1 NMatT0=    0 NMatD0=    1 NMtDS0=    0 NMtDT0=    0
 Petite list used in FoFCou.
 Keep R1 ints in memory in symmetry-blocked form, NReq=930069.
 Requested convergence on RMS density matrix=1.00D-08 within 128 cycles.
 Requested convergence on MAX density matrix=1.00D-06.
 Requested convergence on             energy=1.00D-06.
 No special actions if energy rises.
 SCF Done:  E(RHF) =  -593.283328122     A.U. after   10 cycles
            NFock= 10  Conv=0.77D-08     -V/T= 2.0016
 ExpMin= 1.42D-01 ExpMax= 1.21D+03 ExpMxC= 1.21D+03 IAcc=3 IRadAn=         5 AccDes= 0.00D+00
 HarFok:  IExCor=  205 AccDes= 0.00D+00 IRadAn=         5 IDoV=-2 UseB2=F ITyADJ=14
 ICtDFT= 12500011 ScaDFX=  1.000000  1.000000  1.000000  1.000000
 Range of M.O.s used for correlation:     8    31
 NBasis=    31 NAE=    17 NBE=    17 NFC=     7 NFV=     0
 NROrb=     24 NOA=    10 NOB=    10 NVA=    14 NVB=    14
 Fully direct method using O(ONN) memory.
 JobTyp=1 Pass  1:  I=   8 to  17 NPSUse=  1 ParTrn=F ParDer=F DoDerP=T.
 Spin components of T(2) and E(2):
     alpha-alpha T2 =       0.9001608086D-02 E2=     -0.3777004537D-01
     alpha-beta  T2 =       0.6109418931D-01 E2=     -0.2222921027D+00
     beta-beta   T2 =       0.9001608086D-02 E2=     -0.3777004537D-01
 ANorm=    0.1038796133D+01
 E2 =    -0.2978321935D+00 EUMP2 =    -0.59358116031582D+03
          IDoAtm=111
          Differentiating once with respect to electric field.
                with respect to dipole field.
          Differentiating once with respect to nuclear coordinates.
 Keep R1 ints in memory in symmetry-blocked form, NReq=930676.
          There are     1 degrees of freedom in the 1st order CPHF.  IDoFFX=0 NUNeed=     1.
 LinEq1:  Iter=  0 NonCon=     1 RMS=1.20D-02 Max=1.10D-01 NDo=     1
 AX will form     1 AO Fock derivatives at one time.
 LinEq1:  Iter=  1 NonCon=     1 RMS=2.45D-03 Max=2.25D-02 NDo=     1
 LinEq1:  Iter=  2 NonCon=     1 RMS=6.78D-04 Max=3.26D-03 NDo=     1
 LinEq1:  Iter=  3 NonCon=     1 RMS=2.49D-04 Max=1.97D-03 NDo=     1
 LinEq1:  Iter=  4 NonCon=     1 RMS=3.85D-05 Max=2.11D-04 NDo=     1
 LinEq1:  Iter=  5 NonCon=     1 RMS=4.11D-06 Max=2.38D-05 NDo=     1
 LinEq1:  Iter=  6 NonCon=     1 RMS=7.37D-07 Max=4.72D-06 NDo=     1
 LinEq1:  Iter=  7 NonCon=     1 RMS=1.18D-07 Max=6.64D-07 NDo=     1
 LinEq1:  Iter=  8 NonCon=     1 RMS=9.87D-09 Max=5.03D-08 NDo=     1
 LinEq1:  Iter=  9 NonCon=     1 RMS=1.09D-09 Max=6.71D-09 NDo=     1
 LinEq1:  Iter= 10 NonCon=     0 RMS=8.67D-11 Max=4.13D-10 NDo=     1
 Linear equations converged to 1.000D-10 1.000D-09 after    10 iterations.
 End of Minotr F.D. properties file   721 does not exist.
 End of Minotr F.D. properties file   722 does not exist.
 End of Minotr F.D. properties file   788 does not exist.
 Calling FoFJK, ICntrl=  10002127 FMM=F ISym2X=1 I1Cent= 0 IOpClX= 0 NMat=1 NMatS=1 NMatT=0.
 ***** Axes restored to original set *****
 -------------------------------------------------------------------
 Center     Atomic                   Forces (Hartrees/Bohr)
 Number     Number              X              Y              Z
 -------------------------------------------------------------------
      1       16           0.000000000   -0.000000000   -0.026370830
      2        9          -0.000000000    0.013456850    0.013185415
      3        9          -0.000000000   -0.013456850    0.013185415
 -------------------------------------------------------------------
 Cartesian Forces:  Max     0.026370830 RMS     0.012495798

 GradGradGradGradGradGradGradGradGradGradGradGradGradGradGradGradGradGrad
 Berny optimization.
 Using GEDIIS/GDIIS optimizer.
 FormGI is forming the generalized inverse of G from B-inverse, IUseBI=4.
 Internal  Forces:  Max     0.018777822 RMS     0.015581265
 Search for a local minimum.
 Step number   2 out of a maximum of   20
 All quantities printed in internal units (Hartrees-Bohrs-Radians)
 Mixed Optimization -- RFO/linear search
 Update second derivatives using D2CorX and points    1    2
 DE= -1.70D-02 DEPred=-1.56D-02 R= 1.09D+00
 TightC=F SS=  1.41D+00  RLast= 2.54D-01 DXNew= 5.0454D-01 7.6263D-01
 Trust test= 1.09D+00 RLast= 2.54D-01 DXMaxT set to 5.05D-01
 The second derivative matrix:
                          R1        R2        A1
           R1           0.48354
           R2          -0.04847   0.48354
           A1           0.00594   0.00594   0.25939
 ITU=  1  0
 Use linear search instead of GDIIS.
     Eigenvalues ---    0.25899   0.43548   0.53201
 RFO step:  Lambda=-8.50429028D-05 EMin= 2.58992349D-01
 Quartic linear search produced a step of  0.33613.
 Iteration  1 RMS(Cart)=  0.03700939 RMS(Int)=  0.00051165
 Iteration  2 RMS(Cart)=  0.00092665 RMS(Int)=  0.00000021
 Iteration  3 RMS(Cart)=  0.00000015 RMS(Int)=  0.00000000
 ClnCor:  largest displacement from symmetrization is 2.55D-16 for atom     1.
 Variable       Old X    -DE/DX   Delta X   Delta X   Delta X     New X
                                 (Linear)    (Quad)   (Total)
    R1        3.14601   0.01878   0.04751   0.00497   0.05248   3.19849
    R2        3.14601   0.01878   0.04751   0.00497   0.05248   3.19849
    A1        1.75358  -0.00481  -0.05279   0.01542  -0.03737   1.71621
         Item               Value     Threshold  Converged?
 Maximum Force            0.018778     0.000450     NO 
 RMS     Force            0.015581     0.000300     NO 
 Maximum Displacement     0.052767     0.001800     NO 
 RMS     Displacement     0.037338     0.001200     NO 
 Predicted change in Energy=-7.944493D-04
 GradGradGradGradGradGradGradGradGradGradGradGradGradGradGradGradGradGrad

                          Input orientation:                          
 ---------------------------------------------------------------------
 Center     Atomic      Atomic             Coordinates (Angstroms)
 Number     Number       Type             X           Y           Z
 ---------------------------------------------------------------------
      1         16           0       -0.000000   -0.000000   -0.611819
      2          9           0       -0.000000    1.280607    0.494907
      3          9           0        0.000000   -1.280607    0.494907
 ---------------------------------------------------------------------
                    Distance matrix (angstroms):
                    1          2          3
     1  S    0.000000
     2  F    1.692570   0.000000
     3  F    1.692570   2.561213   0.000000
 Stoichiometry    F2S
 Framework group  C2V[C2(S),SGV(F2)]
 Deg. of freedom     2
 Full point group                 C2V     NOp   4
 Largest Abelian subgroup         C2V     NOp   4
 Largest concise Abelian subgroup C2      NOp   2
                         Standard orientation:                         
 ---------------------------------------------------------------------
 Center     Atomic      Atomic             Coordinates (Angstroms)
 Number     Number       Type             X           Y           Z
 ---------------------------------------------------------------------
      1         16           0       -0.000000    0.000000    0.585913
      2          9           0       -0.000000    1.280607   -0.520812
      3          9           0       -0.000000   -1.280607   -0.520812
 ---------------------------------------------------------------------
 Rotational constants (GHZ):          23.7642686           8.1103316           6.0466985
 Standard basis: 3-21G (6D, 7F)
 There are    14 symmetry adapted cartesian basis functions of A1  symmetry.
 There are     2 symmetry adapted cartesian basis functions of A2  symmetry.
 There are     5 symmetry adapted cartesian basis functions of B1  symmetry.
 There are    10 symmetry adapted cartesian basis functions of B2  symmetry.
 There are    14 symmetry adapted basis functions of A1  symmetry.
 There are     2 symmetry adapted basis functions of A2  symmetry.
 There are     5 symmetry adapted basis functions of B1  symmetry.
 There are    10 symmetry adapted basis functions of B2  symmetry.
    31 basis functions,    57 primitive gaussians,    31 cartesian basis functions
    17 alpha electrons       17 beta electrons
       nuclear repulsion energy       106.7779286121 Hartrees.
 NAtoms=    3 NActive=    3 NUniq=    2 SFac= 2.25D+00 NAtFMM=   60 NAOKFM=F Big=F
 Integral buffers will be    131072 words long.
 Raffenetti 1 integral format.
 Two-electron integral symmetry is turned on.
 One-electron integrals computed using PRISM.
 NBasis=    31 RedAO= T EigKep=  9.25D-02  NBF=    14     2     5    10
 NBsUse=    31 1.00D-06 EigRej= -1.00D+00 NBFU=    14     2     5    10
 Initial guess from the checkpoint file:  "SF2.chk"
 B after Tr=    -0.000000    0.000000    0.000000
         Rot=    1.000000    0.000000   -0.000000   -0.000000 Ang=   0.00 deg.
 Initial guess orbital symmetries:
       Occupied  (A1) (A1) (B2) (A1) (B2) (A1) (B1) (A1) (B2) (A1)
                 (B2) (B1) (A1) (A2) (B2) (A1) (B1)
       Virtual   (B2) (A1) (A1) (B1) (A1) (B2) (A2) (A1) (B1) (B2)
                 (B2) (A1) (B2) (A1)
 ExpMin= 1.42D-01 ExpMax= 1.21D+03 ExpMxC= 1.21D+03 IAcc=3 IRadAn=         5 AccDes= 0.00D+00
 Harris functional with IExCor=  205 and IRadAn=       5 diagonalized for initial guess.
 HarFok:  IExCor=  205 AccDes= 0.00D+00 IRadAn=         5 IDoV= 1 UseB2=F ITyADJ=14
 ICtDFT=  3500011 ScaDFX=  1.000000  1.000000  1.000000  1.000000
 FoFCou: FMM=F IPFlag=           0 FMFlag=      100000 FMFlg1=           0
         NFxFlg=           0 DoJE=T BraDBF=F KetDBF=T FulRan=T
         wScrn=  0.000000 ICntrl=       500 IOpCl=  0 I1Cent=   200000004 NGrid=           0
         NMat0=    1 NMatS0=      1 NMatT0=    0 NMatD0=    1 NMtDS0=    0 NMtDT0=    0
 Petite list used in FoFCou.
 Keep R1 ints in memory in symmetry-blocked form, NReq=930069.
 Requested convergence on RMS density matrix=1.00D-08 within 128 cycles.
 Requested convergence on MAX density matrix=1.00D-06.
 Requested convergence on             energy=1.00D-06.
 No special actions if energy rises.
 SCF Done:  E(RHF) =  -593.281834003     A.U. after   10 cycles
            NFock= 10  Conv=0.45D-08     -V/T= 2.0018
 ExpMin= 1.42D-01 ExpMax= 1.21D+03 ExpMxC= 1.21D+03 IAcc=3 IRadAn=         5 AccDes= 0.00D+00
 HarFok:  IExCor=  205 AccDes= 0.00D+00 IRadAn=         5 IDoV=-2 UseB2=F ITyADJ=14
 ICtDFT= 12500011 ScaDFX=  1.000000  1.000000  1.000000  1.000000
 Range of M.O.s used for correlation:     8    31
 NBasis=    31 NAE=    17 NBE=    17 NFC=     7 NFV=     0
 NROrb=     24 NOA=    10 NOB=    10 NVA=    14 NVB=    14
 Fully direct method using O(ONN) memory.
 JobTyp=1 Pass  1:  I=   8 to  17 NPSUse=  1 ParTrn=F ParDer=F DoDerP=T.
 Spin components of T(2) and E(2):
     alpha-alpha T2 =       0.9124086991D-02 E2=     -0.3793872660D-01
     alpha-beta  T2 =       0.6325109740D-01 E2=     -0.2245538267D+00
     beta-beta   T2 =       0.9124086991D-02 E2=     -0.3793872660D-01
 ANorm=    0.1039951572D+01
 E2 =    -0.3004312799D+00 EUMP2 =    -0.59358226528323D+03
          IDoAtm=111
          Differentiating once with respect to electric field.
                with respect to dipole field.
          Differentiating once with respect to nuclear coordinates.
 Keep R1 ints in memory in symmetry-blocked form, NReq=930676.
          There are     1 degrees of freedom in the 1st order CPHF.  IDoFFX=0 NUNeed=     1.
 LinEq1:  Iter=  0 NonCon=     1 RMS=1.24D-02 Max=1.18D-01 NDo=     1
 AX will form     1 AO Fock derivatives at one time.
 LinEq1:  Iter=  1 NonCon=     1 RMS=2.62D-03 Max=2.43D-02 NDo=     1
 LinEq1:  Iter=  2 NonCon=     1 RMS=7.31D-04 Max=3.57D-03 NDo=     1
 LinEq1:  Iter=  3 NonCon=     1 RMS=2.71D-04 Max=2.16D-03 NDo=     1
 LinEq1:  Iter=  4 NonCon=     1 RMS=4.43D-05 Max=2.36D-04 NDo=     1
 LinEq1:  Iter=  5 NonCon=     1 RMS=5.70D-06 Max=4.10D-05 NDo=     1
 LinEq1:  Iter=  6 NonCon=     1 RMS=1.04D-06 Max=5.56D-06 NDo=     1
 LinEq1:  Iter=  7 NonCon=     1 RMS=1.41D-07 Max=7.37D-07 NDo=     1
 LinEq1:  Iter=  8 NonCon=     1 RMS=1.22D-08 Max=7.26D-08 NDo=     1
 LinEq1:  Iter=  9 NonCon=     1 RMS=1.39D-09 Max=7.91D-09 NDo=     1
 LinEq1:  Iter= 10 NonCon=     1 RMS=1.04D-10 Max=4.96D-10 NDo=     1
 LinEq1:  Iter= 11 NonCon=     0 RMS=5.94D-12 Max=2.69D-11 NDo=     1
 Linear equations converged to 1.000D-10 1.000D-09 after    11 iterations.
 End of Minotr F.D. properties file   721 does not exist.
 End of Minotr F.D. properties file   722 does not exist.
 End of Minotr F.D. properties file   788 does not exist.
 Calling FoFJK, ICntrl=  10002127 FMM=F ISym2X=1 I1Cent= 0 IOpClX= 0 NMat=1 NMatS=1 NMatT=0.
 ***** Axes restored to original set *****
 -------------------------------------------------------------------
 Center     Atomic                   Forces (Hartrees/Bohr)
 Number     Number              X              Y              Z
 -------------------------------------------------------------------
      1       16           0.000000000   -0.000000000   -0.001359309
      2        9          -0.000000000    0.002446044    0.000679655
      3        9          -0.000000000   -0.002446044    0.000679655
 -------------------------------------------------------------------
 Cartesian Forces:  Max     0.002446044 RMS     0.001279663

 GradGradGradGradGradGradGradGradGradGradGradGradGradGradGradGradGradGrad
 Berny optimization.
 Using GEDIIS/GDIIS optimizer.
 FormGI is forming the generalized inverse of G from B-inverse, IUseBI=4.
 Internal  Forces:  Max     0.003470915 RMS     0.002743609
 Search for a local minimum.
 Step number   3 out of a maximum of   20
 All quantities printed in internal units (Hartrees-Bohrs-Radians)
 Mixed Optimization -- RFO/linear search
 Update second derivatives using D2CorX and points    1    2    3
 DE= -1.10D-03 DEPred=-7.94D-04 R= 1.39D+00
 TightC=F SS=  1.41D+00  RLast= 8.31D-02 DXNew= 8.4853D-01 2.4930D-01
 Trust test= 1.39D+00 RLast= 8.31D-02 DXMaxT set to 5.05D-01
 The second derivative matrix:
                          R1        R2        A1
           R1           0.42840
           R2          -0.10361   0.42840
           A1           0.01508   0.01508   0.26389
 ITU=  1  1  0
 Use linear search instead of GDIIS.
     Eigenvalues ---    0.25717   0.33152   0.53201
 RFO step:  Lambda=-6.63445319D-05 EMin= 2.57165982D-01
 Quartic linear search produced a step of  0.05926.
 Iteration  1 RMS(Cart)=  0.01531972 RMS(Int)=  0.00004705
 Iteration  2 RMS(Cart)=  0.00004538 RMS(Int)=  0.00000000
 Iteration  3 RMS(Cart)=  0.00000000 RMS(Int)=  0.00000000
 ClnCor:  largest displacement from symmetrization is 5.69D-15 for atom     3.
 Variable       Old X    -DE/DX   Delta X   Delta X   Delta X     New X
                                 (Linear)    (Quad)   (Total)
    R1        3.19849   0.00230   0.00311   0.00362   0.00673   3.20522
    R2        3.19849   0.00230   0.00311   0.00362   0.00673   3.20522
    A1        1.71621   0.00347  -0.00221   0.01440   0.01218   1.72839
         Item               Value     Threshold  Converged?
 Maximum Force            0.003471     0.000450     NO 
 RMS     Force            0.002744     0.000300     NO 
 Maximum Displacement     0.017809     0.001800     NO 
 RMS     Displacement     0.015347     0.001200     NO 
 Predicted change in Energy=-3.641019D-05
 GradGradGradGradGradGradGradGradGradGradGradGradGradGradGradGradGradGrad

                          Input orientation:                          
 ---------------------------------------------------------------------
 Center     Atomic      Atomic             Coordinates (Angstroms)
 Number     Number       Type             X           Y           Z
 ---------------------------------------------------------------------
      1         16           0       -0.000000   -0.000000   -0.608145
      2          9           0       -0.000000    1.290031    0.493070
      3          9           0        0.000000   -1.290031    0.493070
 ---------------------------------------------------------------------
                    Distance matrix (angstroms):
                    1          2          3
     1  S    0.000000
     2  F    1.696130   0.000000
     3  F    1.696130   2.580062   0.000000
 Stoichiometry    F2S
 Framework group  C2V[C2(S),SGV(F2)]
 Deg. of freedom     2
 Full point group                 C2V     NOp   4
 Largest Abelian subgroup         C2V     NOp   4
 Largest concise Abelian subgroup C2      NOp   2
                         Standard orientation:                         
 ---------------------------------------------------------------------
 Center     Atomic      Atomic             Coordinates (Angstroms)
 Number     Number       Type             X           Y           Z
 ---------------------------------------------------------------------
      1         16           0        0.000000    0.000000    0.582996
      2          9           0        0.000000    1.290031   -0.518219
      3          9           0       -0.000000   -1.290031   -0.518219
 ---------------------------------------------------------------------
 Rotational constants (GHZ):          24.0026778           7.9922638           5.9958144
 Standard basis: 3-21G (6D, 7F)
 There are    14 symmetry adapted cartesian basis functions of A1  symmetry.
 There are     2 symmetry adapted cartesian basis functions of A2  symmetry.
 There are     5 symmetry adapted cartesian basis functions of B1  symmetry.
 There are    10 symmetry adapted cartesian basis functions of B2  symmetry.
 There are    14 symmetry adapted basis functions of A1  symmetry.
 There are     2 symmetry adapted basis functions of A2  symmetry.
 There are     5 symmetry adapted basis functions of B1  symmetry.
 There are    10 symmetry adapted basis functions of B2  symmetry.
    31 basis functions,    57 primitive gaussians,    31 cartesian basis functions
    17 alpha electrons       17 beta electrons
       nuclear repulsion energy       106.4667237581 Hartrees.
 NAtoms=    3 NActive=    3 NUniq=    2 SFac= 2.25D+00 NAtFMM=   60 NAOKFM=F Big=F
 Integral buffers will be    131072 words long.
 Raffenetti 1 integral format.
 Two-electron integral symmetry is turned on.
 One-electron integrals computed using PRISM.
 NBasis=    31 RedAO= T EigKep=  9.30D-02  NBF=    14     2     5    10
 NBsUse=    31 1.00D-06 EigRej= -1.00D+00 NBFU=    14     2     5    10
 Initial guess from the checkpoint file:  "SF2.chk"
 B after Tr=    -0.000000    0.000000   -0.000000
         Rot=    1.000000    0.000000    0.000000    0.000000 Ang=   0.00 deg.
 Initial guess orbital symmetries:
       Occupied  (A1) (A1) (B2) (A1) (B2) (A1) (B1) (A1) (B2) (A1)
                 (B1) (B2) (A1) (A2) (B2) (A1) (B1)
       Virtual   (B2) (A1) (A1) (B1) (B2) (A1) (A1) (A2) (B1) (B2)
                 (B2) (A1) (B2) (A1)
 Keep R1 ints in memory in symmetry-blocked form, NReq=930069.
 Requested convergence on RMS density matrix=1.00D-08 within 128 cycles.
 Requested convergence on MAX density matrix=1.00D-06.
 Requested convergence on             energy=1.00D-06.
 No special actions if energy rises.
 SCF Done:  E(RHF) =  -593.281369729     A.U. after    9 cycles
            NFock=  9  Conv=0.45D-08     -V/T= 2.0018
 ExpMin= 1.42D-01 ExpMax= 1.21D+03 ExpMxC= 1.21D+03 IAcc=3 IRadAn=         5 AccDes= 0.00D+00
 HarFok:  IExCor=  205 AccDes= 0.00D+00 IRadAn=         5 IDoV=-2 UseB2=F ITyADJ=14
 ICtDFT= 12500011 ScaDFX=  1.000000  1.000000  1.000000  1.000000
 Range of M.O.s used for correlation:     8    31
 NBasis=    31 NAE=    17 NBE=    17 NFC=     7 NFV=     0
 NROrb=     24 NOA=    10 NOB=    10 NVA=    14 NVB=    14
 Fully direct method using O(ONN) memory.
 JobTyp=1 Pass  1:  I=   8 to  17 NPSUse=  1 ParTrn=F ParDer=F DoDerP=T.
 Spin components of T(2) and E(2):
     alpha-alpha T2 =       0.9158934946D-02 E2=     -0.3799301596D-01
     alpha-beta  T2 =       0.6360648680D-01 E2=     -0.2249501546D+00
     beta-beta   T2 =       0.9158934946D-02 E2=     -0.3799301596D-01
 ANorm=    0.1040155929D+01
 E2 =    -0.3009361865D+00 EUMP2 =    -0.59358230591598D+03
          IDoAtm=111
          Differentiating once with respect to electric field.
                with respect to dipole field.
          Differentiating once with respect to nuclear coordinates.
 Keep R1 ints in memory in symmetry-blocked form, NReq=930676.
          There are     1 degrees of freedom in the 1st order CPHF.  IDoFFX=0 NUNeed=     1.
 LinEq1:  Iter=  0 NonCon=     1 RMS=1.25D-02 Max=1.19D-01 NDo=     1
 AX will form     1 AO Fock derivatives at one time.
 LinEq1:  Iter=  1 NonCon=     1 RMS=2.66D-03 Max=2.48D-02 NDo=     1
 LinEq1:  Iter=  2 NonCon=     1 RMS=7.38D-04 Max=3.53D-03 NDo=     1
 LinEq1:  Iter=  3 NonCon=     1 RMS=2.74D-04 Max=2.21D-03 NDo=     1
 LinEq1:  Iter=  4 NonCon=     1 RMS=4.39D-05 Max=2.38D-04 NDo=     1
 LinEq1:  Iter=  5 NonCon=     1 RMS=5.48D-06 Max=3.93D-05 NDo=     1
 LinEq1:  Iter=  6 NonCon=     1 RMS=1.03D-06 Max=5.48D-06 NDo=     1
 LinEq1:  Iter=  7 NonCon=     1 RMS=1.42D-07 Max=7.41D-07 NDo=     1
 LinEq1:  Iter=  8 NonCon=     1 RMS=1.22D-08 Max=7.22D-08 NDo=     1
 LinEq1:  Iter=  9 NonCon=     1 RMS=1.40D-09 Max=8.22D-09 NDo=     1
 LinEq1:  Iter= 10 NonCon=     1 RMS=1.06D-10 Max=5.05D-10 NDo=     1
 LinEq1:  Iter= 11 NonCon=     0 RMS=6.10D-12 Max=2.86D-11 NDo=     1
 Linear equations converged to 1.000D-10 1.000D-09 after    11 iterations.
 End of Minotr F.D. properties file   721 does not exist.
 End of Minotr F.D. properties file   722 does not exist.
 End of Minotr F.D. properties file   788 does not exist.
 Calling FoFJK, ICntrl=  10002127 FMM=F ISym2X=1 I1Cent= 0 IOpClX= 0 NMat=1 NMatS=1 NMatT=0.
 ***** Axes restored to original set *****
 -------------------------------------------------------------------
 Center     Atomic                   Forces (Hartrees/Bohr)
 Number     Number              X              Y              Z
 -------------------------------------------------------------------
      1       16           0.000000000   -0.000000000   -0.000085085
      2        9          -0.000000000    0.000260099    0.000042543
      3        9          -0.000000000   -0.000260099    0.000042543
 -------------------------------------------------------------------
 Cartesian Forces:  Max     0.000260099 RMS     0.000127437

 GradGradGradGradGradGradGradGradGradGradGradGradGradGradGradGradGradGrad
 Berny optimization.
 Using GEDIIS/GDIIS optimizer.
 FormGI is forming the generalized inverse of G from B-inverse, IUseBI=4.
 Internal  Forces:  Max     0.000437554 RMS     0.000312573
 Search for a local minimum.
 Step number   4 out of a maximum of   20
 All quantities printed in internal units (Hartrees-Bohrs-Radians)
 Mixed Optimization -- En-DIIS/RFO-DIIS
 Update second derivatives using D2CorX and points    1    2    3    4
 DE= -4.06D-05 DEPred=-3.64D-05 R= 1.12D+00
 TightC=F SS=  1.41D+00  RLast= 1.55D-02 DXNew= 8.4853D-01 4.6367D-02
 Trust test= 1.12D+00 RLast= 1.55D-02 DXMaxT set to 5.05D-01
 The second derivative matrix:
                          R1        R2        A1
           R1           0.41832
           R2          -0.11369   0.41832
           A1           0.00171   0.00171   0.24711
 ITU=  1  1  1  0
 Use linear search instead of GDIIS.
     Eigenvalues ---    0.24701   0.30473   0.53201
 RFO step:  Lambda=-2.05740549D-08 EMin= 2.47011402D-01
 Quartic linear search produced a step of  0.13080.
 Iteration  1 RMS(Cart)=  0.00212972 RMS(Int)=  0.00000102
 Iteration  2 RMS(Cart)=  0.00000085 RMS(Int)=  0.00000000
 ClnCor:  largest displacement from symmetrization is 5.83D-15 for atom     3.
 Variable       Old X    -DE/DX   Delta X   Delta X   Delta X     New X
                                 (Linear)    (Quad)   (Total)
    R1        3.20522   0.00023   0.00088  -0.00014   0.00074   3.20596
    R2        3.20522   0.00023   0.00088  -0.00014   0.00074   3.20596
    A1        1.72839   0.00044   0.00159   0.00019   0.00178   1.73018
         Item               Value     Threshold  Converged?
 Maximum Force            0.000438     0.000450     YES
 RMS     Force            0.000313     0.000300     NO 
 Maximum Displacement     0.002418     0.001800     NO 
 RMS     Displacement     0.002130     0.001200     NO 
 Predicted change in Energy=-5.496957D-07
 GradGradGradGradGradGradGradGradGradGradGradGradGradGradGradGradGradGrad

                          Input orientation:                          
 ---------------------------------------------------------------------
 Center     Atomic      Atomic             Coordinates (Angstroms)
 Number     Number       Type             X           Y           Z
 ---------------------------------------------------------------------
      1         16           0       -0.000000   -0.000000   -0.607548
      2          9           0       -0.000000    1.291311    0.492771
      3          9           0        0.000000   -1.291311    0.492771
 ---------------------------------------------------------------------
                    Distance matrix (angstroms):
                    1          2          3
     1  S    0.000000
     2  F    1.696521   0.000000
     3  F    1.696521   2.582622   0.000000
 Stoichiometry    F2S
 Framework group  C2V[C2(S),SGV(F2)]
 Deg. of freedom     2
 Full point group                 C2V     NOp   4
 Largest Abelian subgroup         C2V     NOp   4
 Largest concise Abelian subgroup C2      NOp   2
                         Standard orientation:                         
 ---------------------------------------------------------------------
 Center     Atomic      Atomic             Coordinates (Angstroms)
 Number     Number       Type             X           Y           Z
 ---------------------------------------------------------------------
      1         16           0        0.000000    0.000000    0.582522
      2          9           0       -0.000000    1.291311   -0.517797
      3          9           0       -0.000000   -1.291311   -0.517797
 ---------------------------------------------------------------------
 Rotational constants (GHZ):          24.0418178           7.9764298           5.9893307
 Standard basis: 3-21G (6D, 7F)
 There are    14 symmetry adapted cartesian basis functions of A1  symmetry.
 There are     2 symmetry adapted cartesian basis functions of A2  symmetry.
 There are     5 symmetry adapted cartesian basis functions of B1  symmetry.
 There are    10 symmetry adapted cartesian basis functions of B2  symmetry.
 There are    14 symmetry adapted basis functions of A1  symmetry.
 There are     2 symmetry adapted basis functions of A2  symmetry.
 There are     5 symmetry adapted basis functions of B1  symmetry.
 There are    10 symmetry adapted basis functions of B2  symmetry.
    31 basis functions,    57 primitive gaussians,    31 cartesian basis functions
    17 alpha electrons       17 beta electrons
       nuclear repulsion energy       106.4295064203 Hartrees.
 NAtoms=    3 NActive=    3 NUniq=    2 SFac= 2.25D+00 NAtFMM=   60 NAOKFM=F Big=F
 Integral buffers will be    131072 words long.
 Raffenetti 1 integral format.
 Two-electron integral symmetry is turned on.
 One-electron integrals computed using PRISM.
 NBasis=    31 RedAO= T EigKep=  9.31D-02  NBF=    14     2     5    10
 NBsUse=    31 1.00D-06 EigRej= -1.00D+00 NBFU=    14     2     5    10
 Initial guess from the checkpoint file:  "SF2.chk"
 B after Tr=    -0.000000    0.000000    0.000000
         Rot=    1.000000    0.000000   -0.000000    0.000000 Ang=   0.00 deg.
 Initial guess orbital symmetries:
       Occupied  (A1) (A1) (B2) (A1) (B2) (A1) (B1) (A1) (B2) (A1)
                 (B1) (B2) (A1) (A2) (B2) (A1) (B1)
       Virtual   (B2) (A1) (A1) (B1) (B2) (A1) (A2) (A1) (B1) (B2)
                 (B2) (A1) (B2) (A1)
 Keep R1 ints in memory in symmetry-blocked form, NReq=930069.
 Requested convergence on RMS density matrix=1.00D-08 within 128 cycles.
 Requested convergence on MAX density matrix=1.00D-06.
 Requested convergence on             energy=1.00D-06.
 No special actions if energy rises.
 SCF Done:  E(RHF) =  -593.281310171     A.U. after    8 cycles
            NFock=  8  Conv=0.13D-08     -V/T= 2.0018
 ExpMin= 1.42D-01 ExpMax= 1.21D+03 ExpMxC= 1.21D+03 IAcc=3 IRadAn=         5 AccDes= 0.00D+00
 HarFok:  IExCor=  205 AccDes= 0.00D+00 IRadAn=         5 IDoV=-2 UseB2=F ITyADJ=14
 ICtDFT= 12500011 ScaDFX=  1.000000  1.000000  1.000000  1.000000
 Range of M.O.s used for correlation:     8    31
 NBasis=    31 NAE=    17 NBE=    17 NFC=     7 NFV=     0
 NROrb=     24 NOA=    10 NOB=    10 NVA=    14 NVB=    14
 Fully direct method using O(ONN) memory.
 JobTyp=1 Pass  1:  I=   8 to  17 NPSUse=  1 ParTrn=F ParDer=F DoDerP=T.
 Spin components of T(2) and E(2):
     alpha-alpha T2 =       0.9163264563D-02 E2=     -0.3799982733D-01
     alpha-beta  T2 =       0.6364779486D-01 E2=     -0.2249966490D+00
     beta-beta   T2 =       0.9163264563D-02 E2=     -0.3799982733D-01
 ANorm=    0.1040179948D+01
 E2 =    -0.3009963037D+00 EUMP2 =    -0.59358230647431D+03
          IDoAtm=111
          Differentiating once with respect to electric field.
                with respect to dipole field.
          Differentiating once with respect to nuclear coordinates.
 Keep R1 ints in memory in symmetry-blocked form, NReq=930676.
          There are     1 degrees of freedom in the 1st order CPHF.  IDoFFX=0 NUNeed=     1.
 LinEq1:  Iter=  0 NonCon=     1 RMS=1.25D-02 Max=1.19D-01 NDo=     1
 AX will form     1 AO Fock derivatives at one time.
 LinEq1:  Iter=  1 NonCon=     1 RMS=2.66D-03 Max=2.48D-02 NDo=     1
 LinEq1:  Iter=  2 NonCon=     1 RMS=7.39D-04 Max=3.52D-03 NDo=     1
 LinEq1:  Iter=  3 NonCon=     1 RMS=2.75D-04 Max=2.21D-03 NDo=     1
 LinEq1:  Iter=  4 NonCon=     1 RMS=4.38D-05 Max=2.38D-04 NDo=     1
 LinEq1:  Iter=  5 NonCon=     1 RMS=5.44D-06 Max=3.90D-05 NDo=     1
 LinEq1:  Iter=  6 NonCon=     1 RMS=1.02D-06 Max=5.46D-06 NDo=     1
 LinEq1:  Iter=  7 NonCon=     1 RMS=1.42D-07 Max=7.41D-07 NDo=     1
 LinEq1:  Iter=  8 NonCon=     1 RMS=1.22D-08 Max=7.20D-08 NDo=     1
 LinEq1:  Iter=  9 NonCon=     1 RMS=1.40D-09 Max=8.26D-09 NDo=     1
 LinEq1:  Iter= 10 NonCon=     1 RMS=1.06D-10 Max=5.06D-10 NDo=     1
 LinEq1:  Iter= 11 NonCon=     0 RMS=6.12D-12 Max=2.89D-11 NDo=     1
 Linear equations converged to 1.000D-10 1.000D-09 after    11 iterations.
 End of Minotr F.D. properties file   721 does not exist.
 End of Minotr F.D. properties file   722 does not exist.
 End of Minotr F.D. properties file   788 does not exist.
 Calling FoFJK, ICntrl=  10002127 FMM=F ISym2X=1 I1Cent= 0 IOpClX= 0 NMat=1 NMatS=1 NMatT=0.
 ***** Axes restored to original set *****
 -------------------------------------------------------------------
 Center     Atomic                   Forces (Hartrees/Bohr)
 Number     Number              X              Y              Z
 -------------------------------------------------------------------
      1       16           0.000000000    0.000000000    0.000004266
      2        9          -0.000000000   -0.000001389   -0.000002133
      3        9          -0.000000000    0.000001389   -0.000002133
 -------------------------------------------------------------------
 Cartesian Forces:  Max     0.000004266 RMS     0.000001860

 GradGradGradGradGradGradGradGradGradGradGradGradGradGradGradGradGradGrad
 Berny optimization.
 Using GEDIIS/GDIIS optimizer.
 FormGI is forming the generalized inverse of G from B-inverse, IUseBI=4.
 Internal  Forces:  Max     0.000002440 RMS     0.000002400
 Search for a local minimum.
 Step number   5 out of a maximum of   20
 All quantities printed in internal units (Hartrees-Bohrs-Radians)
 Mixed Optimization -- En-DIIS/RFO-DIIS
 Swapping is turned off.
 Update second derivatives using D2CorX and points    2    3    4    5
 DE= -5.58D-07 DEPred=-5.50D-07 R= 1.02D+00
 Trust test= 1.02D+00 RLast= 2.07D-03 DXMaxT set to 5.05D-01
 The second derivative matrix:
                          R1        R2        A1
           R1           0.41723
           R2          -0.11478   0.41723
           A1           0.00221   0.00221   0.24219
 ITU=  0  1  1  1
     Eigenvalues ---    0.24202   0.30260   0.53201
 En-DIIS/RFO-DIIS/Sim-DIIS IScMMF=       -3 using points:     5    4
 RFO step:  Lambda= 0.00000000D+00.
 DidBck=F Rises=F RFO-DIIS coefs:    1.00123   -0.00123
 Iteration  1 RMS(Cart)=  0.00000868 RMS(Int)=  0.00000000
 Iteration  2 RMS(Cart)=  0.00000000 RMS(Int)=  0.00000000
 ClnCor:  largest displacement from symmetrization is 2.51D-15 for atom     3.
 Variable       Old X    -DE/DX   Delta X   Delta X   Delta X     New X
                                 (Linear)    (Quad)   (Total)
    R1        3.20596  -0.00000   0.00000  -0.00001  -0.00001   3.20595
    R2        3.20596  -0.00000   0.00000  -0.00001  -0.00001   3.20595
    A1        1.73018   0.00000   0.00000   0.00001   0.00001   1.73018
         Item               Value     Threshold  Converged?
 Maximum Force            0.000002     0.000450     YES
 RMS     Force            0.000002     0.000300     YES
 Maximum Displacement     0.000011     0.001800     YES
 RMS     Displacement     0.000009     0.001200     YES
 Predicted change in Energy=-3.112027D-11
 Optimization completed.
    -- Stationary point found.
                           ----------------------------
                           !   Optimized Parameters   !
                           ! (Angstroms and Degrees)  !
 --------------------------                            --------------------------
 ! Name  Definition              Value          Derivative Info.                !
 --------------------------------------------------------------------------------
 ! R1    R(1,2)                  1.6965         -DE/DX =    0.0                 !
 ! R2    R(1,3)                  1.6965         -DE/DX =    0.0                 !
 ! A1    A(2,1,3)               99.1317         -DE/DX =    0.0                 !
 --------------------------------------------------------------------------------
 GradGradGradGradGradGradGradGradGradGradGradGradGradGradGradGradGradGrad

                          Input orientation:                          
 ---------------------------------------------------------------------
 Center     Atomic      Atomic             Coordinates (Angstroms)
 Number     Number       Type             X           Y           Z
 ---------------------------------------------------------------------
      1         16           0       -0.000000   -0.000000   -0.607548
      2          9           0       -0.000000    1.291311    0.492771
      3          9           0        0.000000   -1.291311    0.492771
 ---------------------------------------------------------------------
                    Distance matrix (angstroms):
                    1          2          3
     1  S    0.000000
     2  F    1.696521   0.000000
     3  F    1.696521   2.582622   0.000000
 Stoichiometry    F2S
 Framework group  C2V[C2(S),SGV(F2)]
 Deg. of freedom     2
 Full point group                 C2V     NOp   4
 Largest Abelian subgroup         C2V     NOp   4
 Largest concise Abelian subgroup C2      NOp   2
                         Standard orientation:                         
 ---------------------------------------------------------------------
 Center     Atomic      Atomic             Coordinates (Angstroms)
 Number     Number       Type             X           Y           Z
 ---------------------------------------------------------------------
      1         16           0       -0.000000    0.000000    0.582522
      2          9           0       -0.000000    1.291311   -0.517797
      3          9           0       -0.000000   -1.291311   -0.517797
 ---------------------------------------------------------------------
 Rotational constants (GHZ):          24.0418178           7.9764298           5.9893307

 **********************************************************************

            Population analysis using the SCF Density.

 **********************************************************************

 Orbital symmetries:
       Occupied  (A1) (A1) (B2) (A1) (B2) (A1) (B1) (A1) (B2) (A1)
                 (B1) (B2) (A1) (A2) (B2) (A1) (B1)
       Virtual   (B2) (A1) (A1) (B1) (B2) (A1) (A2) (A1) (B1) (B2)
                 (B2) (A1) (B2) (A1)
 The electronic state is 1-A1.
 Alpha  occ. eigenvalues --  -91.47700 -26.18598 -26.18545  -9.06383  -6.73726
 Alpha  occ. eigenvalues --   -6.73587  -6.73268  -1.60370  -1.57106  -0.97236
 Alpha  occ. eigenvalues --   -0.69333  -0.69116  -0.68420  -0.65514  -0.62079
 Alpha  occ. eigenvalues --   -0.56686  -0.42130
 Alpha virt. eigenvalues --    0.08825   0.11834   0.55606   0.64693   0.65915
 Alpha virt. eigenvalues --    0.66193   2.18174   2.18457   2.25193   2.27584
 Alpha virt. eigenvalues --    2.35040   2.39281   3.47357   3.75300
          Condensed to atoms (all electrons):
               1          2          3
     1  S   14.951108   0.105927   0.105927
     2  F    0.105927   9.317083  -0.004490
     3  F    0.105927  -0.004490   9.317083
 Mulliken charges:
               1
     1  S    0.837039
     2  F   -0.418519
     3  F   -0.418519
 Sum of Mulliken charges =   0.00000
 Mulliken charges with hydrogens summed into heavy atoms:
               1
     1  S    0.837039
     2  F   -0.418519
     3  F   -0.418519
 Electronic spatial extent (au):  <R**2>=            194.3420
 Charge=              0.0000 electrons
 Dipole moment (field-independent basis, Debye):
    X=              0.0000    Y=              0.0000    Z=              2.2118  Tot=              2.2118
 Quadrupole moment (field-independent basis, Debye-Ang):
   XX=            -22.3567   YY=            -24.4941   ZZ=            -21.1206
   XY=             -0.0000   XZ=             -0.0000   YZ=              0.0000
 Traceless Quadrupole moment (field-independent basis, Debye-Ang):
   XX=              0.3004   YY=             -1.8369   ZZ=              1.5365
   XY=             -0.0000   XZ=             -0.0000   YZ=              0.0000
 Octapole moment (field-independent basis, Debye-Ang**2):
  XXX=              0.0000  YYY=             -0.0000  ZZZ=             -5.1003  XYY=              0.0000
  XXY=             -0.0000  XXZ=             -3.3857  XZZ=              0.0000  YZZ=              0.0000
  YYZ=              1.8696  XYZ=              0.0000
 Hexadecapole moment (field-independent basis, Debye-Ang**3):
 XXXX=            -21.4466 YYYY=           -115.6875 ZZZZ=            -54.9949 XXXY=             -0.0000
 XXXZ=             -0.0000 YYYX=             -0.0000 YYYZ=             -0.0000 ZZZX=             -0.0000
 ZZZY=              0.0000 XXYY=            -21.4501 XXZZ=            -13.7794 YYZZ=            -27.2651
 XXYZ=              0.0000 YYXZ=             -0.0000 ZZXY=             -0.0000
 N-N= 1.064295064203D+02 E-N=-1.628439434929D+03  KE= 5.922137366349D+02
 Symmetry A1   KE= 4.120859140051D+02
 Symmetry A2   KE= 6.445422577855D+00
 Symmetry B1   KE= 4.534076981515D+01
 Symmetry B2   KE= 1.283416302368D+02
 Unable to Open any file for archive entry.
 1\1\GINC-BS001\FOpt\RMP2-FC\3-21G\F2S1\PNATT\10-Aug-2026\0\\# opt freq
 =hpmodes mp2/3-21g geom=connectivity\\Title Card Required\\0,1\S,0.,0.
 ,-0.6075475472\F,0.,1.2913107837,0.4927710836\F,0.,-1.2913107837,0.492
 7710836\\Version=ES64L-G16RevC.01\State=1-A1\HF=-593.2813102\MP2=-593.
 5823065\RMSD=1.318e-09\RMSF=1.860e-06\Dipole=0.,0.,-0.6936575\PG=C02V 
 [C2(S1),SGV(F2)]\\@
 The archive entry for this job was punched.


 ON A TOMBSTONE, "HERE LIES LESTER MOORE,
 FOUR SLUGS FROM A 44, NO LES, NO MORE".
 Job cpu time:       0 days  0 hours  0 minutes  5.5 seconds.
 Elapsed time:       0 days  0 hours  0 minutes  5.0 seconds.
 File lengths (MBytes):  RWF=      6 Int=      0 D2E=      0 Chk=      1 Scr=      1
 Normal termination of Gaussian 16 at Mon Aug 10 16:49:35 2026.
 Link1:  Proceeding to internal job step number  2.
 -------------------------------------------------------------------
 #N Geom=AllCheck Guess=TCheck SCRF=Check GenChk RMP2(FC)/3-21G Freq
 -------------------------------------------------------------------
 1/10=4,29=7,30=1,38=1,40=1/1,3;
 2/12=2,40=1/2;
 3/5=5,11=1,14=-4,25=1,30=1,70=2,71=2,116=1,140=1/1,2,3;
 4/5=101/1;
 5/5=2,38=6,98=1/2;
 8/6=3,8=1,10=1,19=11,30=-1/1;
 9/15=3,16=-3/6;
 11/6=1,8=1,15=11,17=12,24=-1,27=1,28=-2,29=300,32=6,42=3/1,2,10;
 10/6=2,21=1/2;
 8/6=4,8=1,10=1,19=11,30=-1/11,4;
 10/5=1,20=4/2;
 11/12=2,14=11,16=1,17=2,28=-2,42=3,76=2/2,10,12;
 6/7=2,8=2,9=2,10=2/1;
 7/8=11,10=1,12=2,25=1,44=2/1,2,3,16;
 1/10=4,30=1/3;
 99//99;
 Structure from the checkpoint file:  "SF2.chk"
 -------------------
 Title Card Required
 -------------------
 Charge =  0 Multiplicity = 1
 Redundant internal coordinates found in file.  (old form).
 S,0,0.,0.,-0.6075475472
 F,0,0.,1.2913107837,0.4927710836
 F,0,0.,-1.2913107837,0.4927710836
 Recover connectivity data from disk.

 GradGradGradGradGradGradGradGradGradGradGradGradGradGradGradGradGradGrad
 Berny optimization.
 Initialization pass.
                           ----------------------------
                           !    Initial Parameters    !
                           ! (Angstroms and Degrees)  !
 --------------------------                            --------------------------
 ! Name  Definition              Value          Derivative Info.                !
 --------------------------------------------------------------------------------
 ! R1    R(1,2)                  1.6965         calculate D2E/DX2 analytically  !
 ! R2    R(1,3)                  1.6965         calculate D2E/DX2 analytically  !
 ! A1    A(2,1,3)               99.1317         calculate D2E/DX2 analytically  !
 --------------------------------------------------------------------------------
 Trust Radius=3.00D-01 FncErr=1.00D-07 GrdErr=1.00D-07 EigMax=2.50D+02 EigMin=1.00D-04
 Number of steps in this run=      2 maximum allowed number of steps=      2.
 GradGradGradGradGradGradGradGradGradGradGradGradGradGradGradGradGradGrad

                          Input orientation:                          
 ---------------------------------------------------------------------
 Center     Atomic      Atomic             Coordinates (Angstroms)
 Number     Number       Type             X           Y           Z
 ---------------------------------------------------------------------
      1         16           0       -0.000000   -0.000000   -0.607548
      2          9           0       -0.000000    1.291311    0.492771
      3          9           0        0.000000   -1.291311    0.492771
 ---------------------------------------------------------------------
                    Distance matrix (angstroms):
                    1          2          3
     1  S    0.000000
     2  F    1.696521   0.000000
     3  F    1.696521   2.582622   0.000000
 Stoichiometry    F2S
 Framework group  C2V[C2(S),SGV(F2)]
 Deg. of freedom     2
 Full point group                 C2V     NOp   4
 Largest Abelian subgroup         C2V     NOp   4
 Largest concise Abelian subgroup C2      NOp   2
                         Standard orientation:                         
 ---------------------------------------------------------------------
 Center     Atomic      Atomic             Coordinates (Angstroms)
 Number     Number       Type             X           Y           Z
 ---------------------------------------------------------------------
      1         16           0       -0.000000    0.000000    0.582522
      2          9           0       -0.000000    1.291311   -0.517797
      3          9           0       -0.000000   -1.291311   -0.517797
 ---------------------------------------------------------------------
 Rotational constants (GHZ):          24.0418178           7.9764298           5.9893307
 Standard basis: 3-21G (6D, 7F)
 There are    14 symmetry adapted cartesian basis functions of A1  symmetry.
 There are     2 symmetry adapted cartesian basis functions of A2  symmetry.
 There are     5 symmetry adapted cartesian basis functions of B1  symmetry.
 There are    10 symmetry adapted cartesian basis functions of B2  symmetry.
 There are    14 symmetry adapted basis functions of A1  symmetry.
 There are     2 symmetry adapted basis functions of A2  symmetry.
 There are     5 symmetry adapted basis functions of B1  symmetry.
 There are    10 symmetry adapted basis functions of B2  symmetry.
    31 basis functions,    57 primitive gaussians,    31 cartesian basis functions
    17 alpha electrons       17 beta electrons
       nuclear repulsion energy       106.4295064203 Hartrees.
 NAtoms=    3 NActive=    3 NUniq=    2 SFac= 2.25D+00 NAtFMM=   60 NAOKFM=F Big=F
 Integral buffers will be    131072 words long.
 Raffenetti 1 integral format.
 Two-electron integral symmetry is turned on.
 One-electron integrals computed using PRISM.
 NBasis=    31 RedAO= T EigKep=  9.31D-02  NBF=    14     2     5    10
 NBsUse=    31 1.00D-06 EigRej= -1.00D+00 NBFU=    14     2     5    10
 Initial guess from the checkpoint file:  "SF2.chk"
 B after Tr=     0.000000    0.000000   -0.000000
         Rot=    1.000000    0.000000   -0.000000   -0.000000 Ang=   0.00 deg.
 Initial guess orbital symmetries:
       Occupied  (A1) (A1) (B2) (A1) (B2) (A1) (B1) (A1) (B2) (A1)
                 (B1) (B2) (A1) (A2) (B2) (A1) (B1)
       Virtual   (B2) (A1) (A1) (B1) (B2) (A1) (A2) (A1) (B1) (B2)
                 (B2) (A1) (B2) (A1)
 Keep R1 ints in memory in symmetry-blocked form, NReq=930069.
 Requested convergence on RMS density matrix=1.00D-08 within 128 cycles.
 Requested convergence on MAX density matrix=1.00D-06.
 Requested convergence on             energy=1.00D-06.
 No special actions if energy rises.
 SCF Done:  E(RHF) =  -593.281310171     A.U. after    1 cycles
            NFock=  1  Conv=0.21D-09     -V/T= 2.0018
 ExpMin= 1.42D-01 ExpMax= 1.21D+03 ExpMxC= 1.21D+03 IAcc=3 IRadAn=         5 AccDes= 0.00D+00
 HarFok:  IExCor=  205 AccDes= 0.00D+00 IRadAn=         5 IDoV=-2 UseB2=F ITyADJ=14
 ICtDFT= 12500011 ScaDFX=  1.000000  1.000000  1.000000  1.000000
 Range of M.O.s used for correlation:     8    31
 NBasis=    31 NAE=    17 NBE=    17 NFC=     7 NFV=     0
 NROrb=     24 NOA=    10 NOB=    10 NVA=    14 NVB=    14
 Disk-based method using ON**2 memory for 10 occupieds at a time.
 Permanent disk used for amplitudes=       69020 words.
 Estimated scratch disk usage=      985002 words.
 Actual    scratch disk usage=      985002 words.
 JobTyp=1 Pass  1:  I=   8 to  17 NPSUse=  1 ParTrn=F ParDer=F DoDerP=T.
 (rs|ai) integrals will be sorted in core.
 Spin components of T(2) and E(2):
     alpha-alpha T2 =       0.9163264608D-02 E2=     -0.3799982740D-01
     alpha-beta  T2 =       0.6364779502D-01 E2=     -0.2249966492D+00
     beta-beta   T2 =       0.9163264608D-02 E2=     -0.3799982740D-01
 ANorm=    0.1040179948D+01
 E2 =    -0.3009963040D+00 EUMP2 =    -0.59358230647464D+03
 G2DrvN: will do     4 centers at a time, making    1 passes.
 Calling FoFCou, ICntrl=  3107 FMM=F I1Cent=   0 AccDes= 0.00D+00.
 End of G2Drv F.D. properties file   721 does not exist.
 End of G2Drv F.D. properties file   722 does not exist.
 End of G2Drv F.D. properties file   788 does not exist.
          IDoAtm=111
          Differentiating once with respect to electric field.
                with respect to dipole field.
          Differentiating once with respect to nuclear coordinates.
 Keep R1 ints in memory in symmetry-blocked form, NReq=930586.
          There are    12 degrees of freedom in the 1st order CPHF.  IDoFFX=6 NUNeed=    12.
      9 vectors produced by pass  0 Test12= 1.98D-15 8.33D-09 XBig12= 6.18D+00 1.88D+00.
 AX will form     9 AO Fock derivatives at one time.
      9 vectors produced by pass  1 Test12= 1.98D-15 8.33D-09 XBig12= 3.01D-01 2.16D-01.
      9 vectors produced by pass  2 Test12= 1.98D-15 8.33D-09 XBig12= 1.86D-02 6.03D-02.
      9 vectors produced by pass  3 Test12= 1.98D-15 8.33D-09 XBig12= 1.41D-04 4.07D-03.
      9 vectors produced by pass  4 Test12= 1.98D-15 8.33D-09 XBig12= 7.19D-07 3.22D-04.
      9 vectors produced by pass  5 Test12= 1.98D-15 8.33D-09 XBig12= 4.27D-09 2.55D-05.
      8 vectors produced by pass  6 Test12= 1.98D-15 8.33D-09 XBig12= 2.62D-11 2.00D-06.
      2 vectors produced by pass  7 Test12= 1.98D-15 8.33D-09 XBig12= 9.28D-14 1.11D-07.
 InvSVY:  IOpt=1 It=  1 EMax= 4.44D-16
 Solved reduced A of dimension    64 with     9 vectors.
 End of Minotr F.D. properties file   721 does not exist.
 End of Minotr F.D. properties file   722 does not exist.
 End of Minotr F.D. properties file   788 does not exist.
 MDV=   104857600.
 Form MO integral derivatives with frozen-active canonical formalism.
 Discarding MO integrals.
 Reordered first order wavefunction length =       113288
 In DefCFB: NBatch=  1 ICI= 17 ICA= 14 LFMax= 17
            Large arrays: LIAPS=      914872 LIARS=      671398 words.
 Semi-Direct transformation.
 ModeAB=           4 MOrb=            17 LenV=     104725984
 LASXX=       132362 LTotXX=      132362 LenRXX=      289884
 LTotAB=      157522 MaxLAS=      176018 LenRXY=           0
 NonZer=      422246 LenScr=     1266688 LnRSAI=      176018
 LnScr1=      785920 LExtra=           0 Total=      2518510
 MaxDsk=          -1 SrtSym=           T ITran=            4
 JobTyp=0 Pass  1:  I=   1 to  17.
 (rs|ai) integrals will be sorted in core.
 Spin components of T(2) and E(2):
     alpha-alpha T2 =       0.9163264608D-02 E2=     -0.3799982740D-01
     alpha-beta  T2 =       0.6364779502D-01 E2=     -0.2249966492D+00
     beta-beta   T2 =       0.9163264608D-02 E2=     -0.3799982740D-01
 ANorm=    0.1471036590D+01
 E2 =    -0.3009963040D+00 EUMP2 =    -0.59358230647464D+03
          IDoAtm=111
          Differentiating once with respect to electric field.
                with respect to dipole field.
          Differentiating once with respect to nuclear coordinates.
          There are     1 degrees of freedom in the 1st order CPHF.  IDoFFX=0 NUNeed=     1.
 LinEq1:  Iter=  0 NonCon=     1 RMS=1.25D-02 Max=1.19D-01 NDo=     1
 LinEq1:  Iter=  1 NonCon=     1 RMS=2.66D-03 Max=2.48D-02 NDo=     1
 LinEq1:  Iter=  2 NonCon=     1 RMS=7.39D-04 Max=3.52D-03 NDo=     1
 LinEq1:  Iter=  3 NonCon=     1 RMS=2.75D-04 Max=2.21D-03 NDo=     1
 LinEq1:  Iter=  4 NonCon=     1 RMS=4.38D-05 Max=2.38D-04 NDo=     1
 LinEq1:  Iter=  5 NonCon=     1 RMS=5.44D-06 Max=3.90D-05 NDo=     1
 LinEq1:  Iter=  6 NonCon=     1 RMS=1.02D-06 Max=5.46D-06 NDo=     1
 LinEq1:  Iter=  7 NonCon=     1 RMS=1.42D-07 Max=7.41D-07 NDo=     1
 LinEq1:  Iter=  8 NonCon=     1 RMS=1.22D-08 Max=7.20D-08 NDo=     1
 LinEq1:  Iter=  9 NonCon=     1 RMS=1.40D-09 Max=8.26D-09 NDo=     1
 LinEq1:  Iter= 10 NonCon=     1 RMS=1.06D-10 Max=5.06D-10 NDo=     1
 LinEq1:  Iter= 11 NonCon=     0 RMS=6.12D-12 Max=2.89D-11 NDo=     1
 Linear equations converged to 1.000D-10 1.000D-09 after    11 iterations.
 End of Minotr F.D. properties file   721 does not exist.
 End of Minotr F.D. properties file   722 does not exist.
 End of Minotr F.D. properties file   788 does not exist.
 Symmetrizing basis deriv contribution to polar:
 IMax=3 JMax=2 DiffMx= 0.00D+00
 G2DrvN: will do     4 centers at a time, making    1 passes.
 Calling FoFCou, ICntrl=  3107 FMM=F I1Cent=   0 AccDes= 0.00D+00.
 End of G2Drv F.D. properties file   721 does not exist.
 End of G2Drv F.D. properties file   722 does not exist.
 End of G2Drv F.D. properties file   788 does not exist.
 R2 and R3 integrals will be kept in memory, NReq=     1046512.
 DD1Dir will call FoFMem   1 times, MxPair=       306
 NAB=   153 NAA=     0 NBB=     0.
 Discarding MO integrals.

 **********************************************************************

            Population analysis using the SCF Density.

 **********************************************************************

 Orbital symmetries:
       Occupied  (A1) (A1) (B2) (A1) (B2) (A1) (B1) (A1) (B2) (A1)
                 (B1) (B2) (A1) (A2) (B2) (A1) (B1)
       Virtual   (B2) (A1) (A1) (B1) (B2) (A1) (A2) (A1) (B1) (B2)
                 (B2) (A1) (B2) (A1)
 The electronic state is 1-A1.
 Alpha  occ. eigenvalues --  -91.47700 -26.18598 -26.18545  -9.06383  -6.73726
 Alpha  occ. eigenvalues --   -6.73587  -6.73268  -1.60370  -1.57106  -0.97236
 Alpha  occ. eigenvalues --   -0.69333  -0.69116  -0.68420  -0.65514  -0.62079
 Alpha  occ. eigenvalues --   -0.56686  -0.42130
 Alpha virt. eigenvalues --    0.08825   0.11834   0.55606   0.64693   0.65915
 Alpha virt. eigenvalues --    0.66193   2.18174   2.18457   2.25193   2.27584
 Alpha virt. eigenvalues --    2.35040   2.39281   3.47357   3.75300
          Condensed to atoms (all electrons):
               1          2          3
     1  S   14.951108   0.105927   0.105927
     2  F    0.105927   9.317083  -0.004490
     3  F    0.105927  -0.004490   9.317083
 Mulliken charges:
               1
     1  S    0.837039
     2  F   -0.418519
     3  F   -0.418519
 Sum of Mulliken charges =  -0.00000
 Mulliken charges with hydrogens summed into heavy atoms:
               1
     1  S    0.837039
     2  F   -0.418519
     3  F   -0.418519
 APT charges:
               1
     1  S    0.579734
     2  F   -0.289867
     3  F   -0.289867
 Sum of APT charges =   0.00000
 APT charges with hydrogens summed into heavy atoms:
               1
     1  S    0.579734
     2  F   -0.289867
     3  F   -0.289867
 Electronic spatial extent (au):  <R**2>=            194.3420
 Charge=             -0.0000 electrons
 Dipole moment (field-independent basis, Debye):
    X=              0.0000    Y=              0.0000    Z=              2.2118  Tot=              2.2118
 Quadrupole moment (field-independent basis, Debye-Ang):
   XX=            -22.3567   YY=            -24.4941   ZZ=            -21.1206
   XY=             -0.0000   XZ=             -0.0000   YZ=              0.0000
 Traceless Quadrupole moment (field-independent basis, Debye-Ang):
   XX=              0.3004   YY=             -1.8369   ZZ=              1.5365
   XY=             -0.0000   XZ=             -0.0000   YZ=              0.0000
 Octapole moment (field-independent basis, Debye-Ang**2):
  XXX=              0.0000  YYY=              0.0000  ZZZ=             -5.1003  XYY=              0.0000
  XXY=             -0.0000  XXZ=             -3.3857  XZZ=              0.0000  YZZ=              0.0000
  YYZ=              1.8696  XYZ=              0.0000
 Hexadecapole moment (field-independent basis, Debye-Ang**3):
 XXXX=            -21.4466 YYYY=           -115.6875 ZZZZ=            -54.9949 XXXY=             -0.0000
 XXXZ=             -0.0000 YYYX=             -0.0000 YYYZ=              0.0000 ZZZX=             -0.0000
 ZZZY=              0.0000 XXYY=            -21.4501 XXZZ=            -13.7794 YYZZ=            -27.2651
 XXYZ=              0.0000 YYXZ=             -0.0000 ZZXY=             -0.0000
 N-N= 1.064295064203D+02 E-N=-1.628439434936D+03  KE= 5.922137366336D+02
 Symmetry A1   KE= 4.120859140061D+02
 Symmetry A2   KE= 6.445422578374D+00
 Symmetry B1   KE= 4.534076982466D+01
 Symmetry B2   KE= 1.283416302244D+02
  Exact polarizability:       5.956       0.000      19.988       0.000      -0.000      13.929
 Approx polarizability:       4.141       0.000      17.905       0.000      -0.000      11.545
 Calling FoFJK, ICntrl=  10100127 FMM=F ISym2X=1 I1Cent= 0 IOpClX= 0 NMat=1 NMatS=1 NMatT=0.
 Full mass-weighted force constant matrix:
 Low frequencies ---    0.0024    0.0030    0.0041    0.8576    1.1725    1.7671
 Low frequencies ---  303.6938  780.2933  801.2537
 Diagonal vibrational polarizability:
        0.0000000       1.4412246       3.4171989
 Harmonic frequencies (cm**-1), IR intensities (KM/Mole), Raman scattering
 activities (A**4/AMU), depolarization ratios for plane and unpolarized
 incident light, reduced masses (AMU), force constants (mDyne/A),
 and normal coordinates:
                           1         2         3
                          A1        A1        B2
       Frequencies ---   303.6938  780.2933  801.2537
    Reduced masses ---    20.5184   22.2538   22.7652
   Force constants ---     1.1150    7.9831    8.6112
    IR Intensities ---     9.6153   13.8377   34.3826
 Coord Atom Element:
   1     1    16         -0.00000   0.00000   0.00000
   2     1    16          0.00000   0.00000   0.53884
   3     1    16         -0.34228   0.50092  -0.00000
   1     2     9          0.00000  -0.00000   0.00000
   2     2     9          0.59873   0.44372  -0.45340
   3     2     9          0.28801  -0.42149   0.38634
   1     3     9         -0.00000  -0.00000  -0.00000
   2     3     9         -0.59873  -0.44372  -0.45340
   3     3     9          0.28801  -0.42149  -0.38634
 Harmonic frequencies (cm**-1), IR intensities (KM/Mole), Raman scattering
 activities (A**4/AMU), depolarization ratios for plane and unpolarized
 incident light, reduced masses (AMU), force constants (mDyne/A),
 and normal coordinates:
                      1                      2                      3
                     A1                     A1                     B2
 Frequencies --    303.6938               780.2933               801.2537
 Red. masses --     20.5184                22.2538                22.7652
 Frc consts  --      1.1150                 7.9831                 8.6112
 IR Inten    --      9.6153                13.8377                34.3826
  Atom  AN      X      Y      Z        X      Y      Z        X      Y      Z
     1  16    -0.00   0.00  -0.34     0.00   0.00   0.50     0.00   0.54  -0.00
     2   9     0.00   0.60   0.29    -0.00   0.44  -0.42     0.00  -0.45   0.39
     3   9    -0.00  -0.60   0.29    -0.00  -0.44  -0.42    -0.00  -0.45  -0.39

 -------------------
 - Thermochemistry -
 -------------------
 Temperature   298.150 Kelvin.  Pressure   1.00000 Atm.
 Atom     1 has atomic number 16 and mass  31.97207
 Atom     2 has atomic number  9 and mass  18.99840
 Atom     3 has atomic number  9 and mass  18.99840
 Molecular mass:    69.96888 amu.
 Principal axes and moments of inertia in atomic units:
                           1         2         3
     Eigenvalues --    75.06675 226.25927 301.32603
           X            0.00000   0.00000   1.00000
           Y            1.00000   0.00000   0.00000
           Z            0.00000   1.00000   0.00000
 This molecule is an asymmetric top.
 Rotational symmetry number  2.
 Rotational temperatures (Kelvin)      1.15383     0.38281     0.28744
 Rotational constants (GHZ):          24.04182     7.97643     5.98933
 Zero-point vibrational energy      11276.2 (Joules/Mol)
                                    2.69509 (Kcal/Mol)
 Warning -- explicit consideration of   1 degrees of freedom as
           vibrations may cause significant error
 Vibrational temperatures:    436.95  1122.67  1152.83
          (Kelvin)
 
 Zero-point correction=                           0.004295 (Hartree/Particle)
 Thermal correction to Energy=                    0.007705
 Thermal correction to Enthalpy=                  0.008650
 Thermal correction to Gibbs Free Energy=        -0.020930
 Sum of electronic and zero-point Energies=           -593.578012
 Sum of electronic and thermal Energies=              -593.574601
 Sum of electronic and thermal Enthalpies=            -593.573657
 Sum of electronic and thermal Free Energies=         -593.603236
 
                     E (Thermal)             CV                S
                      KCal/Mol        Cal/Mol-Kelvin    Cal/Mol-Kelvin
 Total                    4.835              8.961             62.255
 Electronic               0.000              0.000              0.000
 Translational            0.889              2.981             38.653
 Rotational               0.889              2.981             21.775
 Vibrational              3.058              2.999              1.827
 Vibration     1          0.695              1.667              1.396
                       Q            Log10(Q)             Ln(Q)
 Total Bot       0.423711D+10          9.627070         22.167147
 Total V=0       0.400481D+12         11.602582         26.715933
 Vib (Bot)       0.143846D-01         -1.842103         -4.241598
 Vib (Bot)    1  0.624903D+00         -0.204187         -0.470158
 Vib (V=0)       0.135960D+01          0.133410          0.307188
 Vib (V=0)    1  0.130032D+01          0.114049          0.262607
 Electronic      0.100000D+01          0.000000          0.000000
 Translational   0.230044D+08          7.361811         16.951197
 Rotational      0.128045D+05          4.107361          9.457548
 ***** Axes restored to original set *****
 -------------------------------------------------------------------
 Center     Atomic                   Forces (Hartrees/Bohr)
 Number     Number              X              Y              Z
 -------------------------------------------------------------------
      1       16           0.000000000   -0.000000000    0.000004265
      2        9           0.000000000   -0.000001389   -0.000002133
      3        9          -0.000000000    0.000001389   -0.000002133
 -------------------------------------------------------------------
 Cartesian Forces:  Max     0.000004265 RMS     0.000001860
 FormGI is forming the generalized inverse of G from B-inverse, IUseBI=4.

 GradGradGradGradGradGradGradGradGradGradGradGradGradGradGradGradGradGrad
 Berny optimization.
 Internal  Forces:  Max     0.000002440 RMS     0.000002400
 Search for a local minimum.
 Step number   1 out of a maximum of    2
 All quantities printed in internal units (Hartrees-Bohrs-Radians)
 Second derivative matrix not updated -- analytic derivatives used.
 The second derivative matrix:
                          R1        R2        A1
           R1           0.28068
           R2           0.00732   0.28068
           A1           0.00797   0.00797   0.23711
 ITU=  0
     Eigenvalues ---    0.23473   0.27336   0.29039
 Angle between quadratic step and forces=   6.03 degrees.
 Linear search not attempted -- first point.
 Iteration  1 RMS(Cart)=  0.00000926 RMS(Int)=  0.00000000
 Iteration  2 RMS(Cart)=  0.00000000 RMS(Int)=  0.00000000
 ClnCor:  largest displacement from symmetrization is 5.27D-15 for atom     3.
 Variable       Old X    -DE/DX   Delta X   Delta X   Delta X     New X
                                 (Linear)    (Quad)   (Total)
    R1        3.20596  -0.00000   0.00000  -0.00001  -0.00001   3.20595
    R2        3.20596  -0.00000   0.00000  -0.00001  -0.00001   3.20595
    A1        1.73018   0.00000   0.00000   0.00001   0.00001   1.73019
         Item               Value     Threshold  Converged?
 Maximum Force            0.000002     0.000450     YES
 RMS     Force            0.000002     0.000300     YES
 Maximum Displacement     0.000012     0.001800     YES
 RMS     Displacement     0.000009     0.001200     YES
 Predicted change in Energy=-3.337666D-11
 Optimization completed.
    -- Stationary point found.
                           ----------------------------
                           !   Optimized Parameters   !
                           ! (Angstroms and Degrees)  !
 --------------------------                            --------------------------
 ! Name  Definition              Value          Derivative Info.                !
 --------------------------------------------------------------------------------
 ! R1    R(1,2)                  1.6965         -DE/DX =    0.0                 !
 ! R2    R(1,3)                  1.6965         -DE/DX =    0.0                 !
 ! A1    A(2,1,3)               99.1317         -DE/DX =    0.0                 !
 --------------------------------------------------------------------------------
 GradGradGradGradGradGradGradGradGradGradGradGradGradGradGradGradGradGrad


 ----------------------------------------------------------------------

 Electric dipole moment (input orientation):
 (Debye = 10**-18 statcoulomb cm , SI units = C m)
                  (au)            (Debye)         (10**-30 SI)
   Tot        0.693658D+00      0.176310D+01      0.588107D+01
   x          0.000000D+00      0.000000D+00      0.000000D+00
   y          0.000000D+00      0.000000D+00      0.000000D+00
   z         -0.693658D+00     -0.176310D+01     -0.588107D+01

 Dipole polarizability, Alpha (input orientation).
 (esu units = cm**3 , SI units = C**2 m**2 J**-1)
 Alpha(0;0):
               (au)            (10**-24 esu)      (10**-40 SI)
   iso        0.132906D+02      0.196947D+01      0.219133D+01
   aniso      0.121896D+02      0.180632D+01      0.200980D+01
   xx         0.595562D+01      0.882532D+00      0.981949D+00
   yx         0.000000D+00      0.000000D+00      0.000000D+00
   yy         0.199875D+02      0.296185D+01      0.329550D+01
   zx         0.000000D+00      0.000000D+00      0.000000D+00
   zy         0.000000D+00      0.000000D+00      0.000000D+00
   zz         0.139287D+02      0.206403D+01      0.229654D+01

 ----------------------------------------------------------------------

 Dipole orientation:
    16          0.00000000          0.00000000          1.14809847
     9         -0.00000000         -2.44022372         -0.93120239
     9          0.00000000          2.44022372         -0.93120239

 Electric dipole moment (dipole orientation):
 (Debye = 10**-18 statcoulomb cm , SI units = C m)
                  (au)            (Debye)         (10**-30 SI)
   Tot        0.693658D+00      0.176310D+01      0.588107D+01
   x          0.000000D+00      0.000000D+00      0.000000D+00
   y          0.000000D+00      0.000000D+00      0.000000D+00
   z          0.693658D+00      0.176310D+01      0.588107D+01

 Dipole polarizability, Alpha (dipole orientation).
 (esu units = cm**3 , SI units = C**2 m**2 J**-1)
 Alpha(0;0):
               (au)            (10**-24 esu)      (10**-40 SI)
   iso        0.132906D+02      0.196947D+01      0.219133D+01
   aniso      0.121896D+02      0.180632D+01      0.200980D+01
   xx         0.595562D+01      0.882532D+00      0.981949D+00
   yx         0.000000D+00      0.000000D+00      0.000000D+00
   yy         0.199875D+02      0.296185D+01      0.329550D+01
   zx         0.000000D+00      0.000000D+00      0.000000D+00
   zy         0.000000D+00      0.000000D+00      0.000000D+00
   zz         0.139287D+02      0.206403D+01      0.229654D+01

 ----------------------------------------------------------------------
 Unable to Open any file for archive entry.
 1\1\GINC-BS001\Freq\RMP2-FC\3-21G\F2S1\PNATT\10-Aug-2026\0\\#N Geom=Al
 lCheck Guess=TCheck SCRF=Check GenChk RMP2(FC)/3-21G Freq\\Title Card 
 Required\\0,1\S,0.,0.,-0.6075475472\F,0.,1.2913107837,0.4927710836\F,0
 .,-1.2913107837,0.4927710836\\Version=ES64L-G16RevC.01\State=1-A1\HF=-
 593.2813102\MP2=-593.5823065\RMSD=2.060e-10\RMSF=1.860e-06\ZeroPoint=0
 .0042949\Thermal=0.0077053\ETot=-593.5746011\HTot=-593.573657\GTot=-59
 3.6032364\Dipole=0.,0.,-0.6936575\DipoleDeriv=0.3336013,0.,0.,0.,0.761
 1936,0.,0.,0.,0.6444079,-0.1668007,0.,0.,0.,-0.3805968,0.0364897,0.,-0
 .1821745,-0.322204,-0.1668007,0.,0.,0.,-0.3805968,-0.0364897,0.,0.1821
 745,-0.322204\Polar=5.9556181,0.,19.9875397,0.,0.,13.9287483\PG=C02V [
 C2(S1),SGV(F2)]\NImag=0\\0.00000205,0.,0.31674903,0.,0.,0.28594271,-0.
 00000103,0.,0.,0.00000078,0.,-0.15837452,-0.11861113,0.,0.17477452,0.,
 -0.13494916,-0.14297136,0.,0.12678015,0.12898068,-0.00000103,0.,0.,0.0
 0000025,0.,0.,0.00000078,0.,-0.15837452,0.11861113,0.,-0.01640000,0.00
 816902,0.,0.17477452,0.,0.13494916,-0.14297136,0.,-0.00816902,0.013990
 68,0.,-0.12678015,0.12898068\\0.,0.,-0.00000427,0.,0.00000139,0.000002
 13,0.,-0.00000139,0.00000213\\\@
 The archive entry for this job was punched.


 NOTHING PUZZLES ME MORE THAN TIME AND SPACE; AND YET NOTHING TROUBLES ME LESS
                                                          -- CHARLES LAMB (1810)
 Job cpu time:       0 days  0 hours  0 minutes  3.0 seconds.
 Elapsed time:       0 days  0 hours  0 minutes  2.9 seconds.
 File lengths (MBytes):  RWF=     27 Int=      0 D2E=      0 Chk=      1 Scr=      1
 Normal termination of Gaussian 16 at Mon Aug 10 16:49:38 2026.
