 Entering Gaussian System, Link 0=g09
 Input=sf4.com
 Output=sf4.log
 Initial command:
 /usr/local/g09/l1.exe /scratch/cent/Gau-24101.inp -scrdir=/scratch/cent/
 Entering Link 1 = /usr/local/g09/l1.exe PID=     24102.
  
 Copyright (c) 1988,1990,1992,1993,1995,1998,2003,2009,2011,
            Gaussian, Inc.  All Rights Reserved.
  
 This is part of the Gaussian(R) 09 program.  It is based on
 the Gaussian(R) 03 system (copyright 2003, Gaussian, Inc.),
 the Gaussian(R) 98 system (copyright 1998, Gaussian, Inc.),
 the Gaussian(R) 94 system (copyright 1995, Gaussian, Inc.),
 the Gaussian 92(TM) system (copyright 1992, Gaussian, Inc.),
 the Gaussian 90(TM) system (copyright 1990, Gaussian, Inc.),
 the Gaussian 88(TM) system (copyright 1988, Gaussian, Inc.),
 the Gaussian 86(TM) system (copyright 1986, Carnegie Mellon
 University), and the Gaussian 82(TM) system (copyright 1983,
 Carnegie Mellon University). Gaussian is a federally registered
 trademark of Gaussian, Inc.
  
 This software contains proprietary and confidential information,
 including trade secrets, belonging to Gaussian, Inc.
  
 This software is provided under written license and may be
 used, copied, transmitted, or stored only in accord with that
 written license.
  
 The following legend is applicable only to US Government
 contracts under FAR:
  
                    RESTRICTED RIGHTS LEGEND
  
 Use, reproduction and disclosure by the US Government is
 subject to restrictions as set forth in subparagraphs (a)
 and (c) of the Commercial Computer Software - Restricted
 Rights clause in FAR 52.227-19.
  
 Gaussian, Inc.
 340 Quinnipiac St., Bldg. 40, Wallingford CT 06492
  
  
 ---------------------------------------------------------------
 Warning -- This program may not be used in any manner that
 competes with the business of Gaussian, Inc. or will provide
 assistance to any competitor of Gaussian, Inc.  The licensee
 of this program is prohibited from giving any competitor of
 Gaussian, Inc. access to this program.  By using this program,
 the user acknowledges that Gaussian, Inc. is engaged in the
 business of creating and licensing software in the field of
 computational chemistry and represents and warrants to the
 licensee that it is not a competitor of Gaussian, Inc. and that
 it will not use this program in any manner prohibited above.
 ---------------------------------------------------------------
  

 Cite this work as:
 Gaussian 09, Revision C.01,
 M. J. Frisch, G. W. Trucks, H. B. Schlegel, G. E. Scuseria, 
 M. A. Robb, J. R. Cheeseman, G. Scalmani, V. Barone, B. Mennucci, 
 G. A. Petersson, H. Nakatsuji, M. Caricato, X. Li, H. P. Hratchian, 
 A. F. Izmaylov, J. Bloino, G. Zheng, J. L. Sonnenberg, M. Hada, 
 M. Ehara, K. Toyota, R. Fukuda, J. Hasegawa, M. Ishida, T. Nakajima, 
 Y. Honda, O. Kitao, H. Nakai, T. Vreven, J. A. Montgomery, Jr., 
 J. E. Peralta, F. Ogliaro, M. Bearpark, J. J. Heyd, E. Brothers, 
 K. N. Kudin, V. N. Staroverov, T. Keith, R. Kobayashi, J. Normand, 
 K. Raghavachari, A. Rendell, J. C. Burant, S. S. Iyengar, J. Tomasi, 
 M. Cossi, N. Rega, J. M. Millam, M. Klene, J. E. Knox, J. B. Cross, 
 V. Bakken, C. Adamo, J. Jaramillo, R. Gomperts, R. E. Stratmann, 
 O. Yazyev, A. J. Austin, R. Cammi, C. Pomelli, J. W. Ochterski, 
 R. L. Martin, K. Morokuma, V. G. Zakrzewski, G. A. Voth, 
 P. Salvador, J. J. Dannenberg, S. Dapprich, A. D. Daniels, 
 O. Farkas, J. B. Foresman, J. V. Ortiz, J. Cioslowski, 
 and D. J. Fox, Gaussian, Inc., Wallingford CT, 2010.
 
 ******************************************
 Gaussian 09:  AM64L-G09RevC.01 23-Sep-2011
                23-Jun-2024 
 ******************************************
 %chk=sf4.chk
 ----------------------------------------------
 # opt freq=hpmodes mp2/3-21g geom=connectivity
 ----------------------------------------------
 1/18=20,19=15,38=1,57=2/1,3;
 2/9=110,12=2,17=6,18=5,40=1/2;
 3/5=5,11=9,16=1,25=1,30=1,71=1/1,2,3;
 4//1;
 5/5=2,38=5/2;
 8/6=4,10=1/1;
 9/15=2,16=-3/6;
 10/5=1/2;
 6/7=2,8=2,9=2,10=2/1;
 7/12=2/1,2,3,16;
 1/18=20,19=15/3(2);
 2/9=110/2;
 99//99;
 2/9=110/2;
 3/5=5,11=9,16=1,25=1,30=1,71=1/1,2,3;
 4/5=5,16=3/1;
 5/5=2,38=5/2;
 8/6=4,10=1/1;
 9/15=2,16=-3/6;
 10/5=1/2;
 7/12=2/1,2,3,16;
 1/18=20,19=15/3(-8);
 2/9=110/2;
 6/7=2,8=2,9=2,10=2/1;
 99//99;
 -------------------
 Title Card Required
 -------------------
 Charge =  0 Multiplicity = 1
 Symbolic Z-Matrix:
 S                     0.07075   0.07075   0. 
 F                    -0.72425  -1.30623   0. 
 F                    -0.72425   1.44774   0. 
 F                     0.07075   0.07075   1.59 
 F                     0.07075   0.07075  -1.59 
 

 GradGradGradGradGradGradGradGradGradGradGradGradGradGradGradGradGradGrad
 Berny optimization.
 Initialization pass.
                           ----------------------------
                           !    Initial Parameters    !
                           ! (Angstroms and Degrees)  !
 --------------------------                            --------------------------
 ! Name  Definition              Value          Derivative Info.                !
 --------------------------------------------------------------------------------
 ! R1    R(1,2)                  1.59           estimate D2E/DX2                !
 ! R2    R(1,3)                  1.59           estimate D2E/DX2                !
 ! R3    R(1,4)                  1.59           estimate D2E/DX2                !
 ! R4    R(1,5)                  1.59           estimate D2E/DX2                !
 ! A1    A(2,1,3)              120.0            estimate D2E/DX2                !
 ! A2    A(2,1,4)               90.0            estimate D2E/DX2                !
 ! A3    A(2,1,5)               90.0            estimate D2E/DX2                !
 ! A4    A(3,1,4)               90.0            estimate D2E/DX2                !
 ! A5    A(3,1,5)               90.0            estimate D2E/DX2                !
 ! A6    L(4,1,5,2,-1)         180.0            estimate D2E/DX2                !
 ! A7    L(4,1,5,2,-2)         180.0            estimate D2E/DX2                !
 ! D1    D(2,1,4,3)           -120.0            estimate D2E/DX2                !
 ! D2    D(2,1,5,3)            120.0            estimate D2E/DX2                !
 --------------------------------------------------------------------------------
 Trust Radius=3.00D-01 FncErr=1.00D-07 GrdErr=1.00D-07
 Number of steps in this run=     23 maximum allowed number of steps=    100.
 GradGradGradGradGradGradGradGradGradGradGradGradGradGradGradGradGradGrad

                          Input orientation:                          
 ---------------------------------------------------------------------
 Center     Atomic      Atomic             Coordinates (Angstroms)
 Number     Number       Type             X           Y           Z
 ---------------------------------------------------------------------
      1         16           0        0.070755    0.070755    0.000000
      2          9           0       -0.724245   -1.306226    0.000000
      3          9           0       -0.724245    1.447735    0.000000
      4          9           0        0.070755    0.070755    1.590000
      5          9           0        0.070755    0.070755   -1.590000
 ---------------------------------------------------------------------
                    Distance matrix (angstroms):
                    1          2          3          4          5
     1  S    0.000000
     2  F    1.590000   0.000000
     3  F    1.590000   2.753961   0.000000
     4  F    1.590000   2.248600   2.248600   0.000000
     5  F    1.590000   2.248600   2.248600   3.180000   0.000000
 Stoichiometry    F4S
 Framework group  C2V[C2(S),SGV(F2),SGV'(F2)]
 Deg. of freedom     4
 Full point group                 C2V     NOp   4
 Largest Abelian subgroup         C2V     NOp   4
 Largest concise Abelian subgroup C2V     NOp   4
                         Standard orientation:                         
 ---------------------------------------------------------------------
 Center     Atomic      Atomic             Coordinates (Angstroms)
 Number     Number       Type             X           Y           Z
 ---------------------------------------------------------------------
      1         16           0        0.000000    0.000000    0.275192
      2          9           0        0.000000    1.376980   -0.519808
      3          9           0       -0.000000   -1.376980   -0.519808
      4          9           0        1.590000   -0.000000    0.275192
      5          9           0       -1.590000    0.000000    0.275192
 ---------------------------------------------------------------------
 Rotational constants (GHZ):      5.7686364      4.5275532      3.0063380
 Standard basis: 3-21G (6D, 7F)
 There are    21 symmetry adapted basis functions of A1  symmetry.
 There are     4 symmetry adapted basis functions of A2  symmetry.
 There are    12 symmetry adapted basis functions of B1  symmetry.
 There are    12 symmetry adapted basis functions of B2  symmetry.
 Integral buffers will be    131072 words long.
 Raffenetti 1 integral format.
 Two-electron integral symmetry is turned on.
    49 basis functions,    87 primitive gaussians,    49 cartesian basis functions
    26 alpha electrons       26 beta electrons
       nuclear repulsion energy       296.9942082343 Hartrees.



 Warning!  S  atom    1 may be hypervalent but has no d functions.



 NAtoms=    5 NActive=    5 NUniq=    3 SFac= 2.78D+00 NAtFMM=   60 NAOKFM=F Big=F
 One-electron integrals computed using PRISM.
 NBasis=    49 RedAO= T  NBF=    21     4    12    12
 NBsUse=    49 1.00D-06 NBFU=    21     4    12    12
 Harris functional with IExCor=  205 diagonalized for initial guess.
 ExpMin= 1.42D-01 ExpMax= 1.21D+03 ExpMxC= 1.21D+03 IAcc=1 IRadAn=         1 AccDes= 0.00D+00
 HarFok:  IExCor=  205 AccDes= 0.00D+00 IRadAn=         1 IDoV= 1
 ScaDFX=  1.000000  1.000000  1.000000  1.000000
 FoFCou: FMM=F IPFlag=           0 FMFlag=      100000 FMFlg1=           0
         NFxFlg=           0 DoJE=T BraDBF=F KetDBF=T FulRan=T
         Omega=  0.000000  0.000000  1.000000  0.000000  0.000000 ICntrl=     500 IOpCl=  0
         NMat0=    1 NMatS0=    1 NMatT0=    0 NMatD0=    1 NMtDS0=    0 NMtDT0=    0
         I1Cent=           4 NGrid=           0.
 Petite list used in FoFCou.
 Initial guess orbital symmetries:
       Occupied  (A1) (B1) (A1) (B2) (A1) (A1) (B1) (B2) (A1) (A1)
                 (B1) (B2) (A1) (A1) (B1) (B2) (A1) (A2) (B1) (A1)
                 (B2) (A1) (B2) (B1) (A2) (A1)
       Virtual   (A1) (B2) (B1) (A1) (B2) (A1) (B1) (A2) (B1) (B2)
                 (A1) (B2) (A1) (A1) (B1) (A1) (A2) (B2) (B1) (A1)
                 (B2) (A1) (B1)
 The electronic state of the initial guess is 1-A1.
 Requested convergence on RMS density matrix=1.00D-08 within 128 cycles.
 Requested convergence on MAX density matrix=1.00D-06.
 Requested convergence on             energy=1.00D-06.
 No special actions if energy rises.
 Keep R1 ints in memory in canonical form, NReq=1577146.
 SCF Done:  E(RHF) =  -790.933917699     A.U. after   12 cycles
             Convg  =    0.9912D-08             -V/T =  2.0014
 ExpMin= 1.42D-01 ExpMax= 1.21D+03 ExpMxC= 1.21D+03 IAcc=3 IRadAn=         5 AccDes= 0.00D+00
 HarFok:  IExCor=  205 AccDes= 0.00D+00 IRadAn=         5 IDoV=-2
 ScaDFX=  1.000000  1.000000  1.000000  1.000000
 Range of M.O.s used for correlation:    10    49
 NBasis=    49 NAE=    26 NBE=    26 NFC=     9 NFV=     0
 NROrb=     40 NOA=    17 NOB=    17 NVA=    23 NVB=    23
 Fully direct method using O(ONN) memory.
 JobTyp=1 Pass  1:  I=  10 to  26 NPSUse=  1 ParTrn=F ParDer=F DoDerP=T.
 Spin components of T(2) and E(2):
     alpha-alpha T2 =       0.1685881215D-01 E2=     -0.7359021313D-01
     alpha-beta  T2 =       0.9799235878D-01 E2=     -0.4070929099D+00
     beta-beta   T2 =       0.1685881215D-01 E2=     -0.7359021313D-01
 ANorm=    0.1063818586D+01
 E2 =    -0.5542733361D+00 EUMP2 =    -0.79148819103529D+03
          IDoAtm=11111
          Differentiating once with respect to electric field.
                with respect to dipole field.
          Differentiating once with respect to nuclear coordinates.
          Keep R1 ints in memory in canonical form, NReq=1551771.
          There are     1 degrees of freedom in the 1st order CPHF.  IDoFFX=0.
 LinEq1:  Iter=  0 NonCon=     1 RMS=1.00D-02 Max=9.91D-02
 AX will form     1 AO Fock derivatives at one time.
 LinEq1:  Iter=  1 NonCon=     1 RMS=2.48D-03 Max=3.27D-02
 LinEq1:  Iter=  2 NonCon=     1 RMS=6.94D-04 Max=8.86D-03
 LinEq1:  Iter=  3 NonCon=     1 RMS=2.74D-04 Max=3.21D-03
 LinEq1:  Iter=  4 NonCon=     1 RMS=5.26D-05 Max=4.54D-04
 LinEq1:  Iter=  5 NonCon=     1 RMS=8.94D-06 Max=9.89D-05
 LinEq1:  Iter=  6 NonCon=     1 RMS=3.70D-06 Max=3.85D-05
 LinEq1:  Iter=  7 NonCon=     1 RMS=7.58D-07 Max=6.32D-06
 LinEq1:  Iter=  8 NonCon=     1 RMS=1.28D-07 Max=1.18D-06
 LinEq1:  Iter=  9 NonCon=     1 RMS=1.49D-08 Max=1.70D-07
 LinEq1:  Iter= 10 NonCon=     1 RMS=2.15D-09 Max=1.99D-08
 LinEq1:  Iter= 11 NonCon=     1 RMS=2.25D-10 Max=2.90D-09
 LinEq1:  Iter= 12 NonCon=     0 RMS=2.23D-11 Max=1.87D-10
 Linear equations converged to 1.000D-10 1.000D-09 after    12 iterations.
 End of Minotr Frequency-dependent properties file   721 does not exist.
 End of Minotr Frequency-dependent properties file   722 does not exist.

 **********************************************************************

            Population analysis using the SCF density.

 **********************************************************************

 Orbital symmetries:
       Occupied  (A1) (A1) (B2) (B1) (A1) (A1) (B1) (B2) (A1) (A1)
                 (B2) (B1) (A1) (A1) (B2) (B1) (A1) (A2) (B2) (B1)
                 (A1) (B1) (B2) (A2) (A1) (A1)
       Virtual   (A1) (B2) (B1) (A1) (A1) (B2) (B1) (A2) (B1) (B2)
                 (A1) (B2) (A1) (A1) (B1) (A1) (A2) (B2) (B1) (A1)
                 (B2) (A1) (B1)
 The electronic state is 1-A1.
 Alpha  occ. eigenvalues --  -91.67851 -26.27419 -26.27375 -26.17261 -26.17152
 Alpha  occ. eigenvalues --   -9.24986  -6.92190  -6.92121  -6.91721  -1.76572
 Alpha  occ. eigenvalues --   -1.69779  -1.63371  -1.60732  -1.05796  -0.84190
 Alpha  occ. eigenvalues --   -0.83160  -0.81669  -0.76421  -0.72868  -0.71791
 Alpha  occ. eigenvalues --   -0.70914  -0.65013  -0.64946  -0.63756  -0.63326
 Alpha  occ. eigenvalues --   -0.45626
 Alpha virt. eigenvalues --    0.09527   0.15781   0.30727   0.51362   0.59162
 Alpha virt. eigenvalues --    0.61868   0.65096   1.94060   2.06661   2.12014
 Alpha virt. eigenvalues --    2.13491   2.25491   2.30292   2.32964   2.33091
 Alpha virt. eigenvalues --    2.35176   2.36490   2.39814   2.49819   3.36874
 Alpha virt. eigenvalues --    3.57116   4.01332   4.13260
          Condensed to atoms (all electrons):
              1          2          3          4          5
     1  S   13.846055   0.134424   0.134424   0.005299   0.005299
     2  F    0.134424   9.315837  -0.001966  -0.016909  -0.016909
     3  F    0.134424  -0.001966   9.315837  -0.016909  -0.016909
     4  F    0.005299  -0.016909  -0.016909   9.550646   0.000642
     5  F    0.005299  -0.016909  -0.016909   0.000642   9.550646
 Mulliken atomic charges:
              1
     1  S    1.874498
     2  F   -0.414478
     3  F   -0.414478
     4  F   -0.522770
     5  F   -0.522770
 Sum of Mulliken atomic charges =  -0.00000
 Mulliken charges with hydrogens summed into heavy atoms:
              1
     1  S    1.874498
     2  F   -0.414478
     3  F   -0.414478
     4  F   -0.522770
     5  F   -0.522770
 Sum of Mulliken charges with hydrogens summed into heavy atoms =  -0.00000
 Electronic spatial extent (au):  <R**2>=            387.2392
 Charge=             -0.0000 electrons
 Dipole moment (field-independent basis, Debye):
    X=              0.0000    Y=              0.0000    Z=              0.1641  Tot=              0.1641
 Quadrupole moment (field-independent basis, Debye-Ang):
   XX=            -38.8587   YY=            -33.3146   ZZ=            -30.4444
   XY=              0.0000   XZ=              0.0000   YZ=             -0.0000
 Traceless Quadrupole moment (field-independent basis, Debye-Ang):
   XX=             -4.6528   YY=              0.8913   ZZ=              3.7615
   XY=              0.0000   XZ=              0.0000   YZ=             -0.0000
 Octapole moment (field-independent basis, Debye-Ang**2):
  XXX=              0.0000  YYY=             -0.0000  ZZZ=             -3.8219  XYY=              0.0000
  XXY=             -0.0000  XXZ=             -3.5574  XZZ=              0.0000  YZZ=             -0.0000
  YYZ=              2.5293  XYZ=              0.0000
 Hexadecapole moment (field-independent basis, Debye-Ang**3):
 XXXX=           -190.9480 YYYY=           -132.4715 ZZZZ=            -46.4911 XXXY=              0.0000
 XXXZ=             -0.0000 YYYX=              0.0000 YYYZ=             -0.0000 ZZZX=             -0.0000
 ZZZY=             -0.0000 XXYY=            -47.5696 XXZZ=            -35.1018 YYZZ=            -29.2107
 XXYZ=             -0.0000 YYXZ=             -0.0000 ZZXY=              0.0000
 N-N= 2.969942082343D+02 E-N=-2.480124955276D+03  KE= 7.898288137478D+02
 Symmetry A1   KE= 5.075267861066D+02
 Symmetry A2   KE= 1.271182456016D+01
 Symmetry B1   KE= 1.348279190722D+02
 Symmetry B2   KE= 1.347622840089D+02
 Calling FoFJK, ICntrl=      2127 FMM=F ISym2X=1 I1Cent= 0 IOpClX= 0 NMat=1 NMatS=1 NMatT=0.
 ***** Axes restored to original set *****
 -------------------------------------------------------------------
 Center     Atomic                   Forces (Hartrees/Bohr)
 Number     Number              X              Y              Z
 -------------------------------------------------------------------
      1       16           0.179589822   -0.000000000    0.000000000
      2        9          -0.051891187   -0.033963769    0.000000000
      3        9          -0.051891187    0.033963769   -0.000000000
      4        9          -0.037903724   -0.000000000    0.106481680
      5        9          -0.037903724    0.000000000   -0.106481680
 -------------------------------------------------------------------
 Cartesian Forces:  Max     0.179589822 RMS     0.066078262

 GradGradGradGradGradGradGradGradGradGradGradGradGradGradGradGradGradGrad
 Berny optimization.
 Internal  Forces:  Max     0.106481680 RMS     0.056523951
 Search for a local minimum.
 Step number   1 out of a maximum of   23
 All quantities printed in internal units (Hartrees-Bohrs-Radians)
 Mixed Optimization -- RFO/linear search
 Second derivative matrix not updated -- first step.
 The second derivative matrix:
                          R1        R2        R3        R4        A1
           R1           0.53201
           R2           0.00000   0.53201
           R3           0.00000   0.00000   0.53201
           R4           0.00000   0.00000   0.00000   0.53201
           A1           0.00000   0.00000   0.00000   0.00000   0.25000
           A2           0.00000   0.00000   0.00000   0.00000   0.00000
           A3           0.00000   0.00000   0.00000   0.00000   0.00000
           A4           0.00000   0.00000   0.00000   0.00000   0.00000
           A5           0.00000   0.00000   0.00000   0.00000   0.00000
           A6           0.00000   0.00000   0.00000   0.00000   0.00000
           A7           0.00000   0.00000   0.00000   0.00000   0.00000
           D1           0.00000   0.00000   0.00000   0.00000   0.00000
           D2           0.00000   0.00000   0.00000   0.00000   0.00000
                          A2        A3        A4        A5        A6
           A2           0.25000
           A3           0.00000   0.25000
           A4           0.00000   0.00000   0.25000
           A5           0.00000   0.00000   0.00000   0.25000
           A6           0.00000   0.00000   0.00000   0.00000   0.02487
           A7           0.00000   0.00000   0.00000   0.00000   0.00000
           D1           0.00000   0.00000   0.00000   0.00000   0.00000
           D2           0.00000   0.00000   0.00000   0.00000   0.00000
                          A7        D1        D2
           A7           0.02487
           D1           0.00000   0.02487
           D2           0.00000   0.00000   0.02487
 ITU=  0
     Eigenvalues ---    0.06989   0.09991   0.12135   0.25000   0.25000
     Eigenvalues ---    0.53201   0.53201   0.53201   0.53201
 RFO step:  Lambda=-1.12610298D-01 EMin= 6.98925848D-02
 Linear search not attempted -- first point.
 Maximum step size (   0.300) exceeded in Quadratic search.
    -- Step size scaled by   0.475
 Iteration  1 RMS(Cart)=  0.09234659 RMS(Int)=  0.00891063
 Iteration  2 RMS(Cart)=  0.00924537 RMS(Int)=  0.00251055
 Iteration  3 RMS(Cart)=  0.00006006 RMS(Int)=  0.00251010
 Iteration  4 RMS(Cart)=  0.00000007 RMS(Int)=  0.00251010
 ClnCor:  largest displacement from symmetrization is 5.16D-03 for atom     3.
 Variable       Old X    -DE/DX   Delta X   Delta X   Delta X     New X
                                 (Linear)    (Quad)   (Total)
    R1        3.00466   0.05536   0.00000   0.04081   0.04333   3.04799
    R2        3.00466   0.05536   0.00000   0.04081   0.04333   3.04799
    R3        3.00466   0.10648   0.00000   0.07850   0.07849   3.08315
    R4        3.00466   0.10648   0.00000   0.07850   0.07849   3.08315
    A1        2.09440  -0.02800   0.00000  -0.06261  -0.06605   2.02835
    A2        1.57080  -0.02278   0.00000  -0.05931  -0.06176   1.50904
    A3        1.57080  -0.02278   0.00000  -0.05931  -0.06176   1.50904
    A4        1.57080  -0.02278   0.00000  -0.05931  -0.06176   1.50904
    A5        1.57080  -0.02278   0.00000  -0.05931  -0.06176   1.50904
    A6        3.14159  -0.04556   0.00000  -0.11862  -0.12352   3.01808
    A7        3.14159  -0.07890   0.00000  -0.20545  -0.19908   2.94252
    D1       -2.09440   0.02800   0.00000   0.06261   0.05989  -2.03450
    D2        2.09440  -0.02800   0.00000  -0.06261  -0.05989   2.03450
         Item               Value     Threshold  Converged?
 Maximum Force            0.106482     0.000450     NO 
 RMS     Force            0.056524     0.000300     NO 
 Maximum Displacement     0.186926     0.001800     NO 
 RMS     Displacement     0.093817     0.001200     NO 
 Predicted change in Energy=-4.617710D-02
 GradGradGradGradGradGradGradGradGradGradGradGradGradGradGradGradGradGrad

                          Input orientation:                          
 ---------------------------------------------------------------------
 Center     Atomic      Atomic             Coordinates (Angstroms)
 Number     Number       Type             X           Y           Z
 ---------------------------------------------------------------------
      1         16           0        0.169672    0.070755   -0.000000
      2          9           0       -0.682473   -1.298692    0.000000
      3          9           0       -0.682473    1.440201   -0.000000
      4          9           0       -0.020923    0.070755    1.620363
      5          9           0       -0.020923    0.070755   -1.620363
 ---------------------------------------------------------------------
                    Distance matrix (angstroms):
                    1          2          3          4          5
     1  S    0.000000
     2  F    1.612927   0.000000
     3  F    1.612927   2.738893   0.000000
     4  F    1.631534   2.222298   2.222298   0.000000
     5  F    1.631534   2.222298   2.222298   3.240726   0.000000
 Stoichiometry    F4S
 Framework group  C2V[C2(S),SGV(F2),SGV'(F2)]
 Deg. of freedom     4
 Full point group                 C2V     NOp   4
 Largest Abelian subgroup         C2V     NOp   4
 Largest concise Abelian subgroup C2V     NOp   4
                         Standard orientation:                         
 ---------------------------------------------------------------------
 Center     Atomic      Atomic             Coordinates (Angstroms)
 Number     Number       Type             X           Y           Z
 ---------------------------------------------------------------------
      1         16           0        0.000000   -0.000000    0.360948
      2          9           0        0.000000    1.369446   -0.491196
      3          9           0       -0.000000   -1.369446   -0.491196
      4          9           0        1.620363   -0.000000    0.170353
      5          9           0       -1.620363    0.000000    0.170353
 ---------------------------------------------------------------------
 Rotational constants (GHZ):      5.8977307      4.4255660      2.9550512
 Standard basis: 3-21G (6D, 7F)
 There are    21 symmetry adapted basis functions of A1  symmetry.
 There are     4 symmetry adapted basis functions of A2  symmetry.
 There are    12 symmetry adapted basis functions of B1  symmetry.
 There are    12 symmetry adapted basis functions of B2  symmetry.
 Integral buffers will be    131072 words long.
 Raffenetti 1 integral format.
 Two-electron integral symmetry is turned on.
    49 basis functions,    87 primitive gaussians,    49 cartesian basis functions
    26 alpha electrons       26 beta electrons
       nuclear repulsion energy       293.9271373232 Hartrees.



 Warning!  S  atom    1 may be hypervalent but has no d functions.



 NAtoms=    5 NActive=    5 NUniq=    3 SFac= 2.78D+00 NAtFMM=   60 NAOKFM=F Big=F
 One-electron integrals computed using PRISM.
 NBasis=    49 RedAO= T  NBF=    21     4    12    12
 NBsUse=    49 1.00D-06 NBFU=    21     4    12    12
 Initial guess read from the read-write file.
 B after Tr=     0.000000    0.000000    0.000000
         Rot=    1.000000    0.000000   -0.000000    0.000000 Ang=   0.00 deg.
 Initial guess orbital symmetries:
       Occupied  (A1) (A1) (B2) (B1) (A1) (A1) (B1) (B2) (A1) (A1)
                 (B2) (B1) (A1) (A1) (B2) (B1) (A1) (A2) (B2) (B1)
                 (A1) (B1) (B2) (A2) (A1) (A1)
       Virtual   (A1) (B2) (B1) (A1) (A1) (B2) (B1) (A2) (B1) (B2)
                 (A1) (B2) (A1) (A1) (B1) (A1) (A2) (B2) (B1) (A1)
                 (B2) (A1) (B1)
 Harris functional with IExCor=  205 diagonalized for initial guess.
 ExpMin= 1.42D-01 ExpMax= 1.21D+03 ExpMxC= 1.21D+03 IAcc=1 IRadAn=         1 AccDes= 0.00D+00
 HarFok:  IExCor=  205 AccDes= 0.00D+00 IRadAn=         1 IDoV= 1
 ScaDFX=  1.000000  1.000000  1.000000  1.000000
 FoFCou: FMM=F IPFlag=           0 FMFlag=      100000 FMFlg1=           0
         NFxFlg=           0 DoJE=T BraDBF=F KetDBF=T FulRan=T
         Omega=  0.000000  0.000000  1.000000  0.000000  0.000000 ICntrl=     500 IOpCl=  0
         NMat0=    1 NMatS0=    1 NMatT0=    0 NMatD0=    1 NMtDS0=    0 NMtDT0=    0
         I1Cent=           4 NGrid=           0.
 Petite list used in FoFCou.
 Requested convergence on RMS density matrix=1.00D-08 within 128 cycles.
 Requested convergence on MAX density matrix=1.00D-06.
 Requested convergence on             energy=1.00D-06.
 No special actions if energy rises.
 Keep R1 ints in memory in canonical form, NReq=1577146.
 SCF Done:  E(RHF) =  -790.968568200     A.U. after   13 cycles
             Convg  =    0.3045D-08             -V/T =  2.0018
 ExpMin= 1.42D-01 ExpMax= 1.21D+03 ExpMxC= 1.21D+03 IAcc=3 IRadAn=         5 AccDes= 0.00D+00
 HarFok:  IExCor=  205 AccDes= 0.00D+00 IRadAn=         5 IDoV=-2
 ScaDFX=  1.000000  1.000000  1.000000  1.000000
 Range of M.O.s used for correlation:    10    49
 NBasis=    49 NAE=    26 NBE=    26 NFC=     9 NFV=     0
 NROrb=     40 NOA=    17 NOB=    17 NVA=    23 NVB=    23
 Fully direct method using O(ONN) memory.
 JobTyp=1 Pass  1:  I=  10 to  26 NPSUse=  1 ParTrn=F ParDer=F DoDerP=T.
 Spin components of T(2) and E(2):
     alpha-alpha T2 =       0.1698581820D-01 E2=     -0.7368801036D-01
     alpha-beta  T2 =       0.1004819163D+00 E2=     -0.4100800583D+00
     beta-beta   T2 =       0.1698581820D-01 E2=     -0.7368801036D-01
 ANorm=    0.1065107296D+01
 E2 =    -0.5574560790D+00 EUMP2 =    -0.79152602427945D+03
          IDoAtm=11111
          Differentiating once with respect to electric field.
                with respect to dipole field.
          Differentiating once with respect to nuclear coordinates.
          Keep R1 ints in memory in canonical form, NReq=1551771.
          There are     1 degrees of freedom in the 1st order CPHF.  IDoFFX=0.
 LinEq1:  Iter=  0 NonCon=     1 RMS=1.03D-02 Max=1.02D-01
 AX will form     1 AO Fock derivatives at one time.
 LinEq1:  Iter=  1 NonCon=     1 RMS=2.53D-03 Max=2.77D-02
 LinEq1:  Iter=  2 NonCon=     1 RMS=6.47D-04 Max=6.34D-03
 LinEq1:  Iter=  3 NonCon=     1 RMS=2.49D-04 Max=3.09D-03
 LinEq1:  Iter=  4 NonCon=     1 RMS=4.21D-05 Max=3.92D-04
 LinEq1:  Iter=  5 NonCon=     1 RMS=6.17D-06 Max=7.43D-05
 LinEq1:  Iter=  6 NonCon=     1 RMS=2.06D-06 Max=2.23D-05
 LinEq1:  Iter=  7 NonCon=     1 RMS=6.48D-07 Max=5.41D-06
 LinEq1:  Iter=  8 NonCon=     1 RMS=1.16D-07 Max=1.14D-06
 LinEq1:  Iter=  9 NonCon=     1 RMS=1.36D-08 Max=1.28D-07
 LinEq1:  Iter= 10 NonCon=     1 RMS=2.05D-09 Max=2.03D-08
 LinEq1:  Iter= 11 NonCon=     1 RMS=2.00D-10 Max=2.21D-09
 LinEq1:  Iter= 12 NonCon=     0 RMS=1.73D-11 Max=1.51D-10
 Linear equations converged to 1.000D-10 1.000D-09 after    12 iterations.
 End of Minotr Frequency-dependent properties file   721 does not exist.
 End of Minotr Frequency-dependent properties file   722 does not exist.
 Calling FoFJK, ICntrl=      2127 FMM=F ISym2X=1 I1Cent= 0 IOpClX= 0 NMat=1 NMatS=1 NMatT=0.
 ***** Axes restored to original set *****
 -------------------------------------------------------------------
 Center     Atomic                   Forces (Hartrees/Bohr)
 Number     Number              X              Y              Z
 -------------------------------------------------------------------
      1       16           0.095778086   -0.000000000    0.000000000
      2        9          -0.029937803   -0.026608825    0.000000000
      3        9          -0.029937803    0.026608825   -0.000000000
      4        9          -0.017951240   -0.000000000    0.056217047
      5        9          -0.017951240    0.000000000   -0.056217047
 -------------------------------------------------------------------
 Cartesian Forces:  Max     0.095778086 RMS     0.035914019

 GradGradGradGradGradGradGradGradGradGradGradGradGradGradGradGradGradGrad
 Berny optimization.
 Using GEDIIS/GDIIS optimizer.
 Internal  Forces:  Max     0.057929195 RMS     0.029132931
 Search for a local minimum.
 Step number   2 out of a maximum of   23
 All quantities printed in internal units (Hartrees-Bohrs-Radians)
 Mixed Optimization -- RFO/linear search
 Update second derivatives using D2CorX and points    1    2
 DE= -3.78D-02 DEPred=-4.62D-02 R= 8.19D-01
 SS=  1.41D+00  RLast= 3.13D-01 DXNew= 5.0454D-01 9.3798D-01
 Trust test= 8.19D-01 RLast= 3.13D-01 DXMaxT set to 5.05D-01
 The second derivative matrix:
                          R1        R2        R3        R4        A1
           R1           0.50592
           R2          -0.02610   0.50592
           R3          -0.03745  -0.03745   0.49228
           R4          -0.03745  -0.03745  -0.03973   0.49228
           A1           0.01658   0.01658   0.02077   0.02077   0.24012
           A2           0.01532   0.01532   0.01890   0.01890  -0.00907
           A3           0.01532   0.01532   0.01890   0.01890  -0.00907
           A4           0.01569   0.01569   0.01995   0.01995  -0.00941
           A5           0.01569   0.01569   0.01995   0.01995  -0.00941
           A6          -0.01210  -0.01210  -0.03961  -0.03961   0.01248
           A7          -0.02308  -0.02308  -0.07411  -0.07411   0.02349
           D1           0.00732   0.00732   0.02339   0.02339  -0.00743
           D2          -0.00732  -0.00732  -0.02339  -0.02339   0.00743
                          A2        A3        A4        A5        A6
           A2           0.24169
           A3          -0.00831   0.24169
           A4          -0.00864  -0.00864   0.24104
           A5          -0.00864  -0.00864  -0.00896   0.24104
           A6           0.01200   0.01200   0.01133   0.01133   0.05456
           A7           0.02257   0.02257   0.02136   0.02136   0.05431
           D1          -0.00713  -0.00713  -0.00675  -0.00675  -0.01703
           D2           0.00713   0.00713   0.00675   0.00675   0.01703
                          A7        D1        D2
           A7           0.12420
           D1          -0.03114   0.03463
           D2           0.03114  -0.00976   0.03463
 ITU=  1  0
 Use linear search instead of GDIIS.
     Eigenvalues ---    0.08648   0.11946   0.20847   0.24558   0.25000
     Eigenvalues ---    0.41254   0.53201   0.53201   0.54882
 RFO step:  Lambda=-8.19412232D-03 EMin= 8.64753757D-02
 Quartic linear search produced a step of  0.87736.
 Iteration  1 RMS(Cart)=  0.06052858 RMS(Int)=  0.00376676
 Iteration  2 RMS(Cart)=  0.00238878 RMS(Int)=  0.00310595
 Iteration  3 RMS(Cart)=  0.00000880 RMS(Int)=  0.00310594
 Iteration  4 RMS(Cart)=  0.00000002 RMS(Int)=  0.00310594
 ClnCor:  largest displacement from symmetrization is 6.39D-03 for atom     3.
 Variable       Old X    -DE/DX   Delta X   Delta X   Delta X     New X
                                 (Linear)    (Quad)   (Total)
    R1        3.04799   0.03841   0.03801   0.06461   0.09950   3.14749
    R2        3.04799   0.03841   0.03801   0.06461   0.09950   3.14749
    R3        3.08315   0.05793   0.06886   0.06615   0.13500   3.21815
    R4        3.08315   0.05793   0.06886   0.06615   0.13500   3.21815
    A1        2.02835  -0.01201  -0.05795  -0.01923  -0.08130   1.94704
    A2        1.50904  -0.00750  -0.05418   0.02587  -0.02682   1.48222
    A3        1.50904  -0.00750  -0.05418   0.02587  -0.02682   1.48222
    A4        1.50904  -0.00817  -0.05418   0.03524  -0.02682   1.48222
    A5        1.50904  -0.00817  -0.05418   0.03524  -0.02682   1.48222
    A6        3.01808  -0.01499  -0.10837   0.05174  -0.05365   2.96443
    A7        2.94252  -0.02313  -0.17466   0.10915  -0.06283   2.87968
    D1       -2.03450   0.01053   0.05255   0.02547   0.07583  -1.95867
    D2        2.03450  -0.01053  -0.05255  -0.02547  -0.07583   1.95867
         Item               Value     Threshold  Converged?
 Maximum Force            0.057929     0.000450     NO 
 RMS     Force            0.029133     0.000300     NO 
 Maximum Displacement     0.122818     0.001800     NO 
 RMS     Displacement     0.059655     0.001200     NO 
 Predicted change in Energy=-1.334537D-02
 GradGradGradGradGradGradGradGradGradGradGradGradGradGradGradGradGradGrad

                          Input orientation:                          
 ---------------------------------------------------------------------
 Center     Atomic      Atomic             Coordinates (Angstroms)
 Number     Number       Type             X           Y           Z
 ---------------------------------------------------------------------
      1         16           0        0.234664    0.070755   -0.000000
      2          9           0       -0.702042   -1.306466    0.000000
      3          9           0       -0.702042    1.447975   -0.000000
      4          9           0       -0.033216    0.070755    1.681771
      5          9           0       -0.033216    0.070755   -1.681771
 ---------------------------------------------------------------------
                    Distance matrix (angstroms):
                    1          2          3          4          5
     1  S    0.000000
     2  F    1.665579   0.000000
     3  F    1.665579   2.754441   0.000000
     4  F    1.702972   2.274295   2.274295   0.000000
     5  F    1.702972   2.274295   2.274295   3.363542   0.000000
 Stoichiometry    F4S
 Framework group  C2V[C2(S),SGV(F2),SGV'(F2)]
 Deg. of freedom     4
 Full point group                 C2V     NOp   4
 Largest Abelian subgroup         C2V     NOp   4
 Largest concise Abelian subgroup C2V     NOp   4
                         Standard orientation:                         
 ---------------------------------------------------------------------
 Center     Atomic      Atomic             Coordinates (Angstroms)
 Number     Number       Type             X           Y           Z
 ---------------------------------------------------------------------
      1         16           0       -0.000000    0.000000    0.416972
      2          9           0        0.000000    1.377220   -0.519734
      3          9           0       -0.000000   -1.377220   -0.519734
      4          9           0        1.681771   -0.000000    0.149092
      5          9           0       -1.681771    0.000000    0.149092
 ---------------------------------------------------------------------
 Rotational constants (GHZ):      5.6955691      4.0713534      2.8148810
 Standard basis: 3-21G (6D, 7F)
 There are    21 symmetry adapted basis functions of A1  symmetry.
 There are     4 symmetry adapted basis functions of A2  symmetry.
 There are    12 symmetry adapted basis functions of B1  symmetry.
 There are    12 symmetry adapted basis functions of B2  symmetry.
 Integral buffers will be    131072 words long.
 Raffenetti 1 integral format.
 Two-electron integral symmetry is turned on.
    49 basis functions,    87 primitive gaussians,    49 cartesian basis functions
    26 alpha electrons       26 beta electrons
       nuclear repulsion energy       284.6864641146 Hartrees.



 Warning!  S  atom    1 may be hypervalent but has no d functions.



 NAtoms=    5 NActive=    5 NUniq=    3 SFac= 2.78D+00 NAtFMM=   60 NAOKFM=F Big=F
 One-electron integrals computed using PRISM.
 NBasis=    49 RedAO= T  NBF=    21     4    12    12
 NBsUse=    49 1.00D-06 NBFU=    21     4    12    12
 Initial guess read from the read-write file.
 B after Tr=     0.000000    0.000000    0.000000
         Rot=    1.000000    0.000000   -0.000000    0.000000 Ang=   0.00 deg.
 Initial guess orbital symmetries:
       Occupied  (A1) (A1) (B2) (B1) (A1) (A1) (B2) (B1) (A1) (A1)
                 (B2) (B1) (A1) (A1) (B2) (B1) (A1) (A2) (B2) (B1)
                 (A1) (B2) (B1) (A2) (A1) (A1)
       Virtual   (A1) (B2) (B1) (A1) (A1) (B2) (B1) (A2) (B1) (B2)
                 (A1) (B2) (A1) (A1) (B1) (A1) (A2) (B2) (B1) (A1)
                 (B2) (B1) (A1)
 Harris functional with IExCor=  205 diagonalized for initial guess.
 ExpMin= 1.42D-01 ExpMax= 1.21D+03 ExpMxC= 1.21D+03 IAcc=1 IRadAn=         1 AccDes= 0.00D+00
 HarFok:  IExCor=  205 AccDes= 0.00D+00 IRadAn=         1 IDoV= 1
 ScaDFX=  1.000000  1.000000  1.000000  1.000000
 FoFCou: FMM=F IPFlag=           0 FMFlag=      100000 FMFlg1=           0
         NFxFlg=           0 DoJE=T BraDBF=F KetDBF=T FulRan=T
         Omega=  0.000000  0.000000  1.000000  0.000000  0.000000 ICntrl=     500 IOpCl=  0
         NMat0=    1 NMatS0=    1 NMatT0=    0 NMatD0=    1 NMtDS0=    0 NMtDT0=    0
         I1Cent=           4 NGrid=           0.
 Petite list used in FoFCou.
 Requested convergence on RMS density matrix=1.00D-08 within 128 cycles.
 Requested convergence on MAX density matrix=1.00D-06.
 Requested convergence on             energy=1.00D-06.
 No special actions if energy rises.
 Keep R1 ints in memory in canonical form, NReq=1577146.
 SCF Done:  E(RHF) =  -790.971001421     A.U. after   13 cycles
             Convg  =    0.3639D-08             -V/T =  2.0023
 ExpMin= 1.42D-01 ExpMax= 1.21D+03 ExpMxC= 1.21D+03 IAcc=3 IRadAn=         5 AccDes= 0.00D+00
 HarFok:  IExCor=  205 AccDes= 0.00D+00 IRadAn=         5 IDoV=-2
 ScaDFX=  1.000000  1.000000  1.000000  1.000000
 Range of M.O.s used for correlation:    10    49
 NBasis=    49 NAE=    26 NBE=    26 NFC=     9 NFV=     0
 NROrb=     40 NOA=    17 NOB=    17 NVA=    23 NVB=    23
 Fully direct method using O(ONN) memory.
 JobTyp=1 Pass  1:  I=  10 to  26 NPSUse=  1 ParTrn=F ParDer=F DoDerP=T.
 Spin components of T(2) and E(2):
     alpha-alpha T2 =       0.1781550229D-01 E2=     -0.7485531763D-01
     alpha-beta  T2 =       0.1096039178D+00 E2=     -0.4205039232D+00
     beta-beta   T2 =       0.1781550229D-01 E2=     -0.7485531763D-01
 ANorm=    0.1070156494D+01
 E2 =    -0.5702145584D+00 EUMP2 =    -0.79154121597950D+03
          IDoAtm=11111
          Differentiating once with respect to electric field.
                with respect to dipole field.
          Differentiating once with respect to nuclear coordinates.
          Keep R1 ints in memory in canonical form, NReq=1551771.
          There are     1 degrees of freedom in the 1st order CPHF.  IDoFFX=0.
 LinEq1:  Iter=  0 NonCon=     1 RMS=1.14D-02 Max=1.17D-01
 AX will form     1 AO Fock derivatives at one time.
 LinEq1:  Iter=  1 NonCon=     1 RMS=3.07D-03 Max=2.97D-02
 LinEq1:  Iter=  2 NonCon=     1 RMS=7.87D-04 Max=5.28D-03
 LinEq1:  Iter=  3 NonCon=     1 RMS=2.95D-04 Max=3.36D-03
 LinEq1:  Iter=  4 NonCon=     1 RMS=4.56D-05 Max=5.12D-04
 LinEq1:  Iter=  5 NonCon=     1 RMS=6.49D-06 Max=7.11D-05
 LinEq1:  Iter=  6 NonCon=     1 RMS=2.05D-06 Max=2.12D-05
 LinEq1:  Iter=  7 NonCon=     1 RMS=7.47D-07 Max=7.73D-06
 LinEq1:  Iter=  8 NonCon=     1 RMS=1.46D-07 Max=1.16D-06
 LinEq1:  Iter=  9 NonCon=     1 RMS=1.81D-08 Max=1.84D-07
 LinEq1:  Iter= 10 NonCon=     1 RMS=3.05D-09 Max=3.13D-08
 LinEq1:  Iter= 11 NonCon=     1 RMS=3.29D-10 Max=2.62D-09
 LinEq1:  Iter= 12 NonCon=     0 RMS=3.34D-11 Max=2.80D-10
 Linear equations converged to 1.000D-10 1.000D-09 after    12 iterations.
 End of Minotr Frequency-dependent properties file   721 does not exist.
 End of Minotr Frequency-dependent properties file   722 does not exist.
 Calling FoFJK, ICntrl=      2127 FMM=F ISym2X=1 I1Cent= 0 IOpClX= 0 NMat=1 NMatS=1 NMatT=0.
 ***** Axes restored to original set *****
 -------------------------------------------------------------------
 Center     Atomic                   Forces (Hartrees/Bohr)
 Number     Number              X              Y              Z
 -------------------------------------------------------------------
      1       16           0.009474706    0.000000000   -0.000000000
      2        9          -0.002160782    0.000953188   -0.000000000
      3        9          -0.002160782   -0.000953188    0.000000000
      4        9          -0.002576571    0.000000000    0.007055798
      5        9          -0.002576571   -0.000000000   -0.007055798
 -------------------------------------------------------------------
 Cartesian Forces:  Max     0.009474706 RMS     0.003775104

 GradGradGradGradGradGradGradGradGradGradGradGradGradGradGradGradGradGrad
 Berny optimization.
 Using GEDIIS/GDIIS optimizer.
 Internal  Forces:  Max     0.007373257 RMS     0.003330773
 Search for a local minimum.
 Step number   3 out of a maximum of   23
 All quantities printed in internal units (Hartrees-Bohrs-Radians)
 Mixed Optimization -- RFO/linear search
 Update second derivatives using D2CorX and points    1    2    3
 DE= -1.52D-02 DEPred=-1.33D-02 R= 1.14D+00
 SS=  1.41D+00  RLast= 2.90D-01 DXNew= 8.4853D-01 8.6981D-01
 Trust test= 1.14D+00 RLast= 2.90D-01 DXMaxT set to 8.49D-01
 The second derivative matrix:
                          R1        R2        R3        R4        A1
           R1           0.51406
           R2          -0.01795   0.51406
           R3          -0.03655  -0.03655   0.47483
           R4          -0.03655  -0.03655  -0.05718   0.47483
           A1           0.01789   0.01789   0.02706   0.02706   0.23819
           A2           0.00621   0.00621   0.00668   0.00668  -0.00655
           A3           0.00621   0.00621   0.00668   0.00668  -0.00655
           A4           0.00531   0.00531   0.00570   0.00570  -0.00644
           A5           0.00531   0.00531   0.00570   0.00570  -0.00644
           A6          -0.00299  -0.00299  -0.01810  -0.01810   0.00676
           A7          -0.00224  -0.00224  -0.02873  -0.02873   0.01175
           D1           0.00171   0.00171   0.01012   0.01012  -0.00390
           D2          -0.00171  -0.00171  -0.01012  -0.01012   0.00390
                          A2        A3        A4        A5        A6
           A2           0.24538
           A3          -0.00462   0.24538
           A4          -0.00470  -0.00470   0.24523
           A5          -0.00470  -0.00470  -0.00477   0.24523
           A6           0.01476   0.01476   0.01489   0.01489   0.04083
           A7           0.02635   0.02635   0.02652   0.02652   0.02742
           D1          -0.00881  -0.00881  -0.00892  -0.00892  -0.00856
           D2           0.00881   0.00881   0.00892   0.00892   0.00856
                          A7        D1        D2
           A7           0.07216
           D1          -0.01456   0.02941
           D2           0.01456  -0.00454   0.02941
 ITU=  1  1  0
 Use linear search instead of GDIIS.
     Eigenvalues ---    0.08490   0.11671   0.19026   0.24239   0.25000
     Eigenvalues ---    0.37704   0.53201   0.53201   0.54112
 RFO step:  Lambda=-1.58807373D-04 EMin= 8.48980035D-02
 Quartic linear search produced a step of  0.14810.
 Iteration  1 RMS(Cart)=  0.01422735 RMS(Int)=  0.00021804
 Iteration  2 RMS(Cart)=  0.00014180 RMS(Int)=  0.00017308
 Iteration  3 RMS(Cart)=  0.00000001 RMS(Int)=  0.00017308
 ClnCor:  largest displacement from symmetrization is 1.09D-03 for atom     3.
 Variable       Old X    -DE/DX   Delta X   Delta X   Delta X     New X
                                 (Linear)    (Quad)   (Total)
    R1        3.14749   0.00043   0.01474  -0.00781   0.00640   3.15389
    R2        3.14749   0.00043   0.01474  -0.00781   0.00640   3.15389
    R3        3.21815   0.00737   0.01999   0.00183   0.02182   3.23997
    R4        3.21815   0.00737   0.01999   0.00183   0.02182   3.23997
    A1        1.94704  -0.00252  -0.01204  -0.01626  -0.02845   1.91859
    A2        1.48222  -0.00108  -0.00397  -0.00121  -0.00486   1.47735
    A3        1.48222  -0.00108  -0.00397  -0.00121  -0.00486   1.47735
    A4        1.48222  -0.00127  -0.00397  -0.00016  -0.00486   1.47735
    A5        1.48222  -0.00127  -0.00397  -0.00016  -0.00486   1.47735
    A6        2.96443  -0.00216  -0.00795  -0.00242  -0.00972   2.95471
    A7        2.87968  -0.00292  -0.00931   0.00326  -0.00621   2.87347
    D1       -1.95867   0.00224   0.01123   0.01628   0.02752  -1.93115
    D2        1.95867  -0.00224  -0.01123  -0.01628  -0.02752   1.93115
         Item               Value     Threshold  Converged?
 Maximum Force            0.007373     0.000450     NO 
 RMS     Force            0.003331     0.000300     NO 
 Maximum Displacement     0.024425     0.001800     NO 
 RMS     Displacement     0.014335     0.001200     NO 
 Predicted change in Energy=-2.212080D-04
 GradGradGradGradGradGradGradGradGradGradGradGradGradGradGradGradGradGrad

                          Input orientation:                          
 ---------------------------------------------------------------------
 Center     Atomic      Atomic             Coordinates (Angstroms)
 Number     Number       Type             X           Y           Z
 ---------------------------------------------------------------------
      1         16           0        0.247589    0.070755   -0.000000
      2          9           0       -0.710557   -1.295775    0.000000
      3          9           0       -0.710557    1.437284   -0.000000
      4          9           0       -0.031066    0.070755    1.691724
      5          9           0       -0.031066    0.070755   -1.691724
 ---------------------------------------------------------------------
                    Distance matrix (angstroms):
                    1          2          3          4          5
     1  S    0.000000
     2  F    1.668966   0.000000
     3  F    1.668966   2.733059   0.000000
     4  F    1.714520   2.278386   2.278386   0.000000
     5  F    1.714520   2.278386   2.278386   3.383449   0.000000
 Stoichiometry    F4S
 Framework group  C2V[C2(S),SGV(F2),SGV'(F2)]
 Deg. of freedom     4
 Full point group                 C2V     NOp   4
 Largest Abelian subgroup         C2V     NOp   4
 Largest concise Abelian subgroup C2V     NOp   4
                         Standard orientation:                         
 ---------------------------------------------------------------------
 Center     Atomic      Atomic             Coordinates (Angstroms)
 Number     Number       Type             X           Y           Z
 ---------------------------------------------------------------------
      1         16           0       -0.000000   -0.000000    0.428124
      2          9           0        0.000000    1.366530   -0.530023
      3          9           0       -0.000000   -1.366530   -0.530023
      4          9           0        1.691724   -0.000000    0.149469
      5          9           0       -1.691724    0.000000    0.149469
 ---------------------------------------------------------------------
 Rotational constants (GHZ):      5.7212876      4.0070647      2.8123546
 Standard basis: 3-21G (6D, 7F)
 There are    21 symmetry adapted basis functions of A1  symmetry.
 There are     4 symmetry adapted basis functions of A2  symmetry.
 There are    12 symmetry adapted basis functions of B1  symmetry.
 There are    12 symmetry adapted basis functions of B2  symmetry.
 Integral buffers will be    131072 words long.
 Raffenetti 1 integral format.
 Two-electron integral symmetry is turned on.
    49 basis functions,    87 primitive gaussians,    49 cartesian basis functions
    26 alpha electrons       26 beta electrons
       nuclear repulsion energy       283.8094095157 Hartrees.



 Warning!  S  atom    1 may be hypervalent but has no d functions.



 NAtoms=    5 NActive=    5 NUniq=    3 SFac= 2.78D+00 NAtFMM=   60 NAOKFM=F Big=F
 One-electron integrals computed using PRISM.
 NBasis=    49 RedAO= T  NBF=    21     4    12    12
 NBsUse=    49 1.00D-06 NBFU=    21     4    12    12
 Initial guess read from the read-write file.
 B after Tr=     0.000000    0.000000    0.000000
         Rot=    1.000000   -0.000000    0.000000    0.000000 Ang=   0.00 deg.
 Initial guess orbital symmetries:
       Occupied  (A1) (A1) (B2) (B1) (A1) (A1) (B2) (B1) (A1) (A1)
                 (B2) (B1) (A1) (A1) (B2) (B1) (A1) (A2) (B2) (B1)
                 (A1) (B2) (B1) (A2) (A1) (A1)
       Virtual   (B2) (A1) (B1) (A1) (B2) (A1) (B1) (A2) (B1) (B2)
                 (A1) (B2) (A1) (A1) (B1) (A1) (A2) (B2) (B1) (A1)
                 (B2) (B1) (A1)
 Harris functional with IExCor=  205 diagonalized for initial guess.
 ExpMin= 1.42D-01 ExpMax= 1.21D+03 ExpMxC= 1.21D+03 IAcc=1 IRadAn=         1 AccDes= 0.00D+00
 HarFok:  IExCor=  205 AccDes= 0.00D+00 IRadAn=         1 IDoV= 1
 ScaDFX=  1.000000  1.000000  1.000000  1.000000
 FoFCou: FMM=F IPFlag=           0 FMFlag=      100000 FMFlg1=           0
         NFxFlg=           0 DoJE=T BraDBF=F KetDBF=T FulRan=T
         Omega=  0.000000  0.000000  1.000000  0.000000  0.000000 ICntrl=     500 IOpCl=  0
         NMat0=    1 NMatS0=    1 NMatT0=    0 NMatD0=    1 NMtDS0=    0 NMtDT0=    0
         I1Cent=           4 NGrid=           0.
 Petite list used in FoFCou.
 Requested convergence on RMS density matrix=1.00D-08 within 128 cycles.
 Requested convergence on MAX density matrix=1.00D-06.
 Requested convergence on             energy=1.00D-06.
 No special actions if energy rises.
 Keep R1 ints in memory in canonical form, NReq=1577146.
 SCF Done:  E(RHF) =  -790.969907708     A.U. after   11 cycles
             Convg  =    0.4390D-08             -V/T =  2.0024
 ExpMin= 1.42D-01 ExpMax= 1.21D+03 ExpMxC= 1.21D+03 IAcc=3 IRadAn=         5 AccDes= 0.00D+00
 HarFok:  IExCor=  205 AccDes= 0.00D+00 IRadAn=         5 IDoV=-2
 ScaDFX=  1.000000  1.000000  1.000000  1.000000
 Range of M.O.s used for correlation:    10    49
 NBasis=    49 NAE=    26 NBE=    26 NFC=     9 NFV=     0
 NROrb=     40 NOA=    17 NOB=    17 NVA=    23 NVB=    23
 Fully direct method using O(ONN) memory.
 JobTyp=1 Pass  1:  I=  10 to  26 NPSUse=  1 ParTrn=F ParDer=F DoDerP=T.
 Spin components of T(2) and E(2):
     alpha-alpha T2 =       0.1790914138D-01 E2=     -0.7497341700D-01
     alpha-beta  T2 =       0.1107156788D+00 E2=     -0.4216810026D+00
     beta-beta   T2 =       0.1790914138D-01 E2=     -0.7497341700D-01
 ANorm=    0.1070763261D+01
 E2 =    -0.5716278366D+00 EUMP2 =    -0.79154153554429D+03
          IDoAtm=11111
          Differentiating once with respect to electric field.
                with respect to dipole field.
          Differentiating once with respect to nuclear coordinates.
          Keep R1 ints in memory in canonical form, NReq=1551771.
          There are     1 degrees of freedom in the 1st order CPHF.  IDoFFX=0.
 LinEq1:  Iter=  0 NonCon=     1 RMS=1.16D-02 Max=1.20D-01
 AX will form     1 AO Fock derivatives at one time.
 LinEq1:  Iter=  1 NonCon=     1 RMS=3.15D-03 Max=2.93D-02
 LinEq1:  Iter=  2 NonCon=     1 RMS=8.05D-04 Max=4.86D-03
 LinEq1:  Iter=  3 NonCon=     1 RMS=2.98D-04 Max=3.28D-03
 LinEq1:  Iter=  4 NonCon=     1 RMS=4.45D-05 Max=5.09D-04
 LinEq1:  Iter=  5 NonCon=     1 RMS=6.48D-06 Max=6.67D-05
 LinEq1:  Iter=  6 NonCon=     1 RMS=2.59D-06 Max=2.74D-05
 LinEq1:  Iter=  7 NonCon=     1 RMS=7.76D-07 Max=8.07D-06
 LinEq1:  Iter=  8 NonCon=     1 RMS=1.42D-07 Max=1.16D-06
 LinEq1:  Iter=  9 NonCon=     1 RMS=1.72D-08 Max=1.71D-07
 LinEq1:  Iter= 10 NonCon=     1 RMS=2.96D-09 Max=3.08D-08
 LinEq1:  Iter= 11 NonCon=     1 RMS=3.41D-10 Max=2.94D-09
 LinEq1:  Iter= 12 NonCon=     0 RMS=3.62D-11 Max=3.13D-10
 Linear equations converged to 1.000D-10 1.000D-09 after    12 iterations.
 End of Minotr Frequency-dependent properties file   721 does not exist.
 End of Minotr Frequency-dependent properties file   722 does not exist.
 Calling FoFJK, ICntrl=      2127 FMM=F ISym2X=1 I1Cent= 0 IOpClX= 0 NMat=1 NMatS=1 NMatT=0.
 ***** Axes restored to original set *****
 -------------------------------------------------------------------
 Center     Atomic                   Forces (Hartrees/Bohr)
 Number     Number              X              Y              Z
 -------------------------------------------------------------------
      1       16          -0.001971253   -0.000000000   -0.000000000
      2        9           0.000673207    0.001710938    0.000000000
      3        9           0.000673207   -0.001710938    0.000000000
      4        9           0.000312420    0.000000000    0.001503469
      5        9           0.000312420    0.000000000   -0.001503469
 -------------------------------------------------------------------
 Cartesian Forces:  Max     0.001971253 RMS     0.001012025

 GradGradGradGradGradGradGradGradGradGradGradGradGradGradGradGradGradGrad
 Berny optimization.
 Using GEDIIS/GDIIS optimizer.
 Internal  Forces:  Max     0.001787381 RMS     0.001015613
 Search for a local minimum.
 Step number   4 out of a maximum of   23
 All quantities printed in internal units (Hartrees-Bohrs-Radians)
 Mixed Optimization -- RFO/linear search
 Update second derivatives using D2CorX and points    2    3    4
 DE= -3.20D-04 DEPred=-2.21D-04 R= 1.44D+00
 SS=  1.41D+00  RLast= 5.99D-02 DXNew= 1.4270D+00 1.7965D-01
 Trust test= 1.44D+00 RLast= 5.99D-02 DXMaxT set to 8.49D-01
 The second derivative matrix:
                          R1        R2        R3        R4        A1
           R1           0.52542
           R2          -0.00660   0.52542
           R3          -0.02452  -0.02452   0.43852
           R4          -0.02452  -0.02452  -0.09349   0.43852
           A1           0.02077   0.02077   0.07024   0.07024   0.20620
           A2           0.00177   0.00177   0.00651   0.00651  -0.01148
           A3           0.00177   0.00177   0.00651   0.00651  -0.01148
           A4           0.00021   0.00021   0.00455   0.00455  -0.01132
           A5           0.00021   0.00021   0.00455   0.00455  -0.01132
           A6          -0.01283  -0.01283  -0.02291  -0.02291  -0.00054
           A7          -0.01514  -0.01514  -0.03089  -0.03089  -0.00119
           D1           0.00646   0.00646   0.00756   0.00756   0.00362
           D2          -0.00646  -0.00646  -0.00756  -0.00756  -0.00362
                          A2        A3        A4        A5        A6
           A2           0.24678
           A3          -0.00322   0.24678
           A4          -0.00300  -0.00300   0.24727
           A5          -0.00300  -0.00300  -0.00273   0.24727
           A6           0.01828   0.01828   0.01904   0.01904   0.04914
           A7           0.03055   0.03055   0.03158   0.03158   0.03779
           D1          -0.01005  -0.01005  -0.01049  -0.01049  -0.01200
           D2           0.01005   0.01005   0.01049   0.01049   0.01200
                          A7        D1        D2
           A7           0.08471
           D1          -0.01839   0.03030
           D2           0.01839  -0.00544   0.03030
 ITU=  1  1  1  0
 Use linear search instead of GDIIS.
     Eigenvalues ---    0.06407   0.11574   0.20672   0.24203   0.25000
     Eigenvalues ---    0.34797   0.53201   0.53201   0.53220
 RFO step:  Lambda=-5.55808344D-05 EMin= 6.40737357D-02
 Quartic linear search produced a step of  0.11657.
 Iteration  1 RMS(Cart)=  0.01016976 RMS(Int)=  0.00003279
 Iteration  2 RMS(Cart)=  0.00003163 RMS(Int)=  0.00001290
 Iteration  3 RMS(Cart)=  0.00000000 RMS(Int)=  0.00001290
 ClnCor:  largest displacement from symmetrization is 5.37D-04 for atom     3.
 Variable       Old X    -DE/DX   Delta X   Delta X   Delta X     New X
                                 (Linear)    (Quad)   (Total)
    R1        3.15389  -0.00179   0.00075  -0.00300  -0.00200   3.15189
    R2        3.15389  -0.00179   0.00075  -0.00300  -0.00200   3.15189
    R3        3.23997   0.00143   0.00254   0.00412   0.00666   3.24663
    R4        3.23997   0.00143   0.00254   0.00412   0.00666   3.24663
    A1        1.91859  -0.00042  -0.00332  -0.00756  -0.01085   1.90775
    A2        1.47735   0.00036  -0.00057   0.00325   0.00251   1.47987
    A3        1.47735   0.00036  -0.00057   0.00325   0.00251   1.47987
    A4        1.47735   0.00033  -0.00057   0.00287   0.00251   1.47987
    A5        1.47735   0.00033  -0.00057   0.00287   0.00251   1.47987
    A6        2.95471   0.00073  -0.00113   0.00651   0.00503   2.95974
    A7        2.87347   0.00110  -0.00072   0.01080   0.01030   2.88377
    D1       -1.93115   0.00052   0.00321   0.00850   0.01166  -1.91949
    D2        1.93115  -0.00052  -0.00321  -0.00850  -0.01166   1.91949
         Item               Value     Threshold  Converged?
 Maximum Force            0.001787     0.000450     NO 
 RMS     Force            0.001016     0.000300     NO 
 Maximum Displacement     0.015298     0.001800     NO 
 RMS     Displacement     0.010145     0.001200     NO 
 Predicted change in Energy=-3.074069D-05
 GradGradGradGradGradGradGradGradGradGradGradGradGradGradGradGradGradGrad

                          Input orientation:                          
 ---------------------------------------------------------------------
 Center     Atomic      Atomic             Coordinates (Angstroms)
 Number     Number       Type             X           Y           Z
 ---------------------------------------------------------------------
      1         16           0        0.246684    0.070755   -0.000000
      2          9           0       -0.718249   -1.289695    0.000000
      3          9           0       -0.718249    1.431204   -0.000000
      4          9           0       -0.022970    0.070755    1.696751
      5          9           0       -0.022970    0.070755   -1.696751
 ---------------------------------------------------------------------
                    Distance matrix (angstroms):
                    1          2          3          4          5
     1  S    0.000000
     2  F    1.667908   0.000000
     3  F    1.667908   2.720898   0.000000
     4  F    1.718045   2.283243   2.283243   0.000000
     5  F    1.718045   2.283243   2.283243   3.393503   0.000000
 Stoichiometry    F4S
 Framework group  C2V[C2(S),SGV(F2),SGV'(F2)]
 Deg. of freedom     4
 Full point group                 C2V     NOp   4
 Largest Abelian subgroup         C2V     NOp   4
 Largest concise Abelian subgroup C2V     NOp   4
                         Standard orientation:                         
 ---------------------------------------------------------------------
 Center     Atomic      Atomic             Coordinates (Angstroms)
 Number     Number       Type             X           Y           Z
 ---------------------------------------------------------------------
      1         16           0        0.000000   -0.000000    0.427357
      2          9           0        0.000000    1.360449   -0.537576
      3          9           0       -0.000000   -1.360449   -0.537576
      4          9           0        1.696751   -0.000000    0.157703
      5          9           0       -1.696751    0.000000    0.157703
 ---------------------------------------------------------------------
 Rotational constants (GHZ):      5.7374271      3.9746440      2.8120853
 Standard basis: 3-21G (6D, 7F)
 There are    21 symmetry adapted basis functions of A1  symmetry.
 There are     4 symmetry adapted basis functions of A2  symmetry.
 There are    12 symmetry adapted basis functions of B1  symmetry.
 There are    12 symmetry adapted basis functions of B2  symmetry.
 Integral buffers will be    131072 words long.
 Raffenetti 1 integral format.
 Two-electron integral symmetry is turned on.
    49 basis functions,    87 primitive gaussians,    49 cartesian basis functions
    26 alpha electrons       26 beta electrons
       nuclear repulsion energy       283.5574516179 Hartrees.



 Warning!  S  atom    1 may be hypervalent but has no d functions.



 NAtoms=    5 NActive=    5 NUniq=    3 SFac= 2.78D+00 NAtFMM=   60 NAOKFM=F Big=F
 One-electron integrals computed using PRISM.
 NBasis=    49 RedAO= T  NBF=    21     4    12    12
 NBsUse=    49 1.00D-06 NBFU=    21     4    12    12
 Initial guess read from the read-write file.
 B after Tr=     0.000000    0.000000    0.000000
         Rot=    1.000000    0.000000    0.000000    0.000000 Ang=   0.00 deg.
 Initial guess orbital symmetries:
       Occupied  (A1) (A1) (B2) (B1) (A1) (A1) (B2) (B1) (A1) (A1)
                 (B2) (B1) (A1) (A1) (B2) (B1) (A1) (A2) (B2) (B1)
                 (A1) (B2) (B1) (A2) (A1) (A1)
       Virtual   (B2) (A1) (B1) (A1) (B2) (A1) (B1) (A2) (B1) (B2)
                 (A1) (B2) (A1) (A1) (A1) (B1) (A2) (B2) (B1) (A1)
                 (B2) (B1) (A1)
 Requested convergence on RMS density matrix=1.00D-08 within 128 cycles.
 Requested convergence on MAX density matrix=1.00D-06.
 Requested convergence on             energy=1.00D-06.
 No special actions if energy rises.
 Keep R1 ints in memory in canonical form, NReq=1577146.
 SCF Done:  E(RHF) =  -790.969681061     A.U. after   10 cycles
             Convg  =    0.2290D-08             -V/T =  2.0024
 ExpMin= 1.42D-01 ExpMax= 1.21D+03 ExpMxC= 1.21D+03 IAcc=3 IRadAn=         5 AccDes= 0.00D+00
 HarFok:  IExCor=  205 AccDes= 0.00D+00 IRadAn=         5 IDoV=-2
 ScaDFX=  1.000000  1.000000  1.000000  1.000000
 Range of M.O.s used for correlation:    10    49
 NBasis=    49 NAE=    26 NBE=    26 NFC=     9 NFV=     0
 NROrb=     40 NOA=    17 NOB=    17 NVA=    23 NVB=    23
 Fully direct method using O(ONN) memory.
 JobTyp=1 Pass  1:  I=  10 to  26 NPSUse=  1 ParTrn=F ParDer=F DoDerP=T.
 Spin components of T(2) and E(2):
     alpha-alpha T2 =       0.1793851001D-01 E2=     -0.7501059905D-01
     alpha-beta  T2 =       0.1108999721D+00 E2=     -0.4218775670D+00
     beta-beta   T2 =       0.1793851001D-01 E2=     -0.7501059905D-01
 ANorm=    0.1070876740D+01
 E2 =    -0.5718987651D+00 EUMP2 =    -0.79154157982600D+03
          IDoAtm=11111
          Differentiating once with respect to electric field.
                with respect to dipole field.
          Differentiating once with respect to nuclear coordinates.
          Keep R1 ints in memory in canonical form, NReq=1551771.
          There are     1 degrees of freedom in the 1st order CPHF.  IDoFFX=0.
 LinEq1:  Iter=  0 NonCon=     1 RMS=1.16D-02 Max=1.22D-01
 AX will form     1 AO Fock derivatives at one time.
 LinEq1:  Iter=  1 NonCon=     1 RMS=3.17D-03 Max=2.93D-02
 LinEq1:  Iter=  2 NonCon=     1 RMS=8.11D-04 Max=4.80D-03
 LinEq1:  Iter=  3 NonCon=     1 RMS=3.00D-04 Max=3.29D-03
 LinEq1:  Iter=  4 NonCon=     1 RMS=4.45D-05 Max=5.12D-04
 LinEq1:  Iter=  5 NonCon=     1 RMS=6.41D-06 Max=6.60D-05
 LinEq1:  Iter=  6 NonCon=     1 RMS=2.51D-06 Max=2.64D-05
 LinEq1:  Iter=  7 NonCon=     1 RMS=7.72D-07 Max=8.10D-06
 LinEq1:  Iter=  8 NonCon=     1 RMS=1.42D-07 Max=1.16D-06
 LinEq1:  Iter=  9 NonCon=     1 RMS=1.72D-08 Max=1.68D-07
 LinEq1:  Iter= 10 NonCon=     1 RMS=2.94D-09 Max=3.05D-08
 LinEq1:  Iter= 11 NonCon=     1 RMS=3.43D-10 Max=3.02D-09
 LinEq1:  Iter= 12 NonCon=     0 RMS=3.69D-11 Max=3.20D-10
 Linear equations converged to 1.000D-10 1.000D-09 after    12 iterations.
 End of Minotr Frequency-dependent properties file   721 does not exist.
 End of Minotr Frequency-dependent properties file   722 does not exist.
 Calling FoFJK, ICntrl=      2127 FMM=F ISym2X=1 I1Cent= 0 IOpClX= 0 NMat=1 NMatS=1 NMatT=0.
 ***** Axes restored to original set *****
 -------------------------------------------------------------------
 Center     Atomic                   Forces (Hartrees/Bohr)
 Number     Number              X              Y              Z
 -------------------------------------------------------------------
      1       16          -0.001914971   -0.000000000   -0.000000000
      2        9           0.000709948    0.001677444   -0.000000000
      3        9           0.000709948   -0.001677444    0.000000000
      4        9           0.000247538    0.000000000   -0.000086008
      5        9           0.000247538    0.000000000    0.000086008
 -------------------------------------------------------------------
 Cartesian Forces:  Max     0.001914971 RMS     0.000834272

 GradGradGradGradGradGradGradGradGradGradGradGradGradGradGradGradGradGrad
 Berny optimization.
 Using GEDIIS/GDIIS optimizer.
 Internal  Forces:  Max     0.001778952 RMS     0.000746802
 Search for a local minimum.
 Step number   5 out of a maximum of   23
 All quantities printed in internal units (Hartrees-Bohrs-Radians)
 Mixed Optimization -- En-DIIS/RFO-DIIS
 Update second derivatives using D2CorX and points    2    3    4    5
 DE= -4.43D-05 DEPred=-3.07D-05 R= 1.44D+00
 SS=  1.41D+00  RLast= 2.54D-02 DXNew= 1.4270D+00 7.6062D-02
 Trust test= 1.44D+00 RLast= 2.54D-02 DXMaxT set to 8.49D-01
 The second derivative matrix:
                          R1        R2        R3        R4        A1
           R1           0.48670
           R2          -0.04531   0.48670
           R3           0.01763   0.01763   0.48011
           R4           0.01763   0.01763  -0.05190   0.48011
           A1          -0.02075  -0.02075   0.10156   0.10156   0.16683
           A2           0.01964   0.01964  -0.01395  -0.01395   0.00705
           A3           0.01964   0.01964  -0.01395  -0.01395   0.00705
           A4           0.01829   0.01829  -0.01537  -0.01537   0.00709
           A5           0.01829   0.01829  -0.01537  -0.01537   0.00709
           A6          -0.00137  -0.00137  -0.00751  -0.00751   0.00541
           A7           0.00255   0.00255  -0.01513  -0.01513   0.01028
           D1           0.00875   0.00875   0.00934   0.00934   0.00637
           D2          -0.00875  -0.00875  -0.00934  -0.00934  -0.00637
                          A2        A3        A4        A5        A6
           A2           0.23510
           A3          -0.01490   0.23510
           A4          -0.01432  -0.01432   0.23629
           A5          -0.01432  -0.01432  -0.01371   0.23629
           A6           0.01781   0.01781   0.01841   0.01841   0.05032
           A7           0.02719   0.02719   0.02808   0.02808   0.03939
           D1          -0.01249  -0.01249  -0.01286  -0.01286  -0.01069
           D2           0.01249   0.01249   0.01286   0.01286   0.01069
                          A7        D1        D2
           A7           0.08633
           D1          -0.01712   0.03042
           D2           0.01712  -0.00555   0.03042
 ITU=  1  1  1  1  0
 Use linear search instead of GDIIS.
     Eigenvalues ---    0.03457   0.11531   0.20700   0.24262   0.25000
     Eigenvalues ---    0.41765   0.47191   0.53201   0.53201
 RFO step:  Lambda=-2.71725051D-05 EMin= 3.45662021D-02
 Quartic linear search produced a step of  0.80097.
 Iteration  1 RMS(Cart)=  0.01256207 RMS(Int)=  0.00006226
 Iteration  2 RMS(Cart)=  0.00005292 RMS(Int)=  0.00003843
 Iteration  3 RMS(Cart)=  0.00000000 RMS(Int)=  0.00003843
 ClnCor:  largest displacement from symmetrization is 3.92D-06 for atom     3.
 Variable       Old X    -DE/DX   Delta X   Delta X   Delta X     New X
                                 (Linear)    (Quad)   (Total)
    R1        3.15189  -0.00178  -0.00160  -0.00459  -0.00619   3.14570
    R2        3.15189  -0.00178  -0.00160  -0.00459  -0.00619   3.14570
    R3        3.24663  -0.00012   0.00534  -0.00135   0.00398   3.25062
    R4        3.24663  -0.00012   0.00534  -0.00135   0.00398   3.25062
    A1        1.90775  -0.00040  -0.00869  -0.00667  -0.01538   1.89237
    A2        1.47987   0.00014   0.00201   0.00051   0.00253   1.48240
    A3        1.47987   0.00014   0.00201   0.00051   0.00253   1.48240
    A4        1.47987   0.00011   0.00201   0.00043   0.00253   1.48240
    A5        1.47987   0.00011   0.00201   0.00043   0.00253   1.48240
    A6        2.95974   0.00029   0.00403   0.00101   0.00505   2.96479
    A7        2.88377   0.00045   0.00825   0.00312   0.01130   2.89507
    D1       -1.91949   0.00043   0.00934   0.00687   0.01621  -1.90329
    D2        1.91949  -0.00043  -0.00934  -0.00687  -0.01621   1.90329
         Item               Value     Threshold  Converged?
 Maximum Force            0.001779     0.000450     NO 
 RMS     Force            0.000747     0.000300     NO 
 Maximum Displacement     0.019114     0.001800     NO 
 RMS     Displacement     0.012552     0.001200     NO 
 Predicted change in Energy=-2.464786D-05
 GradGradGradGradGradGradGradGradGradGradGradGradGradGradGradGradGradGrad

                          Input orientation:                          
 ---------------------------------------------------------------------
 Center     Atomic      Atomic             Coordinates (Angstroms)
 Number     Number       Type             X           Y           Z
 ---------------------------------------------------------------------
      1         16           0        0.246107    0.070755   -0.000000
      2          9           0       -0.727342   -1.279580    0.000000
      3          9           0       -0.727342    1.421089   -0.000000
      4          9           0       -0.013588    0.070755    1.700436
      5          9           0       -0.013588    0.070755   -1.700436
 ---------------------------------------------------------------------
                    Distance matrix (angstroms):
                    1          2          3          4          5
     1  S    0.000000
     2  F    1.664634   0.000000
     3  F    1.664634   2.700669   0.000000
     4  F    1.720152   2.285680   2.285680   0.000000
     5  F    1.720152   2.285680   2.285680   3.400872   0.000000
 Stoichiometry    F4S
 Framework group  C2V[C2(S),SGV(F2),SGV'(F2)]
 Deg. of freedom     4
 Full point group                 C2V     NOp   4
 Largest Abelian subgroup         C2V     NOp   4
 Largest concise Abelian subgroup C2V     NOp   4
                         Standard orientation:                         
 ---------------------------------------------------------------------
 Center     Atomic      Atomic             Coordinates (Angstroms)
 Number     Number       Type             X           Y           Z
 ---------------------------------------------------------------------
      1         16           0       -0.000000   -0.000000    0.426858
      2          9           0        0.000000    1.350334   -0.546592
      3          9           0       -0.000000   -1.350334   -0.546592
      4          9           0        1.700436   -0.000000    0.167163
      5          9           0       -1.700436    0.000000    0.167163
 ---------------------------------------------------------------------
 Rotational constants (GHZ):      5.7746160      3.9451622      2.8209729
 Standard basis: 3-21G (6D, 7F)
 There are    21 symmetry adapted basis functions of A1  symmetry.
 There are     4 symmetry adapted basis functions of A2  symmetry.
 There are    12 symmetry adapted basis functions of B1  symmetry.
 There are    12 symmetry adapted basis functions of B2  symmetry.
 Integral buffers will be    131072 words long.
 Raffenetti 1 integral format.
 Two-electron integral symmetry is turned on.
    49 basis functions,    87 primitive gaussians,    49 cartesian basis functions
    26 alpha electrons       26 beta electrons
       nuclear repulsion energy       283.6390759589 Hartrees.



 Warning!  S  atom    1 may be hypervalent but has no d functions.



 NAtoms=    5 NActive=    5 NUniq=    3 SFac= 2.78D+00 NAtFMM=   60 NAOKFM=F Big=F
 One-electron integrals computed using PRISM.
 NBasis=    49 RedAO= T  NBF=    21     4    12    12
 NBsUse=    49 1.00D-06 NBFU=    21     4    12    12
 Initial guess read from the read-write file.
 B after Tr=     0.000000    0.000000    0.000000
         Rot=    1.000000    0.000000   -0.000000    0.000000 Ang=   0.00 deg.
 Initial guess orbital symmetries:
       Occupied  (A1) (A1) (B2) (B1) (A1) (A1) (B2) (B1) (A1) (A1)
                 (B2) (B1) (A1) (A1) (B2) (B1) (A1) (A2) (B2) (B1)
                 (A1) (B2) (B1) (A2) (A1) (A1)
       Virtual   (B2) (A1) (B1) (A1) (B2) (A1) (B1) (A2) (B1) (B2)
                 (A1) (B2) (A1) (A1) (A1) (B1) (A2) (B2) (B1) (A1)
                 (B2) (B1) (A1)
 Requested convergence on RMS density matrix=1.00D-08 within 128 cycles.
 Requested convergence on MAX density matrix=1.00D-06.
 Requested convergence on             energy=1.00D-06.
 No special actions if energy rises.
 Keep R1 ints in memory in canonical form, NReq=1577146.
 SCF Done:  E(RHF) =  -790.969883117     A.U. after   10 cycles
             Convg  =    0.4188D-08             -V/T =  2.0024
 ExpMin= 1.42D-01 ExpMax= 1.21D+03 ExpMxC= 1.21D+03 IAcc=3 IRadAn=         5 AccDes= 0.00D+00
 HarFok:  IExCor=  205 AccDes= 0.00D+00 IRadAn=         5 IDoV=-2
 ScaDFX=  1.000000  1.000000  1.000000  1.000000
 Range of M.O.s used for correlation:    10    49
 NBasis=    49 NAE=    26 NBE=    26 NFC=     9 NFV=     0
 NROrb=     40 NOA=    17 NOB=    17 NVA=    23 NVB=    23
 Fully direct method using O(ONN) memory.
 JobTyp=1 Pass  1:  I=  10 to  26 NPSUse=  1 ParTrn=F ParDer=F DoDerP=T.
 Spin components of T(2) and E(2):
     alpha-alpha T2 =       0.1794141158D-01 E2=     -0.7500926439D-01
     alpha-beta  T2 =       0.1107508467D+00 E2=     -0.4217077205D+00
     beta-beta   T2 =       0.1794141158D-01 E2=     -0.7500926439D-01
 ANorm=    0.1070809820D+01
 E2 =    -0.5717262493D+00 EUMP2 =    -0.79154160936602D+03
          IDoAtm=11111
          Differentiating once with respect to electric field.
                with respect to dipole field.
          Differentiating once with respect to nuclear coordinates.
          Keep R1 ints in memory in canonical form, NReq=1551771.
          There are     1 degrees of freedom in the 1st order CPHF.  IDoFFX=0.
 LinEq1:  Iter=  0 NonCon=     1 RMS=1.17D-02 Max=1.23D-01
 AX will form     1 AO Fock derivatives at one time.
 LinEq1:  Iter=  1 NonCon=     1 RMS=3.17D-03 Max=2.91D-02
 LinEq1:  Iter=  2 NonCon=     1 RMS=8.12D-04 Max=4.77D-03
 LinEq1:  Iter=  3 NonCon=     1 RMS=2.99D-04 Max=3.28D-03
 LinEq1:  Iter=  4 NonCon=     1 RMS=4.38D-05 Max=5.06D-04
 LinEq1:  Iter=  5 NonCon=     1 RMS=6.17D-06 Max=6.28D-05
 LinEq1:  Iter=  6 NonCon=     1 RMS=2.27D-06 Max=2.38D-05
 LinEq1:  Iter=  7 NonCon=     1 RMS=7.44D-07 Max=7.94D-06
 LinEq1:  Iter=  8 NonCon=     1 RMS=1.39D-07 Max=1.14D-06
 LinEq1:  Iter=  9 NonCon=     1 RMS=1.67D-08 Max=1.58D-07
 LinEq1:  Iter= 10 NonCon=     1 RMS=2.82D-09 Max=2.93D-08
 LinEq1:  Iter= 11 NonCon=     1 RMS=3.37D-10 Max=3.03D-09
 LinEq1:  Iter= 12 NonCon=     0 RMS=3.66D-11 Max=3.27D-10
 Linear equations converged to 1.000D-10 1.000D-09 after    12 iterations.
 End of Minotr Frequency-dependent properties file   721 does not exist.
 End of Minotr Frequency-dependent properties file   722 does not exist.
 Calling FoFJK, ICntrl=      2127 FMM=F ISym2X=1 I1Cent= 0 IOpClX= 0 NMat=1 NMatS=1 NMatT=0.
 ***** Axes restored to original set *****
 -------------------------------------------------------------------
 Center     Atomic                   Forces (Hartrees/Bohr)
 Number     Number              X              Y              Z
 -------------------------------------------------------------------
      1       16          -0.000818907   -0.000000000   -0.000000000
      2        9           0.000168084    0.000450532   -0.000000000
      3        9           0.000168084   -0.000450532    0.000000000
      4        9           0.000241370    0.000000000   -0.000823899
      5        9           0.000241370   -0.000000000    0.000823899
 -------------------------------------------------------------------
 Cartesian Forces:  Max     0.000823899 RMS     0.000416910

 GradGradGradGradGradGradGradGradGradGradGradGradGradGradGradGradGradGrad
 Berny optimization.
 Using GEDIIS/GDIIS optimizer.
 Internal  Forces:  Max     0.000850895 RMS     0.000394982
 Search for a local minimum.
 Step number   6 out of a maximum of   23
 All quantities printed in internal units (Hartrees-Bohrs-Radians)
 Mixed Optimization -- En-DIIS/RFO-DIIS
 Swaping is turned off.
 Update second derivatives using D2CorX and points    2    3    4    5    6
 DE= -2.95D-05 DEPred=-2.46D-05 R= 1.20D+00
 SS=  1.41D+00  RLast= 3.24D-02 DXNew= 1.4270D+00 9.7153D-02
 Trust test= 1.20D+00 RLast= 3.24D-02 DXMaxT set to 8.49D-01
 The second derivative matrix:
                          R1        R2        R3        R4        A1
           R1           0.45567
           R2          -0.07634   0.45567
           R3          -0.02651  -0.02651   0.47523
           R4          -0.02651  -0.02651  -0.05678   0.47523
           A1          -0.05373  -0.05373   0.09298   0.09298   0.14874
           A2           0.02749   0.02749   0.00340   0.00340   0.00809
           A3           0.02749   0.02749   0.00340   0.00340   0.00809
           A4           0.02720   0.02720   0.00127   0.00127   0.00862
           A5           0.02720   0.02720   0.00127   0.00127   0.00862
           A6           0.00390   0.00390  -0.01270  -0.01270   0.01589
           A7           0.01048   0.01048  -0.01915  -0.01915   0.02495
           D1           0.00006   0.00006   0.01294   0.01294   0.00509
           D2          -0.00006  -0.00006  -0.01294  -0.01294  -0.00509
                          A2        A3        A4        A5        A6
           A2           0.23072
           A3          -0.01928   0.23072
           A4          -0.01885  -0.01885   0.23164
           A5          -0.01885  -0.01885  -0.01836   0.23164
           A6           0.01695   0.01695   0.01777   0.01777   0.05446
           A7           0.02509   0.02509   0.02622   0.02622   0.04451
           D1          -0.00931  -0.00931  -0.00998  -0.00998  -0.01302
           D2           0.00931   0.00931   0.00998   0.00998   0.01302
                          A7        D1        D2
           A7           0.09244
           D1          -0.01951   0.03247
           D2           0.01951  -0.00760   0.03247
 ITU=  1  1  1  1  1  0
     Eigenvalues ---    0.02960   0.11464   0.20869   0.24324   0.25000
     Eigenvalues ---    0.34805   0.47136   0.53201   0.53201
 En-DIIS/RFO-DIIS IScMMF=        0 using points:     6    5
 RFO step:  Lambda=-3.71814573D-06.
 DidBck=F Rises=F RFO-DIIS coefs:    1.24300   -0.24300
 Iteration  1 RMS(Cart)=  0.00392885 RMS(Int)=  0.00000999
 Iteration  2 RMS(Cart)=  0.00000629 RMS(Int)=  0.00000862
 Iteration  3 RMS(Cart)=  0.00000000 RMS(Int)=  0.00000862
 ClnCor:  largest displacement from symmetrization is 7.95D-05 for atom     3.
 Variable       Old X    -DE/DX   Delta X   Delta X   Delta X     New X
                                  (DIIS)     (GDIIS)  (Total)
    R1        3.14570  -0.00046  -0.00150  -0.00095  -0.00241   3.14329
    R2        3.14570  -0.00046  -0.00150  -0.00095  -0.00241   3.14329
    R3        3.25062  -0.00085   0.00097  -0.00242  -0.00145   3.24917
    R4        3.25062  -0.00085   0.00097  -0.00242  -0.00145   3.24917
    A1        1.89237  -0.00013  -0.00374  -0.00059  -0.00432   1.88805
    A2        1.48240   0.00007   0.00061   0.00041   0.00100   1.48339
    A3        1.48240   0.00007   0.00061   0.00041   0.00100   1.48339
    A4        1.48240   0.00006   0.00061   0.00034   0.00100   1.48339
    A5        1.48240   0.00006   0.00061   0.00034   0.00100   1.48339
    A6        2.96479   0.00015   0.00123   0.00081   0.00199   2.96678
    A7        2.89507   0.00022   0.00275   0.00115   0.00392   2.89900
    D1       -1.90329   0.00015   0.00394   0.00069   0.00462  -1.89867
    D2        1.90329  -0.00015  -0.00394  -0.00069  -0.00462   1.89867
         Item               Value     Threshold  Converged?
 Maximum Force            0.000851     0.000450     NO 
 RMS     Force            0.000395     0.000300     NO 
 Maximum Displacement     0.005943     0.001800     NO 
 RMS     Displacement     0.003921     0.001200     NO 
 Predicted change in Energy=-4.041964D-06
 GradGradGradGradGradGradGradGradGradGradGradGradGradGradGradGradGradGrad

                          Input orientation:                          
 ---------------------------------------------------------------------
 Center     Atomic      Atomic             Coordinates (Angstroms)
 Number     Number       Type             X           Y           Z
 ---------------------------------------------------------------------
      1         16           0        0.245449    0.070755   -0.000000
      2          9           0       -0.730166   -1.276439    0.000000
      3          9           0       -0.730166    1.417948   -0.000000
      4          9           0       -0.010443    0.070755    1.700236
      5          9           0       -0.010443    0.070755   -1.700236
 ---------------------------------------------------------------------
                    Distance matrix (angstroms):
                    1          2          3          4          5
     1  S    0.000000
     2  F    1.663357   0.000000
     3  F    1.663357   2.694387   0.000000
     4  F    1.719384   2.285549   2.285549   0.000000
     5  F    1.719384   2.285549   2.285549   3.400471   0.000000
 Stoichiometry    F4S
 Framework group  C2V[C2(S),SGV(F2),SGV'(F2)]
 Deg. of freedom     4
 Full point group                 C2V     NOp   4
 Largest Abelian subgroup         C2V     NOp   4
 Largest concise Abelian subgroup C2V     NOp   4
                         Standard orientation:                         
 ---------------------------------------------------------------------
 Center     Atomic      Atomic             Coordinates (Angstroms)
 Number     Number       Type             X           Y           Z
 ---------------------------------------------------------------------
      1         16           0       -0.000000   -0.000000    0.426291
      2          9           0        0.000000    1.347193   -0.549324
      3          9           0       -0.000000   -1.347193   -0.549324
      4          9           0        1.700236   -0.000000    0.170399
      5          9           0       -1.700236    0.000000    0.170399
 ---------------------------------------------------------------------
 Rotational constants (GHZ):      5.7866559      3.9416557      2.8264608
 Standard basis: 3-21G (6D, 7F)
 There are    21 symmetry adapted basis functions of A1  symmetry.
 There are     4 symmetry adapted basis functions of A2  symmetry.
 There are    12 symmetry adapted basis functions of B1  symmetry.
 There are    12 symmetry adapted basis functions of B2  symmetry.
 Integral buffers will be    131072 words long.
 Raffenetti 1 integral format.
 Two-electron integral symmetry is turned on.
    49 basis functions,    87 primitive gaussians,    49 cartesian basis functions
    26 alpha electrons       26 beta electrons
       nuclear repulsion energy       283.7917582690 Hartrees.



 Warning!  S  atom    1 may be hypervalent but has no d functions.



 NAtoms=    5 NActive=    5 NUniq=    3 SFac= 2.78D+00 NAtFMM=   60 NAOKFM=F Big=F
 One-electron integrals computed using PRISM.
 NBasis=    49 RedAO= T  NBF=    21     4    12    12
 NBsUse=    49 1.00D-06 NBFU=    21     4    12    12
 Initial guess read from the read-write file.
 B after Tr=     0.000000    0.000000    0.000000
         Rot=    1.000000   -0.000000    0.000000    0.000000 Ang=   0.00 deg.
 Initial guess orbital symmetries:
       Occupied  (A1) (A1) (B2) (B1) (A1) (A1) (B2) (B1) (A1) (A1)
                 (B2) (B1) (A1) (A1) (B2) (B1) (A1) (A2) (B2) (B1)
                 (A1) (B2) (B1) (A2) (A1) (A1)
       Virtual   (B2) (A1) (B1) (A1) (B2) (A1) (B1) (A2) (B1) (B2)
                 (A1) (B2) (A1) (A1) (A1) (B1) (A2) (B2) (B1) (A1)
                 (B2) (B1) (A1)
 Requested convergence on RMS density matrix=1.00D-08 within 128 cycles.
 Requested convergence on MAX density matrix=1.00D-06.
 Requested convergence on             energy=1.00D-06.
 No special actions if energy rises.
 Keep R1 ints in memory in canonical form, NReq=1577146.
 SCF Done:  E(RHF) =  -790.970110086     A.U. after   10 cycles
             Convg  =    0.3171D-08             -V/T =  2.0024
 ExpMin= 1.42D-01 ExpMax= 1.21D+03 ExpMxC= 1.21D+03 IAcc=3 IRadAn=         5 AccDes= 0.00D+00
 HarFok:  IExCor=  205 AccDes= 0.00D+00 IRadAn=         5 IDoV=-2
 ScaDFX=  1.000000  1.000000  1.000000  1.000000
 Range of M.O.s used for correlation:    10    49
 NBasis=    49 NAE=    26 NBE=    26 NFC=     9 NFV=     0
 NROrb=     40 NOA=    17 NOB=    17 NVA=    23 NVB=    23
 Fully direct method using O(ONN) memory.
 JobTyp=1 Pass  1:  I=  10 to  26 NPSUse=  1 ParTrn=F ParDer=F DoDerP=T.
 Spin components of T(2) and E(2):
     alpha-alpha T2 =       0.1793157721D-01 E2=     -0.7499473797D-01
     alpha-beta  T2 =       0.1105722018D+00 E2=     -0.4215146888D+00
     beta-beta   T2 =       0.1793157721D-01 E2=     -0.7499473797D-01
 ANorm=    0.1070717216D+01
 E2 =    -0.5715041647D+00 EUMP2 =    -0.79154161425032D+03
          IDoAtm=11111
          Differentiating once with respect to electric field.
                with respect to dipole field.
          Differentiating once with respect to nuclear coordinates.
          Keep R1 ints in memory in canonical form, NReq=1551771.
          There are     1 degrees of freedom in the 1st order CPHF.  IDoFFX=0.
 LinEq1:  Iter=  0 NonCon=     1 RMS=1.17D-02 Max=1.24D-01
 AX will form     1 AO Fock derivatives at one time.
 LinEq1:  Iter=  1 NonCon=     1 RMS=3.17D-03 Max=2.90D-02
 LinEq1:  Iter=  2 NonCon=     1 RMS=8.10D-04 Max=4.76D-03
 LinEq1:  Iter=  3 NonCon=     1 RMS=2.98D-04 Max=3.27D-03
 LinEq1:  Iter=  4 NonCon=     1 RMS=4.35D-05 Max=5.04D-04
 LinEq1:  Iter=  5 NonCon=     1 RMS=6.09D-06 Max=6.19D-05
 LinEq1:  Iter=  6 NonCon=     1 RMS=2.19D-06 Max=2.28D-05
 LinEq1:  Iter=  7 NonCon=     1 RMS=7.32D-07 Max=7.86D-06
 LinEq1:  Iter=  8 NonCon=     1 RMS=1.38D-07 Max=1.13D-06
 LinEq1:  Iter=  9 NonCon=     1 RMS=1.66D-08 Max=1.56D-07
 LinEq1:  Iter= 10 NonCon=     1 RMS=2.78D-09 Max=2.88D-08
 LinEq1:  Iter= 11 NonCon=     1 RMS=3.33D-10 Max=3.00D-09
 LinEq1:  Iter= 12 NonCon=     0 RMS=3.62D-11 Max=3.26D-10
 Linear equations converged to 1.000D-10 1.000D-09 after    12 iterations.
 End of Minotr Frequency-dependent properties file   721 does not exist.
 End of Minotr Frequency-dependent properties file   722 does not exist.
 Calling FoFJK, ICntrl=      2127 FMM=F ISym2X=1 I1Cent= 0 IOpClX= 0 NMat=1 NMatS=1 NMatT=0.
 ***** Axes restored to original set *****
 -------------------------------------------------------------------
 Center     Atomic                   Forces (Hartrees/Bohr)
 Number     Number              X              Y              Z
 -------------------------------------------------------------------
      1       16           0.000160145   -0.000000000    0.000000000
      2        9          -0.000151227   -0.000071370    0.000000000
      3        9          -0.000151227    0.000071370    0.000000000
      4        9           0.000071154    0.000000000   -0.000378289
      5        9           0.000071154    0.000000000    0.000378289
 -------------------------------------------------------------------
 Cartesian Forces:  Max     0.000378289 RMS     0.000158725

 GradGradGradGradGradGradGradGradGradGradGradGradGradGradGradGradGradGrad
 Berny optimization.
 Using GEDIIS/GDIIS optimizer.
 Internal  Forces:  Max     0.000384665 RMS     0.000166725
 Search for a local minimum.
 Step number   7 out of a maximum of   23
 All quantities printed in internal units (Hartrees-Bohrs-Radians)
 Mixed Optimization -- En-DIIS/RFO-DIIS
 Swaping is turned off.
 Update second derivatives using D2CorX and points    2    3    4    5    6
                                                      7
 DE= -4.88D-06 DEPred=-4.04D-06 R= 1.21D+00
 SS=  1.41D+00  RLast= 1.00D-02 DXNew= 1.4270D+00 3.0074D-02
 Trust test= 1.21D+00 RLast= 1.00D-02 DXMaxT set to 8.49D-01
 The second derivative matrix:
                          R1        R2        R3        R4        A1
           R1           0.49880
           R2          -0.03321   0.49880
           R3          -0.03805  -0.03805   0.42610
           R4          -0.03805  -0.03805  -0.10592   0.42610
           A1          -0.08443  -0.08443   0.05525   0.05525   0.13686
           A2           0.02157   0.02157   0.00162   0.00162   0.01177
           A3           0.02157   0.02157   0.00162   0.00162   0.01177
           A4           0.02237   0.02237   0.00061   0.00061   0.01256
           A5           0.02237   0.02237   0.00061   0.00061   0.01256
           A6           0.00130   0.00130  -0.00098  -0.00098   0.02661
           A7           0.00677   0.00677  -0.00253  -0.00253   0.04092
           D1          -0.00849  -0.00849   0.00661   0.00661   0.00425
           D2           0.00849   0.00849  -0.00661  -0.00661  -0.00425
                          A2        A3        A4        A5        A6
           A2           0.23055
           A3          -0.01945   0.23055
           A4          -0.01899  -0.01899   0.23152
           A5          -0.01899  -0.01899  -0.01848   0.23152
           A6           0.01834   0.01834   0.01890   0.01890   0.05450
           A7           0.02653   0.02653   0.02732   0.02732   0.04416
           D1          -0.00923  -0.00923  -0.00983  -0.00983  -0.01095
           D2           0.00923   0.00923   0.00983   0.00983   0.01095
                          A7        D1        D2
           A7           0.09125
           D1          -0.01677   0.03216
           D2           0.01677  -0.00730   0.03216
 ITU=  1  1  1  1  1  1  0
     Eigenvalues ---    0.02732   0.11459   0.21841   0.24345   0.25000
     Eigenvalues ---    0.29253   0.50812   0.53201   0.53201
 En-DIIS/RFO-DIIS IScMMF=        0 using points:     7    6    5
 RFO step:  Lambda=-6.17003690D-07.
 DidBck=F Rises=F RFO-DIIS coefs:    1.40571   -0.49759    0.09188
 Iteration  1 RMS(Cart)=  0.00125818 RMS(Int)=  0.00000256
 Iteration  2 RMS(Cart)=  0.00000065 RMS(Int)=  0.00000250
 ClnCor:  largest displacement from symmetrization is 2.13D-05 for atom     3.
 Variable       Old X    -DE/DX   Delta X   Delta X   Delta X     New X
                                  (DIIS)     (GDIIS)  (Total)
    R1        3.14329   0.00015  -0.00041   0.00037  -0.00003   3.14326
    R2        3.14329   0.00015  -0.00041   0.00037  -0.00003   3.14326
    R3        3.24917  -0.00038  -0.00095  -0.00015  -0.00110   3.24806
    R4        3.24917  -0.00038  -0.00095  -0.00015  -0.00110   3.24806
    A1        1.88805  -0.00008  -0.00034  -0.00124  -0.00158   1.88647
    A2        1.48339   0.00001   0.00017   0.00005   0.00021   1.48360
    A3        1.48339   0.00001   0.00017   0.00005   0.00021   1.48360
    A4        1.48339   0.00000   0.00017   0.00004   0.00021   1.48360
    A5        1.48339   0.00000   0.00017   0.00004   0.00021   1.48360
    A6        2.96678   0.00001   0.00034   0.00009   0.00042   2.96721
    A7        2.89900   0.00003   0.00055   0.00043   0.00099   2.89999
    D1       -1.89867   0.00009   0.00038   0.00127   0.00165  -1.89702
    D2        1.89867  -0.00009  -0.00038  -0.00127  -0.00165   1.89702
         Item               Value     Threshold  Converged?
 Maximum Force            0.000385     0.000450     YES
 RMS     Force            0.000167     0.000300     YES
 Maximum Displacement     0.001936     0.001800     NO 
 RMS     Displacement     0.001257     0.001200     NO 
 Predicted change in Energy=-5.881965D-07
 GradGradGradGradGradGradGradGradGradGradGradGradGradGradGradGradGradGrad

                          Input orientation:                          
 ---------------------------------------------------------------------
 Center     Atomic      Atomic             Coordinates (Angstroms)
 Number     Number       Type             X           Y           Z
 ---------------------------------------------------------------------
      1         16           0        0.245478    0.070755   -0.000000
      2          9           0       -0.731191   -1.275655    0.000000
      3          9           0       -0.731191    1.417164   -0.000000
      4          9           0       -0.009436    0.070755    1.699792
      5          9           0       -0.009436    0.070755   -1.699792
 ---------------------------------------------------------------------
                    Distance matrix (angstroms):
                    1          2          3          4          5
     1  S    0.000000
     2  F    1.663340   0.000000
     3  F    1.663340   2.692819   0.000000
     4  F    1.718800   2.285397   2.285397   0.000000
     5  F    1.718800   2.285397   2.285397   3.399584   0.000000
 Stoichiometry    F4S
 Framework group  C2V[C2(S),SGV(F2),SGV'(F2)]
 Deg. of freedom     4
 Full point group                 C2V     NOp   4
 Largest Abelian subgroup         C2V     NOp   4
 Largest concise Abelian subgroup C2V     NOp   4
                         Standard orientation:                         
 ---------------------------------------------------------------------
 Center     Atomic      Atomic             Coordinates (Angstroms)
 Number     Number       Type             X           Y           Z
 ---------------------------------------------------------------------
      1         16           0        0.000000   -0.000000    0.426317
      2          9           0       -0.000000    1.346409   -0.550352
      3          9           0       -0.000000   -1.346409   -0.550352
      4          9           0        1.699792   -0.000000    0.171403
      5          9           0       -1.699792    0.000000    0.171403
 ---------------------------------------------------------------------
 Rotational constants (GHZ):      5.7882167      3.9416752      2.8286370
 Standard basis: 3-21G (6D, 7F)
 There are    21 symmetry adapted basis functions of A1  symmetry.
 There are     4 symmetry adapted basis functions of A2  symmetry.
 There are    12 symmetry adapted basis functions of B1  symmetry.
 There are    12 symmetry adapted basis functions of B2  symmetry.
 Integral buffers will be    131072 words long.
 Raffenetti 1 integral format.
 Two-electron integral symmetry is turned on.
    49 basis functions,    87 primitive gaussians,    49 cartesian basis functions
    26 alpha electrons       26 beta electrons
       nuclear repulsion energy       283.8403111476 Hartrees.



 Warning!  S  atom    1 may be hypervalent but has no d functions.



 NAtoms=    5 NActive=    5 NUniq=    3 SFac= 2.78D+00 NAtFMM=   60 NAOKFM=F Big=F
 One-electron integrals computed using PRISM.
 NBasis=    49 RedAO= T  NBF=    21     4    12    12
 NBsUse=    49 1.00D-06 NBFU=    21     4    12    12
 Initial guess read from the read-write file.
 B after Tr=     0.000000    0.000000    0.000000
         Rot=    1.000000    0.000000    0.000000    0.000000 Ang=   0.00 deg.
 Initial guess orbital symmetries:
       Occupied  (A1) (A1) (B2) (B1) (A1) (A1) (B2) (B1) (A1) (A1)
                 (B2) (B1) (A1) (A1) (B2) (B1) (A1) (A2) (B2) (B1)
                 (A1) (B2) (B1) (A2) (A1) (A1)
       Virtual   (B2) (A1) (B1) (A1) (B2) (A1) (B1) (A2) (B1) (B2)
                 (A1) (B2) (A1) (A1) (A1) (B1) (A2) (B2) (B1) (A1)
                 (B2) (B1) (A1)
 Requested convergence on RMS density matrix=1.00D-08 within 128 cycles.
 Requested convergence on MAX density matrix=1.00D-06.
 Requested convergence on             energy=1.00D-06.
 No special actions if energy rises.
 Keep R1 ints in memory in canonical form, NReq=1577146.
 SCF Done:  E(RHF) =  -790.970166090     A.U. after    9 cycles
             Convg  =    0.4546D-08             -V/T =  2.0024
 ExpMin= 1.42D-01 ExpMax= 1.21D+03 ExpMxC= 1.21D+03 IAcc=3 IRadAn=         5 AccDes= 0.00D+00
 HarFok:  IExCor=  205 AccDes= 0.00D+00 IRadAn=         5 IDoV=-2
 ScaDFX=  1.000000  1.000000  1.000000  1.000000
 Range of M.O.s used for correlation:    10    49
 NBasis=    49 NAE=    26 NBE=    26 NFC=     9 NFV=     0
 NROrb=     40 NOA=    17 NOB=    17 NVA=    23 NVB=    23
 Fully direct method using O(ONN) memory.
 JobTyp=1 Pass  1:  I=  10 to  26 NPSUse=  1 ParTrn=F ParDer=F DoDerP=T.
 Spin components of T(2) and E(2):
     alpha-alpha T2 =       0.1792923033D-01 E2=     -0.7499145902D-01
     alpha-beta  T2 =       0.1105259010D+00 E2=     -0.4214660677D+00
     beta-beta   T2 =       0.1792923033D-01 E2=     -0.7499145902D-01
 ANorm=    0.1070693402D+01
 E2 =    -0.5714489858D+00 EUMP2 =    -0.79154161507583D+03
          IDoAtm=11111
          Differentiating once with respect to electric field.
                with respect to dipole field.
          Differentiating once with respect to nuclear coordinates.
          Keep R1 ints in memory in canonical form, NReq=1551771.
          There are     1 degrees of freedom in the 1st order CPHF.  IDoFFX=0.
 LinEq1:  Iter=  0 NonCon=     1 RMS=1.17D-02 Max=1.24D-01
 AX will form     1 AO Fock derivatives at one time.
 LinEq1:  Iter=  1 NonCon=     1 RMS=3.17D-03 Max=2.90D-02
 LinEq1:  Iter=  2 NonCon=     1 RMS=8.10D-04 Max=4.76D-03
 LinEq1:  Iter=  3 NonCon=     1 RMS=2.98D-04 Max=3.27D-03
 LinEq1:  Iter=  4 NonCon=     1 RMS=4.35D-05 Max=5.04D-04
 LinEq1:  Iter=  5 NonCon=     1 RMS=6.09D-06 Max=6.19D-05
 LinEq1:  Iter=  6 NonCon=     1 RMS=2.22D-06 Max=2.31D-05
 LinEq1:  Iter=  7 NonCon=     1 RMS=7.33D-07 Max=7.88D-06
 LinEq1:  Iter=  8 NonCon=     1 RMS=1.38D-07 Max=1.13D-06
 LinEq1:  Iter=  9 NonCon=     1 RMS=1.65D-08 Max=1.55D-07
 LinEq1:  Iter= 10 NonCon=     1 RMS=2.77D-09 Max=2.87D-08
 LinEq1:  Iter= 11 NonCon=     1 RMS=3.32D-10 Max=3.00D-09
 LinEq1:  Iter= 12 NonCon=     0 RMS=3.62D-11 Max=3.26D-10
 Linear equations converged to 1.000D-10 1.000D-09 after    12 iterations.
 End of Minotr Frequency-dependent properties file   721 does not exist.
 End of Minotr Frequency-dependent properties file   722 does not exist.
 Calling FoFJK, ICntrl=      2127 FMM=F ISym2X=1 I1Cent= 0 IOpClX= 0 NMat=1 NMatS=1 NMatT=0.
 ***** Axes restored to original set *****
 -------------------------------------------------------------------
 Center     Atomic                   Forces (Hartrees/Bohr)
 Number     Number              X              Y              Z
 -------------------------------------------------------------------
      1       16           0.000202246   -0.000000000   -0.000000000
      2        9          -0.000111405   -0.000090985    0.000000000
      3        9          -0.000111405    0.000090985   -0.000000000
      4        9           0.000010281   -0.000000000   -0.000089540
      5        9           0.000010281    0.000000000    0.000089540
 -------------------------------------------------------------------
 Cartesian Forces:  Max     0.000202246 RMS     0.000081047

 GradGradGradGradGradGradGradGradGradGradGradGradGradGradGradGradGradGrad
 Berny optimization.
 Using GEDIIS/GDIIS optimizer.
 Internal  Forces:  Max     0.000139063 RMS     0.000067631
 Search for a local minimum.
 Step number   8 out of a maximum of   23
 All quantities printed in internal units (Hartrees-Bohrs-Radians)
 Mixed Optimization -- En-DIIS/RFO-DIIS
 Swaping is turned off.
 Update second derivatives using D2CorX and points    2    3    4    5    6
                                                      7    8
 DE= -8.26D-07 DEPred=-5.88D-07 R= 1.40D+00
 Trust test= 1.40D+00 RLast= 3.42D-03 DXMaxT set to 8.49D-01
 The second derivative matrix:
                          R1        R2        R3        R4        A1
           R1           0.48300
           R2          -0.04901   0.48300
           R3           0.02213   0.02213   0.39564
           R4           0.02213   0.02213  -0.13637   0.39564
           A1          -0.05662  -0.05662  -0.00895  -0.00895   0.09623
           A2           0.02021   0.02021   0.00274   0.00274   0.01354
           A3           0.02021   0.02021   0.00274   0.00274   0.01354
           A4           0.02117   0.02117   0.00295   0.00295   0.01455
           A5           0.02117   0.02117   0.00295   0.00295   0.01455
           A6          -0.00005  -0.00005  -0.00553  -0.00553   0.02800
           A7           0.00315   0.00315  -0.00774  -0.00774   0.04374
           D1          -0.01216  -0.01216  -0.00410  -0.00410   0.00507
           D2           0.01216   0.01216   0.00410   0.00410  -0.00507
                          A2        A3        A4        A5        A6
           A2           0.22915
           A3          -0.02085   0.22915
           A4          -0.02033  -0.02033   0.23026
           A5          -0.02033  -0.02033  -0.01974   0.23026
           A6           0.01856   0.01856   0.01913   0.01913   0.05684
           A7           0.02636   0.02636   0.02714   0.02714   0.04718
           D1          -0.00919  -0.00919  -0.01001  -0.01001  -0.01035
           D2           0.00919   0.00919   0.01001   0.01001   0.01035
                          A7        D1        D2
           A7           0.09510
           D1          -0.01561   0.03477
           D2           0.01561  -0.00991   0.03477
 ITU=  0  1  1  1  1  1  1  0
     Eigenvalues ---    0.02579   0.11459   0.21931   0.24351   0.25000
     Eigenvalues ---    0.25353   0.44795   0.53201   0.53201
 En-DIIS/RFO-DIIS IScMMF=        0 using points:     8    7    6    5
 RFO step:  Lambda=-1.11979836D-07.
 DidBck=F Rises=F RFO-DIIS coefs:    1.93454   -1.24745    0.36421   -0.05130
 Iteration  1 RMS(Cart)=  0.00060152 RMS(Int)=  0.00000132
 Iteration  2 RMS(Cart)=  0.00000017 RMS(Int)=  0.00000131
 ClnCor:  largest displacement from symmetrization is 4.76D-07 for atom     3.
 Variable       Old X    -DE/DX   Delta X   Delta X   Delta X     New X
                                  (DIIS)     (GDIIS)  (Total)
    R1        3.14326   0.00014   0.00041   0.00001   0.00042   3.14368
    R2        3.14326   0.00014   0.00041   0.00001   0.00042   3.14368
    R3        3.24806  -0.00009  -0.00037   0.00001  -0.00037   3.24770
    R4        3.24806  -0.00009  -0.00037   0.00001  -0.00037   3.24770
    A1        1.88647  -0.00004  -0.00091   0.00000  -0.00091   1.88556
    A2        1.48360  -0.00000   0.00001   0.00002   0.00004   1.48364
    A3        1.48360  -0.00000   0.00001   0.00002   0.00004   1.48364
    A4        1.48360  -0.00001   0.00001   0.00002   0.00004   1.48364
    A5        1.48360  -0.00001   0.00001   0.00002   0.00004   1.48364
    A6        2.96721  -0.00001   0.00003   0.00005   0.00008   2.96728
    A7        2.89999  -0.00001   0.00028   0.00006   0.00034   2.90033
    D1       -1.89702   0.00004   0.00093   0.00000   0.00093  -1.89609
    D2        1.89702  -0.00004  -0.00093  -0.00000  -0.00093   1.89609
         Item               Value     Threshold  Converged?
 Maximum Force            0.000139     0.000450     YES
 RMS     Force            0.000068     0.000300     YES
 Maximum Displacement     0.001072     0.001800     YES
 RMS     Displacement     0.000602     0.001200     YES
 Predicted change in Energy=-1.097471D-07
 Optimization completed.
    -- Stationary point found.
                           ----------------------------
                           !   Optimized Parameters   !
                           ! (Angstroms and Degrees)  !
 --------------------------                            --------------------------
 ! Name  Definition              Value          Derivative Info.                !
 --------------------------------------------------------------------------------
 ! R1    R(1,2)                  1.6633         -DE/DX =    0.0001              !
 ! R2    R(1,3)                  1.6633         -DE/DX =    0.0001              !
 ! R3    R(1,4)                  1.7188         -DE/DX =   -0.0001              !
 ! R4    R(1,5)                  1.7188         -DE/DX =   -0.0001              !
 ! A1    A(2,1,3)              108.0867         -DE/DX =    0.0                 !
 ! A2    A(2,1,4)               85.0042         -DE/DX =    0.0                 !
 ! A3    A(2,1,5)               85.0042         -DE/DX =    0.0                 !
 ! A4    A(3,1,4)               85.0042         -DE/DX =    0.0                 !
 ! A5    A(3,1,5)               85.0042         -DE/DX =    0.0                 !
 ! A6    L(4,1,5,2,-1)         170.0084         -DE/DX =    0.0                 !
 ! A7    L(4,1,5,2,-2)         166.1571         -DE/DX =    0.0                 !
 ! D1    D(2,1,4,3)           -108.6913         -DE/DX =    0.0                 !
 ! D2    D(2,1,5,3)            108.6913         -DE/DX =    0.0                 !
 --------------------------------------------------------------------------------
 GradGradGradGradGradGradGradGradGradGradGradGradGradGradGradGradGradGrad

                          Input orientation:                          
 ---------------------------------------------------------------------
 Center     Atomic      Atomic             Coordinates (Angstroms)
 Number     Number       Type             X           Y           Z
 ---------------------------------------------------------------------
      1         16           0        0.245478    0.070755   -0.000000
      2          9           0       -0.731191   -1.275655    0.000000
      3          9           0       -0.731191    1.417164   -0.000000
      4          9           0       -0.009436    0.070755    1.699792
      5          9           0       -0.009436    0.070755   -1.699792
 ---------------------------------------------------------------------
                    Distance matrix (angstroms):
                    1          2          3          4          5
     1  S    0.000000
     2  F    1.663340   0.000000
     3  F    1.663340   2.692819   0.000000
     4  F    1.718800   2.285397   2.285397   0.000000
     5  F    1.718800   2.285397   2.285397   3.399584   0.000000
 Stoichiometry    F4S
 Framework group  C2V[C2(S),SGV(F2),SGV'(F2)]
 Deg. of freedom     4
 Full point group                 C2V     NOp   4
 Largest Abelian subgroup         C2V     NOp   4
 Largest concise Abelian subgroup C2V     NOp   4
                         Standard orientation:                         
 ---------------------------------------------------------------------
 Center     Atomic      Atomic             Coordinates (Angstroms)
 Number     Number       Type             X           Y           Z
 ---------------------------------------------------------------------
      1         16           0        0.000000   -0.000000    0.426317
      2          9           0       -0.000000    1.346409   -0.550352
      3          9           0       -0.000000   -1.346409   -0.550352
      4          9           0        1.699792   -0.000000    0.171403
      5          9           0       -1.699792    0.000000    0.171403
 ---------------------------------------------------------------------
 Rotational constants (GHZ):      5.7882167      3.9416752      2.8286370

 **********************************************************************

            Population analysis using the SCF density.

 **********************************************************************

 Orbital symmetries:
       Occupied  (A1) (A1) (B2) (B1) (A1) (A1) (B2) (B1) (A1) (A1)
                 (B2) (B1) (A1) (A1) (B2) (B1) (A1) (A2) (B2) (B1)
                 (A1) (B2) (B1) (A2) (A1) (A1)
       Virtual   (B2) (A1) (B1) (A1) (B2) (A1) (B1) (A2) (B1) (B2)
                 (A1) (B2) (A1) (A1) (A1) (B1) (A2) (B2) (B1) (A1)
                 (B2) (B1) (A1)
 The electronic state is 1-A1.
 Alpha  occ. eigenvalues --  -91.69437 -26.25531 -26.25441 -26.15208 -26.15148
 Alpha  occ. eigenvalues --   -9.26085  -6.93281  -6.93172  -6.93029  -1.70808
 Alpha  occ. eigenvalues --   -1.65278  -1.57458  -1.55829  -1.06312  -0.79465
 Alpha  occ. eigenvalues --   -0.79214  -0.78286  -0.73275  -0.70227  -0.68317
 Alpha  occ. eigenvalues --   -0.67605  -0.62036  -0.61883  -0.61129  -0.60098
 Alpha  occ. eigenvalues --   -0.50716
 Alpha virt. eigenvalues --    0.05880   0.09292   0.17414   0.53630   0.59469
 Alpha virt. eigenvalues --    0.63318   0.63792   1.97912   2.04936   2.14729
 Alpha virt. eigenvalues --    2.14884   2.25868   2.26444   2.33346   2.36725
 Alpha virt. eigenvalues --    2.37081   2.37632   2.38575   2.48560   3.36295
 Alpha virt. eigenvalues --    3.46006   3.88695   4.20212
          Condensed to atoms (all electrons):
              1          2          3          4          5
     1  S   13.743150   0.140290   0.140290   0.081359   0.081359
     2  F    0.140290   9.284155  -0.002310  -0.014100  -0.014100
     3  F    0.140290  -0.002310   9.284155  -0.014100  -0.014100
     4  F    0.081359  -0.014100  -0.014100   9.459522   0.000159
     5  F    0.081359  -0.014100  -0.014100   0.000159   9.459522
 Mulliken atomic charges:
              1
     1  S    1.813551
     2  F   -0.393936
     3  F   -0.393936
     4  F   -0.512840
     5  F   -0.512840
 Sum of Mulliken atomic charges =  -0.00000
 Mulliken charges with hydrogens summed into heavy atoms:
              1
     1  S    1.813551
     2  F   -0.393936
     3  F   -0.393936
     4  F   -0.512840
     5  F   -0.512840
 Sum of Mulliken charges with hydrogens summed into heavy atoms =  -0.00000
 Electronic spatial extent (au):  <R**2>=            410.2352
 Charge=              0.0000 electrons
 Dipole moment (field-independent basis, Debye):
    X=             -0.0000    Y=             -0.0000    Z=              2.2934  Tot=              2.2934
 Quadrupole moment (field-independent basis, Debye-Ang):
   XX=            -40.3581   YY=            -32.7240   ZZ=            -29.4703
   XY=              0.0000   XZ=              0.0000   YZ=             -0.0000
 Traceless Quadrupole moment (field-independent basis, Debye-Ang):
   XX=             -6.1740   YY=              1.4601   ZZ=              4.7138
   XY=              0.0000   XZ=              0.0000   YZ=             -0.0000
 Octapole moment (field-independent basis, Debye-Ang**2):
  XXX=              0.0000  YYY=             -0.0000  ZZZ=             -3.2983  XYY=              0.0000
  XXY=             -0.0000  XXZ=             -2.7021  XZZ=              0.0000  YZZ=             -0.0000
  YYZ=              2.4055  XYZ=              0.0000
 Hexadecapole moment (field-independent basis, Debye-Ang**3):
 XXXX=           -218.2845 YYYY=           -126.2875 ZZZZ=            -50.8540 XXXY=              0.0000
 XXXZ=             -0.0000 YYYX=              0.0000 YYYZ=             -0.0000 ZZZX=             -0.0000
 ZZZY=             -0.0000 XXYY=            -50.3203 XXZZ=            -39.0535 YYZZ=            -28.5250
 XXYZ=             -0.0000 YYXZ=             -0.0000 ZZXY=              0.0000
 N-N= 2.838403111476D+02 E-N=-2.454240783361D+03  KE= 7.891051422164D+02
 Symmetry A1   KE= 5.070848957277D+02
 Symmetry A2   KE= 1.276522300470D+01
 Symmetry B1   KE= 1.345865174709D+02
 Symmetry B2   KE= 1.346685060131D+02
 1\1\GINC-SRU02\FOpt\RMP2-FC\3-21G\F4S1\CENT\23-Jun-2024\0\\# opt freq=
 hpmodes mp2/3-21g geom=connectivity\\Title Card Required\\0,1\S,0.2454
 781777,0.07075472,0.\F,-0.7311905249,-1.2756547643,0.\F,-0.7311905249,
 1.4171642043,0.\F,-0.0094355309,0.07075472,1.6997918909\F,-0.009435530
 9,0.07075472,-1.6997918909\\Version=AM64L-G09RevC.01\State=1-A1\HF=-79
 0.9701661\MP2=-791.5416151\RMSD=4.546e-09\RMSF=8.105e-05\Dipole=0.7587
 444,0.,0.\PG=C02V [C2(S1),SGV(F2),SGV'(F2)]\\@


 You can't act like a skunk without someone's getting wind of it.
 -- Lorene Workman
 Job cpu time:  0 days  0 hours  0 minutes  6.9 seconds.
 File lengths (MBytes):  RWF=      5 Int=      0 D2E=      0 Chk=      2 Scr=      1
 Normal termination of Gaussian 09 at Sun Jun 23 20:55:38 2024.
 Link1:  Proceeding to internal job step number  2.
 -------------------------------------------------------------------
 #N Geom=AllCheck Guess=TCheck SCRF=Check GenChk RMP2(FC)/3-21G Freq
 -------------------------------------------------------------------
 1/10=4,29=7,30=1,38=1,40=1/1,3;
 2/12=2,40=1/2;
 3/5=5,11=1,14=-4,16=1,25=1,30=1,70=2,71=2,116=1/1,2,3;
 4/5=101/1;
 5/5=2,98=1/2;
 8/6=3,8=1,10=1,19=11,30=-1/1;
 9/15=3,16=-3/6;
 11/6=1,8=1,15=11,17=12,24=-1,27=1,28=-2,29=300,32=6,42=3/1,2,10;
 10/6=2,21=1/2;
 8/6=4,8=1,10=1,19=11,30=-1/11,4;
 10/5=1,20=4/2;
 11/12=2,14=11,16=1,17=2,28=-2,42=3/2,10,12;
 6/7=2,8=2,9=2,10=2/1;
 7/8=11,10=1,12=2,25=1,44=2/1,2,3,16;
 1/10=4,30=1/3;
 99//99;
 Structure from the checkpoint file:  sf4.chk
 -------------------
 Title Card Required
 -------------------
 Charge =  0 Multiplicity = 1
 Redundant internal coordinates found in file.
 S,0,0.2454781777,0.07075472,0.
 F,0,-0.7311905249,-1.2756547643,0.
 F,0,-0.7311905249,1.4171642043,0.
 F,0,-0.0094355309,0.07075472,1.6997918909
 F,0,-0.0094355309,0.07075472,-1.6997918909
 Recover connectivity data from disk.

 GradGradGradGradGradGradGradGradGradGradGradGradGradGradGradGradGradGrad
 Berny optimization.
 Initialization pass.
                           ----------------------------
                           !    Initial Parameters    !
                           ! (Angstroms and Degrees)  !
 --------------------------                            --------------------------
 ! Name  Definition              Value          Derivative Info.                !
 --------------------------------------------------------------------------------
 ! R1    R(1,2)                  1.6633         calculate D2E/DX2 analytically  !
 ! R2    R(1,3)                  1.6633         calculate D2E/DX2 analytically  !
 ! R3    R(1,4)                  1.7188         calculate D2E/DX2 analytically  !
 ! R4    R(1,5)                  1.7188         calculate D2E/DX2 analytically  !
 ! A1    A(2,1,3)              108.0867         calculate D2E/DX2 analytically  !
 ! A2    A(2,1,4)               85.0042         calculate D2E/DX2 analytically  !
 ! A3    A(2,1,5)               85.0042         calculate D2E/DX2 analytically  !
 ! A4    A(3,1,4)               85.0042         calculate D2E/DX2 analytically  !
 ! A5    A(3,1,5)               85.0042         calculate D2E/DX2 analytically  !
 ! A6    L(4,1,5,2,-1)         170.0084         calculate D2E/DX2 analytically  !
 ! A7    L(4,1,5,2,-2)         166.1571         calculate D2E/DX2 analytically  !
 ! D1    D(2,1,4,3)           -108.6913         calculate D2E/DX2 analytically  !
 ! D2    D(2,1,5,3)            108.6913         calculate D2E/DX2 analytically  !
 --------------------------------------------------------------------------------
 Trust Radius=3.00D-01 FncErr=1.00D-07 GrdErr=1.00D-07
 Number of steps in this run=      2 maximum allowed number of steps=      2.
 GradGradGradGradGradGradGradGradGradGradGradGradGradGradGradGradGradGrad

                          Input orientation:                          
 ---------------------------------------------------------------------
 Center     Atomic      Atomic             Coordinates (Angstroms)
 Number     Number       Type             X           Y           Z
 ---------------------------------------------------------------------
      1         16           0        0.245478    0.070755   -0.000000
      2          9           0       -0.731191   -1.275655    0.000000
      3          9           0       -0.731191    1.417164   -0.000000
      4          9           0       -0.009436    0.070755    1.699792
      5          9           0       -0.009436    0.070755   -1.699792
 ---------------------------------------------------------------------
                    Distance matrix (angstroms):
                    1          2          3          4          5
     1  S    0.000000
     2  F    1.663340   0.000000
     3  F    1.663340   2.692819   0.000000
     4  F    1.718800   2.285397   2.285397   0.000000
     5  F    1.718800   2.285397   2.285397   3.399584   0.000000
 Stoichiometry    F4S
 Framework group  C2V[C2(S),SGV(F2),SGV'(F2)]
 Deg. of freedom     4
 Full point group                 C2V     NOp   4
 Largest Abelian subgroup         C2V     NOp   4
 Largest concise Abelian subgroup C2V     NOp   4
                         Standard orientation:                         
 ---------------------------------------------------------------------
 Center     Atomic      Atomic             Coordinates (Angstroms)
 Number     Number       Type             X           Y           Z
 ---------------------------------------------------------------------
      1         16           0       -0.000000   -0.000000    0.426317
      2          9           0        0.000000    1.346409   -0.550352
      3          9           0       -0.000000   -1.346409   -0.550352
      4          9           0        1.699792   -0.000000    0.171403
      5          9           0       -1.699792    0.000000    0.171403
 ---------------------------------------------------------------------
 Rotational constants (GHZ):      5.7882167      3.9416752      2.8286370
 Standard basis: 3-21G (6D, 7F)
 There are    21 symmetry adapted basis functions of A1  symmetry.
 There are     4 symmetry adapted basis functions of A2  symmetry.
 There are    12 symmetry adapted basis functions of B1  symmetry.
 There are    12 symmetry adapted basis functions of B2  symmetry.
 Integral buffers will be    131072 words long.
 Raffenetti 1 integral format.
 Two-electron integral symmetry is turned on.
    49 basis functions,    87 primitive gaussians,    49 cartesian basis functions
    26 alpha electrons       26 beta electrons
       nuclear repulsion energy       283.8403111476 Hartrees.



 Warning!  S  atom    1 may be hypervalent but has no d functions.



 NAtoms=    5 NActive=    5 NUniq=    3 SFac= 2.78D+00 NAtFMM=   60 NAOKFM=F Big=F
 One-electron integrals computed using PRISM.
 NBasis=    49 RedAO= T  NBF=    21     4    12    12
 NBsUse=    49 1.00D-06 NBFU=    21     4    12    12
 Initial guess read from the checkpoint file:  sf4.chk
 B after Tr=     0.000000    0.000000   -0.000000
         Rot=    1.000000   -0.000000    0.000000    0.000000 Ang=   0.00 deg.
 Initial guess orbital symmetries:
       Occupied  (A1) (A1) (B2) (B1) (A1) (A1) (B2) (B1) (A1) (A1)
                 (B2) (B1) (A1) (A1) (B2) (B1) (A1) (A2) (B2) (B1)
                 (A1) (B2) (B1) (A2) (A1) (A1)
       Virtual   (B2) (A1) (B1) (A1) (B2) (A1) (B1) (A2) (B1) (B2)
                 (A1) (B2) (A1) (A1) (A1) (B1) (A2) (B2) (B1) (A1)
                 (B2) (B1) (A1)
 Requested convergence on RMS density matrix=1.00D-08 within 128 cycles.
 Requested convergence on MAX density matrix=1.00D-06.
 Requested convergence on             energy=1.00D-06.
 No special actions if energy rises.
 Keep R1 ints in memory in canonical form, NReq=1577146.
 SCF Done:  E(RHF) =  -790.970166090     A.U. after    1 cycles
             Convg  =    0.6786D-09             -V/T =  2.0024
 ExpMin= 1.42D-01 ExpMax= 1.21D+03 ExpMxC= 1.21D+03 IAcc=3 IRadAn=         5 AccDes= 0.00D+00
 HarFok:  IExCor=  205 AccDes= 0.00D+00 IRadAn=         5 IDoV=-2
 ScaDFX=  1.000000  1.000000  1.000000  1.000000
 Range of M.O.s used for correlation:    10    49
 NBasis=    49 NAE=    26 NBE=    26 NFC=     9 NFV=     0
 NROrb=     40 NOA=    17 NOB=    17 NVA=    23 NVB=    23
 Disk-based method using ON**2 memory for 17 occupieds at a time.
 Permanent disk used for amplitudes=      439829 words.
 Estimated scratch disk usage=     2611571 words.
 Actual    scratch disk usage=     2611571 words.
 JobTyp=1 Pass  1:  I=  10 to  26 NPSUse=  1 ParTrn=F ParDer=F DoDerP=T.
 (rs|ai) integrals will be sorted in core.
 Spin components of T(2) and E(2):
     alpha-alpha T2 =       0.1792923037D-01 E2=     -0.7499145910D-01
     alpha-beta  T2 =       0.1105259012D+00 E2=     -0.4214660681D+00
     beta-beta   T2 =       0.1792923037D-01 E2=     -0.7499145910D-01
 ANorm=    0.1070693402D+01
 E2 =    -0.5714489863D+00 EUMP2 =    -0.79154161507633D+03
 G2DrvN: will do     6 centers at a time, making    1 passes doing MaxLOS=1.
 Calling FoFCou, ICntrl=  3107 FMM=F I1Cent=   0 AccDes= 0.00D+00.
 FoFDir/FoFCou used for L=0 through L=1.
 End of G2Drv Frequency-dependent properties file   721 does not exist.
 End of G2Drv Frequency-dependent properties file   722 does not exist.
          IDoAtm=11111
          Differentiating once with respect to electric field.
                with respect to dipole field.
          Differentiating once with respect to nuclear coordinates.
          Keep R1 ints in memory in canonical form, NReq=1551771.
          There are    18 degrees of freedom in the 1st order CPHF.  IDoFFX=5.
     15 vectors produced by pass  0 Test12= 3.32D-15 5.56D-09 XBig12= 8.15D+00 2.37D+00.
 AX will form    15 AO Fock derivatives at one time.
     15 vectors produced by pass  1 Test12= 3.32D-15 5.56D-09 XBig12= 4.38D-01 2.20D-01.
     15 vectors produced by pass  2 Test12= 3.32D-15 5.56D-09 XBig12= 2.26D-02 6.74D-02.
     15 vectors produced by pass  3 Test12= 3.32D-15 5.56D-09 XBig12= 3.36D-04 7.61D-03.
     15 vectors produced by pass  4 Test12= 3.32D-15 5.56D-09 XBig12= 1.65D-06 3.12D-04.
     15 vectors produced by pass  5 Test12= 3.32D-15 5.56D-09 XBig12= 1.13D-08 4.70D-05.
     15 vectors produced by pass  6 Test12= 3.32D-15 5.56D-09 XBig12= 6.35D-11 2.30D-06.
      3 vectors produced by pass  7 Test12= 3.32D-15 5.56D-09 XBig12= 3.06D-13 1.42D-07.
      2 vectors produced by pass  8 Test12= 3.32D-15 5.56D-09 XBig12= 1.43D-15 9.44D-09.
 Inverted reduced A of dimension   110 with in-core refinement.
 End of Minotr Frequency-dependent properties file   721 does not exist.
 End of Minotr Frequency-dependent properties file   722 does not exist.
 MDV=    33554432.
 Form MO integral derivatives with frozen-active canonical formalism.
 Discarding MO integrals.
 Reordered first order wavefunction length =       715208
 In DefCFB: NBatch=  1 ICI= 26 ICA= 23 LFMax= 23
            Large arrays: LIAPS=     5743192 LIARS=     2666482 words.
 Semi-Direct transformation.
 ModeAB=           4 MOrb=            26 LenV=      33416746
 LASXX=       838448 LTotXX=      838448 LenRXX=     1791075
 LTotAB=      952627 MaxLAS=      793702 LenRXY=           0
 NonZer=     2629523 LenScr=     4715520 LnRSAI=      793702
 LnScr1=     1784832 LExtra=           0 Total=      9085129
 MaxDsk=          -1 SrtSym=           T ITran=            4
 JobTyp=0 Pass  1:  I=   1 to  26.
 (rs|ai) integrals will be sorted in core.
 Spin components of T(2) and E(2):
     alpha-alpha T2 =       0.1792923037D-01 E2=     -0.7499145910D-01
     alpha-beta  T2 =       0.1105259012D+00 E2=     -0.4214660681D+00
     beta-beta   T2 =       0.1792923037D-01 E2=     -0.7499145910D-01
 ANorm=    0.1514189131D+01
 E2 =    -0.5714489863D+00 EUMP2 =    -0.79154161507633D+03
          IDoAtm=11111
          Differentiating once with respect to electric field.
                with respect to dipole field.
          Differentiating once with respect to nuclear coordinates.
          There are     1 degrees of freedom in the 1st order CPHF.  IDoFFX=0.
 LinEq1:  Iter=  0 NonCon=     1 RMS=1.17D-02 Max=1.24D-01
 LinEq1:  Iter=  1 NonCon=     1 RMS=3.17D-03 Max=2.90D-02
 LinEq1:  Iter=  2 NonCon=     1 RMS=8.10D-04 Max=4.76D-03
 LinEq1:  Iter=  3 NonCon=     1 RMS=2.98D-04 Max=3.27D-03
 LinEq1:  Iter=  4 NonCon=     1 RMS=4.35D-05 Max=5.04D-04
 LinEq1:  Iter=  5 NonCon=     1 RMS=6.09D-06 Max=6.19D-05
 LinEq1:  Iter=  6 NonCon=     1 RMS=2.22D-06 Max=2.31D-05
 LinEq1:  Iter=  7 NonCon=     1 RMS=7.33D-07 Max=7.88D-06
 LinEq1:  Iter=  8 NonCon=     1 RMS=1.38D-07 Max=1.13D-06
 LinEq1:  Iter=  9 NonCon=     1 RMS=1.65D-08 Max=1.55D-07
 LinEq1:  Iter= 10 NonCon=     1 RMS=2.77D-09 Max=2.87D-08
 LinEq1:  Iter= 11 NonCon=     1 RMS=3.32D-10 Max=3.00D-09
 LinEq1:  Iter= 12 NonCon=     0 RMS=3.62D-11 Max=3.26D-10
 Linear equations converged to 1.000D-10 1.000D-09 after    12 iterations.
 End of Minotr Frequency-dependent properties file   721 does not exist.
 End of Minotr Frequency-dependent properties file   722 does not exist.
 Symmetrizing basis deriv contribution to polar:
 IMax=3 JMax=2 DiffMx= 0.00D+00
 G2DrvN: will do     6 centers at a time, making    1 passes doing MaxLOS=1.
 Calling FoFCou, ICntrl=  3107 FMM=F I1Cent=   0 AccDes= 0.00D+00.
 FoFDir/FoFCou used for L=0 through L=1.
 End of G2Drv Frequency-dependent properties file   721 does not exist.
 End of G2Drv Frequency-dependent properties file   722 does not exist.
 R2 and R3 integrals will be kept in memory, NReq=     2301850.
 DD1Dir will call FoFMem   1 times, MxPair=       702
 NAB=   351 NAA=     0 NBB=     0.
 Discarding MO integrals.

 **********************************************************************

            Population analysis using the SCF density.

 **********************************************************************

 Orbital symmetries:
       Occupied  (A1) (A1) (B2) (B1) (A1) (A1) (B2) (B1) (A1) (A1)
                 (B2) (B1) (A1) (A1) (B2) (B1) (A1) (A2) (B2) (B1)
                 (A1) (B2) (B1) (A2) (A1) (A1)
       Virtual   (B2) (A1) (B1) (A1) (B2) (A1) (B1) (A2) (B1) (B2)
                 (A1) (B2) (A1) (A1) (A1) (B1) (A2) (B2) (B1) (A1)
                 (B2) (B1) (A1)
 The electronic state is 1-A1.
 Alpha  occ. eigenvalues --  -91.69437 -26.25531 -26.25441 -26.15208 -26.15148
 Alpha  occ. eigenvalues --   -9.26085  -6.93281  -6.93172  -6.93029  -1.70808
 Alpha  occ. eigenvalues --   -1.65278  -1.57458  -1.55829  -1.06312  -0.79465
 Alpha  occ. eigenvalues --   -0.79214  -0.78286  -0.73275  -0.70227  -0.68317
 Alpha  occ. eigenvalues --   -0.67605  -0.62036  -0.61883  -0.61129  -0.60098
 Alpha  occ. eigenvalues --   -0.50716
 Alpha virt. eigenvalues --    0.05880   0.09292   0.17414   0.53630   0.59469
 Alpha virt. eigenvalues --    0.63318   0.63792   1.97912   2.04936   2.14729
 Alpha virt. eigenvalues --    2.14884   2.25868   2.26444   2.33346   2.36725
 Alpha virt. eigenvalues --    2.37081   2.37632   2.38575   2.48560   3.36295
 Alpha virt. eigenvalues --    3.46006   3.88695   4.20212
          Condensed to atoms (all electrons):
              1          2          3          4          5
     1  S   13.743150   0.140290   0.140290   0.081359   0.081359
     2  F    0.140290   9.284155  -0.002310  -0.014100  -0.014100
     3  F    0.140290  -0.002310   9.284155  -0.014100  -0.014100
     4  F    0.081359  -0.014100  -0.014100   9.459522   0.000159
     5  F    0.081359  -0.014100  -0.014100   0.000159   9.459522
 Mulliken atomic charges:
              1
     1  S    1.813551
     2  F   -0.393936
     3  F   -0.393936
     4  F   -0.512840
     5  F   -0.512840
 Sum of Mulliken atomic charges =  -0.00000
 Mulliken charges with hydrogens summed into heavy atoms:
              1
     1  S    1.813551
     2  F   -0.393936
     3  F   -0.393936
     4  F   -0.512840
     5  F   -0.512840
 Sum of Mulliken charges with hydrogens summed into heavy atoms =  -0.00000
 APT atomic charges:
              1
     1  S    1.908692
     2  F   -0.391873
     3  F   -0.391873
     4  F   -0.562473
     5  F   -0.562473
 Sum of APT charges=  -0.00000
 APT Atomic charges with hydrogens summed into heavy atoms:
              1
     1  S    1.908692
     2  F   -0.391873
     3  F   -0.391873
     4  F   -0.562473
     5  F   -0.562473
 Sum of APT charges=  -0.00000
 Electronic spatial extent (au):  <R**2>=            410.2352
 Charge=             -0.0000 electrons
 Dipole moment (field-independent basis, Debye):
    X=              0.0000    Y=             -0.0000    Z=              2.2934  Tot=              2.2934
 Quadrupole moment (field-independent basis, Debye-Ang):
   XX=            -40.3581   YY=            -32.7240   ZZ=            -29.4703
   XY=              0.0000   XZ=              0.0000   YZ=              0.0000
 Traceless Quadrupole moment (field-independent basis, Debye-Ang):
   XX=             -6.1740   YY=              1.4601   ZZ=              4.7138
   XY=              0.0000   XZ=              0.0000   YZ=              0.0000
 Octapole moment (field-independent basis, Debye-Ang**2):
  XXX=              0.0000  YYY=             -0.0000  ZZZ=             -3.2983  XYY=              0.0000
  XXY=             -0.0000  XXZ=             -2.7021  XZZ=              0.0000  YZZ=             -0.0000
  YYZ=              2.4055  XYZ=              0.0000
 Hexadecapole moment (field-independent basis, Debye-Ang**3):
 XXXX=           -218.2845 YYYY=           -126.2875 ZZZZ=            -50.8540 XXXY=              0.0000
 XXXZ=             -0.0000 YYYX=              0.0000 YYYZ=             -0.0000 ZZZX=             -0.0000
 ZZZY=             -0.0000 XXYY=            -50.3203 XXZZ=            -39.0535 YYZZ=            -28.5250
 XXYZ=             -0.0000 YYXZ=             -0.0000 ZZXY=              0.0000
 N-N= 2.838403111476D+02 E-N=-2.454240783397D+03  KE= 7.891051422336D+02
 Symmetry A1   KE= 5.070848957382D+02
 Symmetry A2   KE= 1.276522299358D+01
 Symmetry B1   KE= 1.345865174995D+02
 Symmetry B2   KE= 1.346685060023D+02
  Exact polarizability:  27.000   0.000  19.989   0.000  -0.000  11.400
 Approx polarizability:  23.786  -0.000  17.624   0.000  -0.000   9.109
 Calling FoFJK, ICntrl=    100127 FMM=F ISym2X=1 I1Cent= 0 IOpClX= 0 NMat=1 NMatS=1 NMatT=0.
 Full mass-weighted force constant matrix:
 Low frequencies ---   -8.5590   -0.0017    0.0025    0.0028    2.1508    3.1646
 Low frequencies ---  132.1483  321.2579  403.7770
 Harmonic frequencies (cm**-1), IR intensities (KM/Mole), Raman scattering
 activities (A**4/AMU), depolarization ratios for plane and unpolarized
 incident light, reduced masses (AMU), force constants (mDyne/A),
 and normal coordinates:
                           1         2         3         4         5
                          A1        B2        A2        B1        A1
       Frequencies ---   132.1483  321.2579  403.7769  451.5240  456.2729
    Reduced masses ---    18.9989   20.6276   18.9984   19.5726   21.5069
   Force constants ---     0.1955    1.2543    1.8249    2.3510    2.6380
    IR Intensities ---     0.6248   21.4168    0.0000   12.6336   45.7578
 Coord Atom Element:
   1     1    16         -0.00000   0.00000   0.00000  -0.21038  -0.00000
   2     1    16          0.00000   0.35437  -0.00000   0.00000   0.00000
   3     1    16          0.00637  -0.00000   0.00000  -0.00000   0.43972
   1     2     9          0.00000   0.00000   0.55429   0.53456   0.00000
   2     2     9          0.35118   0.28858  -0.00000   0.00000  -0.48485
   3     2     9          0.42727  -0.09824   0.00000   0.00000  -0.00985
   1     3     9          0.00000  -0.00000  -0.55429   0.53456   0.00000
   2     3     9         -0.35118   0.28858  -0.00000  -0.00000   0.48485
   3     3     9          0.42727   0.09824  -0.00000   0.00000  -0.00985
   1     4     9         -0.08319  -0.00000   0.00000  -0.35754  -0.19605
   2     4     9          0.00000  -0.58676   0.43905   0.00000  -0.00000
   3     4     9         -0.43263   0.00000   0.00000  -0.25353  -0.36015
   1     5     9          0.08319   0.00000   0.00000  -0.35754   0.19605
   2     5     9          0.00000  -0.58676  -0.43905  -0.00000  -0.00000
   3     5     9         -0.43263   0.00000  -0.00000   0.25353  -0.36015
                           6         7         8         9
                          A1        A1        B1        B2
       Frequencies ---   585.9960  814.1232  847.4727  866.9105
    Reduced masses ---    18.9985   22.8606   24.9084   23.1327
   Force constants ---     3.8438    8.9273   10.5402   10.2429
    IR Intensities ---     0.0000   55.5143  308.5006   86.1101
 Coord Atom Element:
   1     1    16          0.00000   0.00000   0.67493   0.00000
   2     1    16          0.00000  -0.00000  -0.00000   0.56451
   3     1    16         -0.00283   0.54562  -0.00000   0.00000
   1     2     9         -0.00000  -0.00000  -0.06199  -0.00000
   2     2     9         -0.17252   0.40933  -0.00000  -0.47220
   3     2     9          0.13542  -0.38480   0.00000   0.34306
   1     3     9         -0.00000  -0.00000  -0.06199   0.00000
   2     3     9          0.17252  -0.40933   0.00000  -0.47220
   3     3     9          0.13542  -0.38480   0.00000  -0.34306
   1     4     9          0.65893   0.17322  -0.50592   0.00000
   2     4     9         -0.00000   0.00000  -0.00000  -0.00280
   3     4     9         -0.13304  -0.07431   0.11149  -0.00000
   1     5     9         -0.65893  -0.17322  -0.50592  -0.00000
   2     5     9         -0.00000   0.00000   0.00000  -0.00280
   3     5     9         -0.13304  -0.07431  -0.11149  -0.00000
 Harmonic frequencies (cm**-1), IR intensities (KM/Mole), Raman scattering
 activities (A**4/AMU), depolarization ratios for plane and unpolarized
 incident light, reduced masses (AMU), force constants (mDyne/A),
 and normal coordinates:
                     1                      2                      3
                    A1                     B2                     A2
 Frequencies --   132.1483               321.2579               403.7769
 Red. masses --    18.9989                20.6276                18.9984
 Frc consts  --     0.1955                 1.2543                 1.8249
 IR Inten    --     0.6248                21.4168                 0.0000
  Atom  AN      X      Y      Z        X      Y      Z        X      Y      Z
     1  16    -0.00   0.00   0.01     0.00   0.35  -0.00     0.00  -0.00   0.00
     2   9     0.00   0.35   0.43     0.00   0.29  -0.10     0.55  -0.00   0.00
     3   9     0.00  -0.35   0.43    -0.00   0.29   0.10    -0.55  -0.00  -0.00
     4   9    -0.08   0.00  -0.43    -0.00  -0.59   0.00     0.00   0.44   0.00
     5   9     0.08   0.00  -0.43     0.00  -0.59   0.00     0.00  -0.44  -0.00
                     4                      5                      6
                    B1                     A1                     A1
 Frequencies --   451.5240               456.2729               585.9960
 Red. masses --    19.5726                21.5069                18.9985
 Frc consts  --     2.3510                 2.6380                 3.8438
 IR Inten    --    12.6336                45.7578                 0.0000
  Atom  AN      X      Y      Z        X      Y      Z        X      Y      Z
     1  16    -0.21   0.00  -0.00    -0.00   0.00   0.44     0.00   0.00  -0.00
     2   9     0.53   0.00   0.00     0.00  -0.48  -0.01    -0.00  -0.17   0.14
     3   9     0.53  -0.00   0.00     0.00   0.48  -0.01    -0.00   0.17   0.14
     4   9    -0.36   0.00  -0.25    -0.20  -0.00  -0.36     0.66  -0.00  -0.13
     5   9    -0.36  -0.00   0.25     0.20  -0.00  -0.36    -0.66  -0.00  -0.13
                     7                      8                      9
                    A1                     B1                     B2
 Frequencies --   814.1232               847.4727               866.9105
 Red. masses --    22.8606                24.9084                23.1327
 Frc consts  --     8.9273                10.5402                10.2429
 IR Inten    --    55.5143               308.5006                86.1101
  Atom  AN      X      Y      Z        X      Y      Z        X      Y      Z
     1  16     0.00  -0.00   0.55     0.67  -0.00  -0.00     0.00   0.56   0.00
     2   9    -0.00   0.41  -0.38    -0.06  -0.00   0.00    -0.00  -0.47   0.34
     3   9    -0.00  -0.41  -0.38    -0.06   0.00   0.00     0.00  -0.47  -0.34
     4   9     0.17   0.00  -0.07    -0.51  -0.00   0.11     0.00  -0.00  -0.00
     5   9    -0.17   0.00  -0.07    -0.51   0.00  -0.11    -0.00  -0.00  -0.00

 -------------------
 - Thermochemistry -
 -------------------
 Temperature   298.150 Kelvin.  Pressure   1.00000 Atm.
 Atom     1 has atomic number 16 and mass  31.97207
 Atom     2 has atomic number  9 and mass  18.99840
 Atom     3 has atomic number  9 and mass  18.99840
 Atom     4 has atomic number  9 and mass  18.99840
 Atom     5 has atomic number  9 and mass  18.99840
 Molecular mass:   107.96568 amu.
 Principal axes and moments of inertia in atomic units:
                           1         2         3
     Eigenvalues --   311.79572 457.86147 638.02502
           X            1.00000  -0.00000   0.00000
           Y            0.00000   1.00000   0.00000
           Z            0.00000   0.00000   1.00000
 This molecule is an asymmetric top.
 Rotational symmetry number  2.
 Rotational temperatures (Kelvin)      0.27779     0.18917     0.13575
 Rotational constants (GHZ):           5.78822     3.94168     2.82864
 Zero-point vibrational energy      29185.8 (Joules/Mol)
                                    6.97557 (Kcal/Mol)
 Warning -- explicit consideration of   6 degrees of freedom as
           vibrations may cause significant error
 Vibrational temperatures:    190.13   462.22   580.94   649.64   656.47
          (Kelvin)            843.12  1171.34  1219.32  1247.29
 
 Zero-point correction=                           0.011116 (Hartree/Particle)
 Thermal correction to Energy=                    0.016214
 Thermal correction to Enthalpy=                  0.017158
 Thermal correction to Gibbs Free Energy=        -0.017203
 Sum of electronic and zero-point Energies=           -791.530499
 Sum of electronic and thermal Energies=              -791.525401
 Sum of electronic and thermal Enthalpies=            -791.524457
 Sum of electronic and thermal Free Energies=         -791.558818
 
                     E (Thermal)             CV                S
                      KCal/Mol        Cal/Mol-Kelvin    Cal/Mol-Kelvin
 Total                   10.174             16.494             72.319
 Electronic               0.000              0.000              0.000
 Translational            0.889              2.981             39.947
 Rotational               0.889              2.981             24.636
 Vibrational              8.397             10.532              7.737
 Vibration     1          0.612              1.921              2.915
 Vibration     2          0.707              1.633              1.304
 Vibration     3          0.769              1.462              0.949
 Vibration     4          0.810              1.358              0.791
 Vibration     5          0.815              1.347              0.777
 Vibration     6          0.943              1.062              0.474
                       Q            Log10(Q)             Ln(Q)
 Total Bot       0.818139D+08          7.912827         18.219958
 Total V=0       0.106157D+14         13.025950         29.993358
 Vib (Bot)       0.343484D-04         -4.464094        -10.278956
 Vib (Bot)    1  0.154186D+01          0.188046          0.432992
 Vib (Bot)    2  0.584705D+00         -0.233063         -0.536649
 Vib (Bot)    3  0.440199D+00         -0.356351         -0.820528
 Vib (Bot)    4  0.379327D+00         -0.420987         -0.969358
 Vib (Bot)    5  0.373924D+00         -0.427217         -0.983703
 Vib (Bot)    6  0.258476D+00         -0.587579         -1.352951
 Vib (V=0)       0.445686D+01          0.649029          1.494444
 Vib (V=0)    1  0.212091D+01          0.326522          0.751844
 Vib (V=0)    2  0.126934D+01          0.103577          0.238495
 Vib (V=0)    3  0.116616D+01          0.066760          0.153720
 Vib (V=0)    4  0.112761D+01          0.052157          0.120096
 Vib (V=0)    5  0.112435D+01          0.050903          0.117209
 Vib (V=0)    6  0.106286D+01          0.026476          0.060962
 Electronic      0.100000D+01          0.000000          0.000000
 Translational   0.440944D+08          7.644384         17.601844
 Rotational      0.540179D+05          4.732537         10.897070
 ***** Axes restored to original set *****
 -------------------------------------------------------------------
 Center     Atomic                   Forces (Hartrees/Bohr)
 Number     Number              X              Y              Z
 -------------------------------------------------------------------
      1       16           0.000202247   -0.000000000   -0.000000000
      2        9          -0.000111404   -0.000090983   -0.000000000
      3        9          -0.000111404    0.000090983   -0.000000000
      4        9           0.000010281   -0.000000000   -0.000089538
      5        9           0.000010281    0.000000000    0.000089538
 -------------------------------------------------------------------
 Cartesian Forces:  Max     0.000202247 RMS     0.000081046

 GradGradGradGradGradGradGradGradGradGradGradGradGradGradGradGradGradGrad
 Berny optimization.
 Internal  Forces:  Max     0.000139061 RMS     0.000067630
 Search for a local minimum.
 Step number   1 out of a maximum of    2
 All quantities printed in internal units (Hartrees-Bohrs-Radians)
 Second derivative matrix not updated -- analytic derivatives used.
 The second derivative matrix:
                          R1        R2        R3        R4        A1
           R1           0.31161
           R2          -0.00234   0.31161
           R3           0.01109   0.01109   0.24648
           R4           0.01109   0.01109   0.00764   0.24648
           A1          -0.00143   0.00068   0.00152   0.00152   0.02067
           A2           0.01622  -0.00112   0.01634  -0.01875   0.00956
           A3           0.01622  -0.00112  -0.01875   0.01634   0.00956
           A4          -0.00132   0.01627   0.01645  -0.01863   0.01460
           A5          -0.00132   0.01627  -0.01863   0.01645   0.01460
           A6           0.03244  -0.00223  -0.00241  -0.00241   0.01913
           A7           0.00859   0.03355  -0.00351  -0.00351   0.03216
           D1           0.00326   0.00116   0.00246  -0.00609  -0.01795
           D2          -0.00326  -0.00116   0.00609  -0.00246   0.01795
                          A2        A3        A4        A5        A6
           A2           0.21700
           A3          -0.16301   0.21700
           A4           0.00752  -0.01136   0.21904
           A5          -0.01136   0.00752  -0.16097   0.21904
           A6           0.05400   0.05400  -0.00384  -0.00384   0.10799
           A7           0.01183   0.01183   0.05650   0.05650   0.02365
           D1           0.01769  -0.03092   0.01284  -0.03577  -0.01323
           D2           0.03092  -0.01769   0.03577  -0.01284   0.01323
                          A7        D1        D2
           A7           0.11957
           D1          -0.02420   0.02188
           D2           0.02420  -0.01003   0.02188
 ITU=  0
     Eigenvalues ---    0.02526   0.14081   0.19977   0.22518   0.25214
     Eigenvalues ---    0.32280   0.32876   0.36112   0.42440
 Angle between quadratic step and forces=  48.63 degrees.
 Linear search not attempted -- first point.
 Iteration  1 RMS(Cart)=  0.00057951 RMS(Int)=  0.00000015
 Iteration  2 RMS(Cart)=  0.00000016 RMS(Int)=  0.00000003
 ClnCor:  largest displacement from symmetrization is 1.12D-07 for atom     3.
 Variable       Old X    -DE/DX   Delta X   Delta X   Delta X     New X
                                 (Linear)    (Quad)   (Total)
    R1        3.14326   0.00014   0.00000   0.00043   0.00043   3.14369
    R2        3.14326   0.00014   0.00000   0.00043   0.00043   3.14369
    R3        3.24806  -0.00009   0.00000  -0.00037  -0.00037   3.24769
    R4        3.24806  -0.00009   0.00000  -0.00037  -0.00037   3.24769
    A1        1.88647  -0.00004   0.00000  -0.00088  -0.00088   1.88559
    A2        1.48360  -0.00000   0.00000   0.00003   0.00003   1.48364
    A3        1.48360  -0.00000   0.00000   0.00003   0.00003   1.48364
    A4        1.48360  -0.00001   0.00000   0.00003   0.00003   1.48364
    A5        1.48360  -0.00001   0.00000   0.00003   0.00003   1.48364
    A6        2.96721  -0.00001   0.00000   0.00007   0.00007   2.96727
    A7        2.89999  -0.00001   0.00000   0.00032   0.00032   2.90031
    D1       -1.89702   0.00004   0.00000   0.00090   0.00090  -1.89612
    D2        1.89702  -0.00004   0.00000  -0.00090  -0.00090   1.89612
         Item               Value     Threshold  Converged?
 Maximum Force            0.000139     0.000450     YES
 RMS     Force            0.000068     0.000300     YES
 Maximum Displacement     0.001037     0.001800     YES
 RMS     Displacement     0.000580     0.001200     YES
 Predicted change in Energy=-1.427796D-07
 Optimization completed.
    -- Stationary point found.
                           ----------------------------
                           !   Optimized Parameters   !
                           ! (Angstroms and Degrees)  !
 --------------------------                            --------------------------
 ! Name  Definition              Value          Derivative Info.                !
 --------------------------------------------------------------------------------
 ! R1    R(1,2)                  1.6633         -DE/DX =    0.0001              !
 ! R2    R(1,3)                  1.6633         -DE/DX =    0.0001              !
 ! R3    R(1,4)                  1.7188         -DE/DX =   -0.0001              !
 ! R4    R(1,5)                  1.7188         -DE/DX =   -0.0001              !
 ! A1    A(2,1,3)              108.0867         -DE/DX =    0.0                 !
 ! A2    A(2,1,4)               85.0042         -DE/DX =    0.0                 !
 ! A3    A(2,1,5)               85.0042         -DE/DX =    0.0                 !
 ! A4    A(3,1,4)               85.0042         -DE/DX =    0.0                 !
 ! A5    A(3,1,5)               85.0042         -DE/DX =    0.0                 !
 ! A6    L(4,1,5,2,-1)         170.0084         -DE/DX =    0.0                 !
 ! A7    L(4,1,5,2,-2)         166.1571         -DE/DX =    0.0                 !
 ! D1    D(2,1,4,3)           -108.6913         -DE/DX =    0.0                 !
 ! D2    D(2,1,5,3)            108.6913         -DE/DX =    0.0                 !
 --------------------------------------------------------------------------------
 GradGradGradGradGradGradGradGradGradGradGradGradGradGradGradGradGradGrad

 1\1\GINC-SRU02\Freq\RMP2-FC\3-21G\F4S1\CENT\23-Jun-2024\0\\#N Geom=All
 Check Guess=TCheck SCRF=Check GenChk RMP2(FC)/3-21G Freq\\Title Card R
 equired\\0,1\S,0.2454781777,0.07075472,0.\F,-0.7311905249,-1.275654764
 3,0.\F,-0.7311905249,1.4171642043,0.\F,-0.0094355309,0.07075472,1.6997
 918909\F,-0.0094355309,0.07075472,-1.6997918909\\Version=AM64L-G09RevC
 .01\State=1-A1\HF=-790.9701661\MP2=-791.5416151\RMSD=6.786e-10\RMSF=8.
 105e-05\ZeroPoint=0.0111163\Thermal=0.0162139\Dipole=0.7587444,0.,0.\D
 ipoleDeriv=1.5285947,0.,0.,0.,1.5487363,0.,0.,0.,2.6487456,-0.3263398,
 -0.2241966,0.,0.0035924,-0.4228838,0.,0.,0.,-0.4263967,-0.3263398,0.22
 41966,0.,-0.0035924,-0.4228838,0.,0.,0.,-0.4263967,-0.4379575,0.,0.261
 5612,0.,-0.3514843,0.,-0.018359,0.,-0.8979761,-0.4379575,0.,-0.2615612
 ,0.,-0.3514843,0.,0.018359,0.,-0.8979761\Polar=11.3995645,0.,19.989174
 8,0.,0.,27.0000093\PG=C02V [C2(S1),SGV(F2),SGV'(F2)]\NImag=0\\0.406297
 31,0.,0.42476909,0.,0.,0.52592542,-0.14098914,-0.14064656,0.,0.1183485
 2,-0.10165645,-0.18728601,0.,0.13946736,0.21096030,0.,0.,-0.05464529,0
 .,0.,0.07815959,-0.14098914,0.14064656,0.,0.01259398,-0.00820648,0.,0.
 11834852,0.10165645,-0.18728601,0.,0.00820648,-0.00170822,0.,-0.139467
 36,0.21096030,0.,0.,-0.05464529,0.,0.,0.00616230,0.,0.,0.07815959,-0.0
 6215952,0.,0.06267051,0.00502332,-0.01480221,-0.02201697,0.00502332,0.
 01480221,-0.02201697,0.04011835,0.,-0.02509854,0.,-0.00351364,-0.01098
 304,-0.02852878,0.00351364,-0.01098304,0.02852878,0.,0.04614396,0.0430
 2172,0.,-0.20831742,-0.00455760,-0.01221538,-0.01483830,-0.00455760,0.
 01221538,-0.01483830,-0.02627155,0.,0.24324467,-0.06215952,0.,-0.06267
 051,0.00502332,-0.01480221,0.02201697,0.00502332,0.01480221,0.02201697
 ,0.01199452,0.,-0.00763498,0.04011835,0.,-0.02509854,0.,-0.00351364,-0
 .01098304,0.02852878,0.00351364,-0.01098304,-0.02852878,0.,0.00092065,
 0.,0.,0.04614396,-0.04302172,0.,-0.20831742,0.00455760,0.01221538,-0.0
 1483830,0.00455760,-0.01221538,-0.01483830,0.00763498,0.,-0.00525066,0
 .02627155,0.,0.24324467\\-0.00020225,0.,0.,0.00011140,0.00009098,0.,0.
 00011140,-0.00009098,0.,-0.00001028,0.,0.00008954,-0.00001028,0.,-0.00
 008954\\\@


 What some people mistake for the high cost
 of living is really the cost of living high.
                              -- Doug Larson
 Job cpu time:  0 days  0 hours  0 minutes  6.3 seconds.
 File lengths (MBytes):  RWF=     83 Int=      0 D2E=      0 Chk=      2 Scr=      1
 Normal termination of Gaussian 09 at Sun Jun 23 20:55:46 2024.
