 Entering Gaussian System, Link 0=g09
 Input=sh4.com
 Output=sh4.log
 Initial command:
 /usr/local/g09/l1.exe /scratch/cent/Gau-24243.inp -scrdir=/scratch/cent/
 Entering Link 1 = /usr/local/g09/l1.exe PID=     24244.
  
 Copyright (c) 1988,1990,1992,1993,1995,1998,2003,2009,2011,
            Gaussian, Inc.  All Rights Reserved.
  
 This is part of the Gaussian(R) 09 program.  It is based on
 the Gaussian(R) 03 system (copyright 2003, Gaussian, Inc.),
 the Gaussian(R) 98 system (copyright 1998, Gaussian, Inc.),
 the Gaussian(R) 94 system (copyright 1995, Gaussian, Inc.),
 the Gaussian 92(TM) system (copyright 1992, Gaussian, Inc.),
 the Gaussian 90(TM) system (copyright 1990, Gaussian, Inc.),
 the Gaussian 88(TM) system (copyright 1988, Gaussian, Inc.),
 the Gaussian 86(TM) system (copyright 1986, Carnegie Mellon
 University), and the Gaussian 82(TM) system (copyright 1983,
 Carnegie Mellon University). Gaussian is a federally registered
 trademark of Gaussian, Inc.
  
 This software contains proprietary and confidential information,
 including trade secrets, belonging to Gaussian, Inc.
  
 This software is provided under written license and may be
 used, copied, transmitted, or stored only in accord with that
 written license.
  
 The following legend is applicable only to US Government
 contracts under FAR:
  
                    RESTRICTED RIGHTS LEGEND
  
 Use, reproduction and disclosure by the US Government is
 subject to restrictions as set forth in subparagraphs (a)
 and (c) of the Commercial Computer Software - Restricted
 Rights clause in FAR 52.227-19.
  
 Gaussian, Inc.
 340 Quinnipiac St., Bldg. 40, Wallingford CT 06492
  
  
 ---------------------------------------------------------------
 Warning -- This program may not be used in any manner that
 competes with the business of Gaussian, Inc. or will provide
 assistance to any competitor of Gaussian, Inc.  The licensee
 of this program is prohibited from giving any competitor of
 Gaussian, Inc. access to this program.  By using this program,
 the user acknowledges that Gaussian, Inc. is engaged in the
 business of creating and licensing software in the field of
 computational chemistry and represents and warrants to the
 licensee that it is not a competitor of Gaussian, Inc. and that
 it will not use this program in any manner prohibited above.
 ---------------------------------------------------------------
  

 Cite this work as:
 Gaussian 09, Revision C.01,
 M. J. Frisch, G. W. Trucks, H. B. Schlegel, G. E. Scuseria, 
 M. A. Robb, J. R. Cheeseman, G. Scalmani, V. Barone, B. Mennucci, 
 G. A. Petersson, H. Nakatsuji, M. Caricato, X. Li, H. P. Hratchian, 
 A. F. Izmaylov, J. Bloino, G. Zheng, J. L. Sonnenberg, M. Hada, 
 M. Ehara, K. Toyota, R. Fukuda, J. Hasegawa, M. Ishida, T. Nakajima, 
 Y. Honda, O. Kitao, H. Nakai, T. Vreven, J. A. Montgomery, Jr., 
 J. E. Peralta, F. Ogliaro, M. Bearpark, J. J. Heyd, E. Brothers, 
 K. N. Kudin, V. N. Staroverov, T. Keith, R. Kobayashi, J. Normand, 
 K. Raghavachari, A. Rendell, J. C. Burant, S. S. Iyengar, J. Tomasi, 
 M. Cossi, N. Rega, J. M. Millam, M. Klene, J. E. Knox, J. B. Cross, 
 V. Bakken, C. Adamo, J. Jaramillo, R. Gomperts, R. E. Stratmann, 
 O. Yazyev, A. J. Austin, R. Cammi, C. Pomelli, J. W. Ochterski, 
 R. L. Martin, K. Morokuma, V. G. Zakrzewski, G. A. Voth, 
 P. Salvador, J. J. Dannenberg, S. Dapprich, A. D. Daniels, 
 O. Farkas, J. B. Foresman, J. V. Ortiz, J. Cioslowski, 
 and D. J. Fox, Gaussian, Inc., Wallingford CT, 2010.
 
 ******************************************
 Gaussian 09:  AM64L-G09RevC.01 23-Sep-2011
                23-Jun-2024 
 ******************************************
 %chk=sh4.chk
 ----------------------------------------------
 # opt freq=hpmodes mp2/3-21g geom=connectivity
 ----------------------------------------------
 1/18=20,19=15,38=1,57=2/1,3;
 2/9=110,12=2,17=6,18=5,40=1/2;
 3/5=5,11=9,16=1,25=1,30=1,71=1/1,2,3;
 4//1;
 5/5=2,38=5/2;
 8/6=4,10=1/1;
 9/15=2,16=-3/6;
 10/5=1/2;
 6/7=2,8=2,9=2,10=2/1;
 7/12=2/1,2,3,16;
 1/18=20,19=15/3(2);
 2/9=110/2;
 99//99;
 2/9=110/2;
 3/5=5,11=9,16=1,25=1,30=1,71=1/1,2,3;
 4/5=5,16=3/1;
 5/5=2,38=5/2;
 8/6=4,10=1/1;
 9/15=2,16=-3/6;
 10/5=1/2;
 7/12=2/1,2,3,16;
 1/18=20,19=15/3(-8);
 2/9=110/2;
 6/7=2,8=2,9=2,10=2/1;
 99//99;
 -------------------
 Title Card Required
 -------------------
 Charge =  0 Multiplicity = 1
 Symbolic Z-Matrix:
 S                     1.22176   0.01156   0.58495 
 H                     1.22176   0.01156  -0.72505 
 H                     1.22176   0.01156   1.89495 
 H                     0.56676   1.14605   0.58495 
 H                     0.56676  -1.12293   0.58495 
 

 GradGradGradGradGradGradGradGradGradGradGradGradGradGradGradGradGradGrad
 Berny optimization.
 Initialization pass.
                           ----------------------------
                           !    Initial Parameters    !
                           ! (Angstroms and Degrees)  !
 --------------------------                            --------------------------
 ! Name  Definition              Value          Derivative Info.                !
 --------------------------------------------------------------------------------
 ! R1    R(1,2)                  1.31           estimate D2E/DX2                !
 ! R2    R(1,3)                  1.31           estimate D2E/DX2                !
 ! R3    R(1,4)                  1.31           estimate D2E/DX2                !
 ! R4    R(1,5)                  1.31           estimate D2E/DX2                !
 ! A1    A(2,1,4)               90.0            estimate D2E/DX2                !
 ! A2    A(2,1,5)               90.0            estimate D2E/DX2                !
 ! A3    A(3,1,4)               90.0            estimate D2E/DX2                !
 ! A4    A(3,1,5)               90.0            estimate D2E/DX2                !
 ! A5    A(4,1,5)              120.0            estimate D2E/DX2                !
 ! A6    L(2,1,3,4,-1)         180.0            estimate D2E/DX2                !
 ! A7    L(2,1,3,4,-2)         180.0            estimate D2E/DX2                !
 ! D1    D(2,1,5,4)            -90.0            estimate D2E/DX2                !
 ! D2    D(3,1,5,4)             90.0            estimate D2E/DX2                !
 --------------------------------------------------------------------------------
 Trust Radius=3.00D-01 FncErr=1.00D-07 GrdErr=1.00D-07
 Number of steps in this run=     23 maximum allowed number of steps=    100.
 GradGradGradGradGradGradGradGradGradGradGradGradGradGradGradGradGradGrad

                          Input orientation:                          
 ---------------------------------------------------------------------
 Center     Atomic      Atomic             Coordinates (Angstroms)
 Number     Number       Type             X           Y           Z
 ---------------------------------------------------------------------
      1         16           0        1.221758    0.011560    0.584952
      2          1           0        1.221758    0.011560   -0.725048
      3          1           0        1.221758    0.011560    1.894952
      4          1           0        0.566758    1.146054    0.584952
      5          1           0        0.566758   -1.122933    0.584952
 ---------------------------------------------------------------------
                    Distance matrix (angstroms):
                    1          2          3          4          5
     1  S    0.000000
     2  H    1.310000   0.000000
     3  H    1.310000   2.620000   0.000000
     4  H    1.310000   1.852620   1.852620   0.000000
     5  H    1.310000   1.852620   1.852620   2.268987   0.000000
 Stoichiometry    H4S
 Framework group  C2V[C2(S),SGV(H2),SGV'(H2)]
 Deg. of freedom     4
 Full point group                 C2V     NOp   4
 Largest Abelian subgroup         C2V     NOp   4
 Largest concise Abelian subgroup C2V     NOp   4
                         Standard orientation:                         
 ---------------------------------------------------------------------
 Center     Atomic      Atomic             Coordinates (Angstroms)
 Number     Number       Type             X           Y           Z
 ---------------------------------------------------------------------
      1         16           0        0.000000   -0.000000    0.065500
      2          1           0        0.000000    1.310000    0.065500
      3          1           0       -0.000000   -1.310000    0.065500
      4          1           0       -1.134493    0.000000   -0.589500
      5          1           0        1.134493   -0.000000   -0.589500
 ---------------------------------------------------------------------
 Rotational constants (GHZ):    148.1770358    118.2060433     83.4874924
 Standard basis: 3-21G (6D, 7F)
 There are    11 symmetry adapted basis functions of A1  symmetry.
 There are     0 symmetry adapted basis functions of A2  symmetry.
 There are     5 symmetry adapted basis functions of B1  symmetry.
 There are     5 symmetry adapted basis functions of B2  symmetry.
 Integral buffers will be    131072 words long.
 Raffenetti 1 integral format.
 Two-electron integral symmetry is turned on.
    21 basis functions,    39 primitive gaussians,    21 cartesian basis functions
    10 alpha electrons       10 beta electrons
       nuclear repulsion energy        27.4306791725 Hartrees.



 Warning!  S  atom    1 may be hypervalent but has no d functions.



 NAtoms=    5 NActive=    5 NUniq=    3 SFac= 2.78D+00 NAtFMM=   60 NAOKFM=F Big=F
 One-electron integrals computed using PRISM.
 NBasis=    21 RedAO= T  NBF=    11     0     5     5
 NBsUse=    21 1.00D-06 NBFU=    11     0     5     5
 Harris functional with IExCor=  205 diagonalized for initial guess.
 ExpMin= 1.42D-01 ExpMax= 1.21D+03 ExpMxC= 1.21D+03 IAcc=1 IRadAn=         1 AccDes= 0.00D+00
 HarFok:  IExCor=  205 AccDes= 0.00D+00 IRadAn=         1 IDoV= 1
 ScaDFX=  1.000000  1.000000  1.000000  1.000000
 FoFCou: FMM=F IPFlag=           0 FMFlag=      100000 FMFlg1=           0
         NFxFlg=           0 DoJE=T BraDBF=F KetDBF=T FulRan=T
         Omega=  0.000000  0.000000  1.000000  0.000000  0.000000 ICntrl=     500 IOpCl=  0
         NMat0=    1 NMatS0=    1 NMatT0=    0 NMatD0=    1 NMtDS0=    0 NMtDT0=    0
         I1Cent=           4 NGrid=           0.
 Petite list used in FoFCou.
 Initial guess orbital symmetries:
       Occupied  (A1) (A1) (B2) (B1) (A1) (A1) (B2) (B1) (A1) (A1)
       Virtual   (A1) (B1) (B2) (B1) (A1) (B2) (A1) (A1) (A1) (B1)
                 (B2)
 The electronic state of the initial guess is 1-A1.
 Requested convergence on RMS density matrix=1.00D-08 within 128 cycles.
 Requested convergence on MAX density matrix=1.00D-06.
 Requested convergence on             energy=1.00D-06.
 No special actions if energy rises.
 Keep R1 ints in memory in canonical form, NReq=846673.
 SCF Done:  E(RHF) =  -397.564206897     A.U. after   10 cycles
             Convg  =    0.4344D-08             -V/T =  1.9989
 ExpMin= 1.42D-01 ExpMax= 1.21D+03 ExpMxC= 1.21D+03 IAcc=3 IRadAn=         5 AccDes= 0.00D+00
 HarFok:  IExCor=  205 AccDes= 0.00D+00 IRadAn=         5 IDoV=-2
 ScaDFX=  1.000000  1.000000  1.000000  1.000000
 Range of M.O.s used for correlation:     6    21
 NBasis=    21 NAE=    10 NBE=    10 NFC=     5 NFV=     0
 NROrb=     16 NOA=     5 NOB=     5 NVA=    11 NVB=    11
 Fully direct method using O(ONN) memory.
 JobTyp=1 Pass  1:  I=   6 to  10 NPSUse=  1 ParTrn=F ParDer=F DoDerP=T.
 Spin components of T(2) and E(2):
     alpha-alpha T2 =       0.2141268490D-02 E2=     -0.5291244212D-02
     alpha-beta  T2 =       0.3396245805D-01 E2=     -0.7497222161D-01
     beta-beta   T2 =       0.2141268490D-02 E2=     -0.5291244212D-02
 ANorm=    0.1018943077D+01
 E2 =    -0.8555471004D-01 EUMP2 =    -0.39764976160741D+03
          IDoAtm=11111
          Differentiating once with respect to electric field.
                with respect to dipole field.
          Differentiating once with respect to nuclear coordinates.
          Keep R1 ints in memory in canonical form, NReq=827430.
          There are     1 degrees of freedom in the 1st order CPHF.  IDoFFX=0.
 LinEq1:  Iter=  0 NonCon=     1 RMS=3.31D-03 Max=1.96D-02
 AX will form     1 AO Fock derivatives at one time.
 LinEq1:  Iter=  1 NonCon=     1 RMS=4.72D-04 Max=2.28D-03
 LinEq1:  Iter=  2 NonCon=     1 RMS=1.24D-04 Max=8.07D-04
 LinEq1:  Iter=  3 NonCon=     1 RMS=2.91D-05 Max=1.35D-04
 LinEq1:  Iter=  4 NonCon=     1 RMS=4.35D-06 Max=2.46D-05
 LinEq1:  Iter=  5 NonCon=     1 RMS=4.30D-07 Max=2.44D-06
 LinEq1:  Iter=  6 NonCon=     1 RMS=3.11D-08 Max=1.99D-07
 LinEq1:  Iter=  7 NonCon=     1 RMS=2.19D-09 Max=1.21D-08
 LinEq1:  Iter=  8 NonCon=     1 RMS=1.94D-10 Max=9.25D-10
 LinEq1:  Iter=  9 NonCon=     0 RMS=1.93D-11 Max=1.02D-10
 Linear equations converged to 1.000D-10 1.000D-09 after     9 iterations.
 End of Minotr Frequency-dependent properties file   721 does not exist.
 End of Minotr Frequency-dependent properties file   722 does not exist.

 **********************************************************************

            Population analysis using the SCF density.

 **********************************************************************

 Orbital symmetries:
       Occupied  (A1) (A1) (B2) (B1) (A1) (A1) (B2) (B1) (A1) (A1)
       Virtual   (A1) (B1) (B2) (B1) (A1) (B2) (A1) (A1) (A1) (B1)
                 (B2)
 The electronic state is 1-A1.
 Alpha  occ. eigenvalues --  -91.41473  -9.01441  -6.69018  -6.69001  -6.68589
 Alpha  occ. eigenvalues --   -1.11071  -0.70090  -0.69064  -0.53193  -0.24088
 Alpha virt. eigenvalues --    0.16895   0.20840   0.36118   0.61581   0.64389
 Alpha virt. eigenvalues --    0.71366   0.74018   1.12179   1.18398   1.22941
 Alpha virt. eigenvalues --    1.31662
          Condensed to atoms (all electrons):
              1          2          3          4          5
     1  S   15.245150  -0.001408  -0.001408   0.310447   0.310447
     2  H   -0.001408   1.475026   0.084864  -0.211544  -0.211544
     3  H   -0.001408   0.084864   1.475026  -0.211544  -0.211544
     4  H    0.310447  -0.211544  -0.211544   0.990427   0.055206
     5  H    0.310447  -0.211544  -0.211544   0.055206   0.990427
 Mulliken atomic charges:
              1
     1  S    0.136773
     2  H   -0.135394
     3  H   -0.135394
     4  H    0.067008
     5  H    0.067008
 Sum of Mulliken atomic charges =   0.00000
 Mulliken charges with hydrogens summed into heavy atoms:
              1
     1  S    0.000000
 Sum of Mulliken charges with hydrogens summed into heavy atoms =   0.00000
 Electronic spatial extent (au):  <R**2>=             63.7539
 Charge=             -0.0000 electrons
 Dipole moment (field-independent basis, Debye):
    X=             -0.0000    Y=             -0.0000    Z=             -1.2864  Tot=              1.2864
 Quadrupole moment (field-independent basis, Debye-Ang):
   XX=            -15.3955   YY=            -20.5817   ZZ=            -17.2151
   XY=             -0.0000   XZ=              0.0000   YZ=              0.0000
 Traceless Quadrupole moment (field-independent basis, Debye-Ang):
   XX=              2.3353   YY=             -2.8509   ZZ=              0.5156
   XY=             -0.0000   XZ=              0.0000   YZ=              0.0000
 Octapole moment (field-independent basis, Debye-Ang**2):
  XXX=              0.0000  YYY=             -0.0000  ZZZ=             -1.6685  XYY=              0.0000
  XXY=             -0.0000  XXZ=             -0.2153  XZZ=              0.0000  YZZ=             -0.0000
  YYZ=              0.3514  XYZ=              0.0000
 Hexadecapole moment (field-independent basis, Debye-Ang**3):
 XXXX=            -33.1489 YYYY=            -60.0125 ZZZZ=            -25.6415 XXXY=              0.0000
 XXXZ=              0.0000 YYYX=             -0.0000 YYYZ=              0.0000 ZZZX=             -0.0000
 ZZZY=              0.0000 XXYY=            -11.8837 XXZZ=             -9.3848 YYZZ=            -11.4772
 XXYZ=              0.0000 YYXZ=             -0.0000 ZZXY=              0.0000
 N-N= 2.743067917251D+01 E-N=-1.000465050740D+03  KE= 3.980158354100D+02
 Symmetry A1   KE= 3.228914372874D+02
 Symmetry A2   KE= 0.000000000000D+00
 Symmetry B1   KE= 3.755589946504D+01
 Symmetry B2   KE= 3.756849865754D+01
 Calling FoFJK, ICntrl=      2127 FMM=F ISym2X=1 I1Cent= 0 IOpClX= 0 NMat=1 NMatS=1 NMatT=0.
 ***** Axes restored to original set *****
 -------------------------------------------------------------------
 Center     Atomic                   Forces (Hartrees/Bohr)
 Number     Number              X              Y              Z
 -------------------------------------------------------------------
      1       16           0.063035266    0.000000000    0.000000000
      2        1          -0.025744703    0.000000000   -0.097470881
      3        1          -0.025744703   -0.000000000    0.097470881
      4        1          -0.005772930    0.052456983   -0.000000000
      5        1          -0.005772930   -0.052456983   -0.000000000
 -------------------------------------------------------------------
 Cartesian Forces:  Max     0.097470881 RMS     0.044624577

 GradGradGradGradGradGradGradGradGradGradGradGradGradGradGradGradGradGrad
 Berny optimization.
 Internal  Forces:  Max     0.097470881 RMS     0.047206895
 Search for a local minimum.
 Step number   1 out of a maximum of   23
 All quantities printed in internal units (Hartrees-Bohrs-Radians)
 Mixed Optimization -- RFO/linear search
 Second derivative matrix not updated -- first step.
 The second derivative matrix:
                          R1        R2        R3        R4        A1
           R1           0.28975
           R2           0.00000   0.28975
           R3           0.00000   0.00000   0.28975
           R4           0.00000   0.00000   0.00000   0.28975
           A1           0.00000   0.00000   0.00000   0.00000   0.16000
           A2           0.00000   0.00000   0.00000   0.00000   0.00000
           A3           0.00000   0.00000   0.00000   0.00000   0.00000
           A4           0.00000   0.00000   0.00000   0.00000   0.00000
           A5           0.00000   0.00000   0.00000   0.00000   0.00000
           A6           0.00000   0.00000   0.00000   0.00000   0.00000
           A7           0.00000   0.00000   0.00000   0.00000   0.00000
           D1           0.00000   0.00000   0.00000   0.00000   0.00000
           D2           0.00000   0.00000   0.00000   0.00000   0.00000
                          A2        A3        A4        A5        A6
           A2           0.16000
           A3           0.00000   0.16000
           A4           0.00000   0.00000   0.16000
           A5           0.00000   0.00000   0.00000   0.16000
           A6           0.00000   0.00000   0.00000   0.00000   0.00897
           A7           0.00000   0.00000   0.00000   0.00000   0.00000
           D1           0.00000   0.00000   0.00000   0.00000   0.00000
           D2           0.00000   0.00000   0.00000   0.00000   0.00000
                          A7        D1        D2
           A7           0.00897
           D1           0.00000   0.00897
           D2           0.00000   0.00000   0.00897
 ITU=  0
     Eigenvalues ---    0.03199   0.06561   0.07091   0.16000   0.16000
     Eigenvalues ---    0.28975   0.28975   0.28975   0.28975
 RFO step:  Lambda=-9.29111358D-02 EMin= 3.19910675D-02
 Linear search not attempted -- first point.
 Maximum step size (   0.300) exceeded in Quadratic search.
    -- Step size scaled by   0.522
 Iteration  1 RMS(Cart)=  0.10792243 RMS(Int)=  0.00585179
 Iteration  2 RMS(Cart)=  0.00578777 RMS(Int)=  0.00303006
 Iteration  3 RMS(Cart)=  0.00003938 RMS(Int)=  0.00302995
 Iteration  4 RMS(Cart)=  0.00000019 RMS(Int)=  0.00302995
 ClnCor:  largest displacement from symmetrization is 8.26D-03 for atom     5.
 Variable       Old X    -DE/DX   Delta X   Delta X   Delta X     New X
                                 (Linear)    (Quad)   (Total)
    R1        2.47554   0.09747   0.00000   0.13285   0.13283   2.60837
    R2        2.47554   0.09747   0.00000   0.13285   0.13283   2.60837
    R3        2.47554   0.04832   0.00000   0.06585   0.06995   2.54549
    R4        2.47554   0.04832   0.00000   0.06585   0.06995   2.54549
    A1        1.57080  -0.00797   0.00000  -0.03602  -0.03742   1.53338
    A2        1.57080  -0.01195   0.00000  -0.04637  -0.03742   1.53338
    A3        1.57080  -0.00797   0.00000  -0.03602  -0.03742   1.53338
    A4        1.57080  -0.01195   0.00000  -0.04637  -0.03742   1.53338
    A5        2.09440   0.05255   0.00000   0.10838   0.10686   2.20125
    A6        3.14159  -0.01593   0.00000  -0.07205  -0.07483   3.06676
    A7        3.14159  -0.03680   0.00000  -0.14868  -0.14746   2.99413
    D1       -1.57080   0.01610   0.00000   0.06837   0.07373  -1.49707
    D2        1.57080  -0.01610   0.00000  -0.06837  -0.07373   1.49707
         Item               Value     Threshold  Converged?
 Maximum Force            0.097471     0.000450     NO 
 RMS     Force            0.047207     0.000300     NO 
 Maximum Displacement     0.163990     0.001800     NO 
 RMS     Displacement     0.109388     0.001200     NO 
 Predicted change in Energy=-4.068804D-02
 GradGradGradGradGradGradGradGradGradGradGradGradGradGradGradGradGradGrad

                          Input orientation:                          
 ---------------------------------------------------------------------
 Center     Atomic      Atomic             Coordinates (Angstroms)
 Number     Number       Type             X           Y           Z
 ---------------------------------------------------------------------
      1         16           0        1.248951    0.011560    0.584952
      2          1           0        1.134978    0.011560   -0.790624
      3          1           0        1.134978    0.011560    1.960528
      4          1           0        0.638702    1.212411    0.584952
      5          1           0        0.638702   -1.189290    0.584952
 ---------------------------------------------------------------------
                    Distance matrix (angstroms):
                    1          2          3          4          5
     1  S    0.000000
     2  H    1.380290   0.000000
     3  H    1.380290   2.751152   0.000000
     4  H    1.347014   1.892232   1.892232   0.000000
     5  H    1.347014   1.892232   1.892232   2.401702   0.000000
 Stoichiometry    H4S
 Framework group  C2V[C2(S),SGV(H2),SGV'(H2)]
 Deg. of freedom     4
 Full point group                 C2V     NOp   4
 Largest Abelian subgroup         C2V     NOp   4
 Largest concise Abelian subgroup C2V     NOp   4
                         Standard orientation:                         
 ---------------------------------------------------------------------
 Center     Atomic      Atomic             Coordinates (Angstroms)
 Number     Number       Type             X           Y           Z
 ---------------------------------------------------------------------
      1         16           0        0.000000    0.000000    0.072422
      2          1           0        0.000000    1.375576   -0.041550
      3          1           0       -0.000000   -1.375576   -0.041550
      4          1           0       -1.200851    0.000000   -0.537827
      5          1           0        1.200851   -0.000000   -0.537827
 ---------------------------------------------------------------------
 Rotational constants (GHZ):    139.4424243    111.5217425     75.1975302
 Standard basis: 3-21G (6D, 7F)
 There are    11 symmetry adapted basis functions of A1  symmetry.
 There are     0 symmetry adapted basis functions of A2  symmetry.
 There are     5 symmetry adapted basis functions of B1  symmetry.
 There are     5 symmetry adapted basis functions of B2  symmetry.
 Integral buffers will be    131072 words long.
 Raffenetti 1 integral format.
 Two-electron integral symmetry is turned on.
    21 basis functions,    39 primitive gaussians,    21 cartesian basis functions
    10 alpha electrons       10 beta electrons
       nuclear repulsion energy        26.3707799143 Hartrees.



 Warning!  S  atom    1 may be hypervalent but has no d functions.



 NAtoms=    5 NActive=    5 NUniq=    3 SFac= 2.78D+00 NAtFMM=   60 NAOKFM=F Big=F
 One-electron integrals computed using PRISM.
 NBasis=    21 RedAO= T  NBF=    11     0     5     5
 NBsUse=    21 1.00D-06 NBFU=    11     0     5     5
 Initial guess read from the read-write file.
 B after Tr=     0.000000    0.000000    0.000000
         Rot=    1.000000    0.000000    0.000000    0.000000 Ang=   0.00 deg.
 Initial guess orbital symmetries:
       Occupied  (A1) (A1) (B2) (B1) (A1) (A1) (B2) (B1) (A1) (A1)
       Virtual   (A1) (B1) (B2) (B1) (A1) (B2) (A1) (A1) (A1) (B1)
                 (B2)
 Harris functional with IExCor=  205 diagonalized for initial guess.
 ExpMin= 1.42D-01 ExpMax= 1.21D+03 ExpMxC= 1.21D+03 IAcc=1 IRadAn=         1 AccDes= 0.00D+00
 HarFok:  IExCor=  205 AccDes= 0.00D+00 IRadAn=         1 IDoV= 1
 ScaDFX=  1.000000  1.000000  1.000000  1.000000
 FoFCou: FMM=F IPFlag=           0 FMFlag=      100000 FMFlg1=           0
         NFxFlg=           0 DoJE=T BraDBF=F KetDBF=T FulRan=T
         Omega=  0.000000  0.000000  1.000000  0.000000  0.000000 ICntrl=     500 IOpCl=  0
         NMat0=    1 NMatS0=    1 NMatT0=    0 NMatD0=    1 NMtDS0=    0 NMtDT0=    0
         I1Cent=           4 NGrid=           0.
 Petite list used in FoFCou.
 Requested convergence on RMS density matrix=1.00D-08 within 128 cycles.
 Requested convergence on MAX density matrix=1.00D-06.
 Requested convergence on             energy=1.00D-06.
 No special actions if energy rises.
 Keep R1 ints in memory in canonical form, NReq=846673.
 SCF Done:  E(RHF) =  -397.599663628     A.U. after   11 cycles
             Convg  =    0.4940D-08             -V/T =  1.9996
 ExpMin= 1.42D-01 ExpMax= 1.21D+03 ExpMxC= 1.21D+03 IAcc=3 IRadAn=         5 AccDes= 0.00D+00
 HarFok:  IExCor=  205 AccDes= 0.00D+00 IRadAn=         5 IDoV=-2
 ScaDFX=  1.000000  1.000000  1.000000  1.000000
 Range of M.O.s used for correlation:     6    21
 NBasis=    21 NAE=    10 NBE=    10 NFC=     5 NFV=     0
 NROrb=     16 NOA=     5 NOB=     5 NVA=    11 NVB=    11
 Fully direct method using O(ONN) memory.
 JobTyp=1 Pass  1:  I=   6 to  10 NPSUse=  1 ParTrn=F ParDer=F DoDerP=T.
 Spin components of T(2) and E(2):
     alpha-alpha T2 =       0.2217888383D-02 E2=     -0.5322293530D-02
     alpha-beta  T2 =       0.3673324875D-01 E2=     -0.7728918563D-01
     beta-beta   T2 =       0.2217888383D-02 E2=     -0.5322293530D-02
 ANorm=    0.1020376904D+01
 E2 =    -0.8793377269D-01 EUMP2 =    -0.39768759740028D+03
          IDoAtm=11111
          Differentiating once with respect to electric field.
                with respect to dipole field.
          Differentiating once with respect to nuclear coordinates.
          Keep R1 ints in memory in canonical form, NReq=827430.
          There are     1 degrees of freedom in the 1st order CPHF.  IDoFFX=0.
 LinEq1:  Iter=  0 NonCon=     1 RMS=3.69D-03 Max=1.91D-02
 AX will form     1 AO Fock derivatives at one time.
 LinEq1:  Iter=  1 NonCon=     1 RMS=5.44D-04 Max=2.52D-03
 LinEq1:  Iter=  2 NonCon=     1 RMS=1.51D-04 Max=8.35D-04
 LinEq1:  Iter=  3 NonCon=     1 RMS=3.67D-05 Max=1.90D-04
 LinEq1:  Iter=  4 NonCon=     1 RMS=4.29D-06 Max=2.50D-05
 LinEq1:  Iter=  5 NonCon=     1 RMS=5.18D-07 Max=2.93D-06
 LinEq1:  Iter=  6 NonCon=     1 RMS=4.62D-08 Max=2.58D-07
 LinEq1:  Iter=  7 NonCon=     1 RMS=3.11D-09 Max=1.43D-08
 LinEq1:  Iter=  8 NonCon=     1 RMS=1.77D-10 Max=7.59D-10
 LinEq1:  Iter=  9 NonCon=     0 RMS=1.83D-11 Max=6.92D-11
 Linear equations converged to 1.000D-10 1.000D-09 after     9 iterations.
 End of Minotr Frequency-dependent properties file   721 does not exist.
 End of Minotr Frequency-dependent properties file   722 does not exist.
 Calling FoFJK, ICntrl=      2127 FMM=F ISym2X=1 I1Cent= 0 IOpClX= 0 NMat=1 NMatS=1 NMatT=0.
 ***** Axes restored to original set *****
 -------------------------------------------------------------------
 Center     Atomic                   Forces (Hartrees/Bohr)
 Number     Number              X              Y              Z
 -------------------------------------------------------------------
      1       16           0.031453641   -0.000000000   -0.000000000
      2        1          -0.015586731    0.000000000   -0.055415542
      3        1          -0.015586731   -0.000000000    0.055415542
      4        1          -0.000140090    0.032578299    0.000000000
      5        1          -0.000140090   -0.032578299   -0.000000000
 -------------------------------------------------------------------
 Cartesian Forces:  Max     0.055415542 RMS     0.025481652

 GradGradGradGradGradGradGradGradGradGradGradGradGradGradGradGradGradGrad
 Berny optimization.
 Using GEDIIS/GDIIS optimizer.
 Internal  Forces:  Max     0.056513325 RMS     0.027712447
 Search for a local minimum.
 Step number   2 out of a maximum of   23
 All quantities printed in internal units (Hartrees-Bohrs-Radians)
 Mixed Optimization -- RFO/linear search
 Update second derivatives using D2CorX and points    1    2
 DE= -3.78D-02 DEPred=-4.07D-02 R= 9.30D-01
 SS=  1.41D+00  RLast= 3.17D-01 DXNew= 5.0454D-01 9.5014D-01
 Trust test= 9.30D-01 RLast= 3.17D-01 DXMaxT set to 5.05D-01
 The second derivative matrix:
                          R1        R2        R3        R4        A1
           R1           0.27783
           R2          -0.01192   0.27783
           R3          -0.01088  -0.01088   0.28187
           R4          -0.01088  -0.01088  -0.00789   0.28187
           A1           0.00370   0.00370   0.00256   0.00256   0.15918
           A2          -0.00322  -0.00322  -0.00069  -0.00069   0.00010
           A3           0.00370   0.00370   0.00256   0.00256  -0.00082
           A4          -0.00322  -0.00322  -0.00069  -0.00069   0.00010
           A5          -0.01052  -0.01052  -0.00729  -0.00729   0.00234
           A6          -0.01956  -0.01956  -0.00908  -0.00908   0.00255
           A7          -0.03370  -0.03370  -0.01562  -0.01562   0.00439
           D1           0.01279   0.01279   0.00591   0.00591  -0.00166
           D2          -0.01279  -0.01279  -0.00591  -0.00591   0.00166
                          A2        A3        A4        A5        A6
           A2           0.16161
           A3           0.00010   0.15918
           A4           0.00161   0.00010   0.16161
           A5          -0.00028   0.00234  -0.00028   0.15334
           A6           0.00439   0.00255   0.00439  -0.00731   0.01455
           A7           0.00758   0.00439   0.00758  -0.01256   0.00970
           D1          -0.00290  -0.00166  -0.00290   0.00474  -0.00378
           D2           0.00290   0.00166   0.00290  -0.00474   0.00378
                          A7        D1        D2
           A7           0.02586
           D1          -0.00657   0.01153
           D2           0.00657  -0.00256   0.01153
 ITU=  1  0
 Use linear search instead of GDIIS.
 Linear search step of   0.583 exceeds DXMaxT=   0.505 but not scaled.
 Quartic linear search produced a step of  1.94914.
 Iteration  1 RMS(Cart)=  0.18609097 RMS(Int)=  0.03443512
 Iteration  2 RMS(Cart)=  0.03746851 RMS(Int)=  0.01693806
 Iteration  3 RMS(Cart)=  0.00123062 RMS(Int)=  0.01690488
 Iteration  4 RMS(Cart)=  0.00002018 RMS(Int)=  0.01690486
 Iteration  5 RMS(Cart)=  0.00000063 RMS(Int)=  0.01690486
 ClnCor:  largest displacement from symmetrization is 2.82D-02 for atom     5.
 Variable       Old X    -DE/DX   Delta X   Delta X   Delta X     New X
                                 (Linear)    (Quad)   (Total)
    R1        2.60837   0.05651   0.25890   0.00000   0.25869   2.86706
    R2        2.60837   0.05651   0.25890   0.00000   0.25869   2.86706
    R3        2.54549   0.02911   0.13633   0.00000   0.12234   2.66783
    R4        2.54549   0.02911   0.13633   0.00000   0.12234   2.66783
    A1        1.53338  -0.00254  -0.07293   0.00000  -0.05077   1.48261
    A2        1.53338  -0.00298  -0.07293   0.00000  -0.05077   1.48261
    A3        1.53338  -0.00254  -0.07293   0.00000  -0.05077   1.48261
    A4        1.53338  -0.00298  -0.07293   0.00000  -0.05077   1.48261
    A5        2.20125   0.03704   0.20828   0.00000   0.19249   2.39374
    A6        3.06676  -0.00509  -0.14586   0.00000  -0.10153   2.96523
    A7        2.99413  -0.01791  -0.28742   0.00000  -0.30708   2.68705
    D1       -1.49707   0.00873   0.14371   0.00000   0.15354  -1.34352
    D2        1.49707  -0.00873  -0.14371   0.00000  -0.15354   1.34352
         Item               Value     Threshold  Converged?
 Maximum Force            0.056513     0.000450     NO 
 RMS     Force            0.027712     0.000300     NO 
 Maximum Displacement     0.354305     0.001800     NO 
 RMS     Displacement     0.215721     0.001200     NO 
 Predicted change in Energy=-1.538781D-02
 GradGradGradGradGradGradGradGradGradGradGradGradGradGradGradGradGradGrad

                          Input orientation:                          
 ---------------------------------------------------------------------
 Center     Atomic      Atomic             Coordinates (Angstroms)
 Number     Number       Type             X           Y           Z
 ---------------------------------------------------------------------
      1         16           0        1.313288    0.011560    0.584952
      2          1           0        0.947488    0.011560   -0.887471
      3          1           0        0.947488    0.011560    2.057376
      4          1           0        0.797613    1.325764    0.584952
      5          1           0        0.797613   -1.302644    0.584952
 ---------------------------------------------------------------------
                    Distance matrix (angstroms):
                    1          2          3          4          5
     1  S    0.000000
     2  H    1.517182   0.000000
     3  H    1.517182   2.944847   0.000000
     4  H    1.411755   1.979299   1.979299   0.000000
     5  H    1.411755   1.979299   1.979299   2.628408   0.000000
 Stoichiometry    H4S
 Framework group  C2V[C2(S),SGV(H2),SGV'(H2)]
 Deg. of freedom     4
 Full point group                 C2V     NOp   4
 Largest Abelian subgroup         C2V     NOp   4
 Largest concise Abelian subgroup C2V     NOp   4
                         Standard orientation:                         
 ---------------------------------------------------------------------
 Center     Atomic      Atomic             Coordinates (Angstroms)
 Number     Number       Type             X           Y           Z
 ---------------------------------------------------------------------
      1         16           0        0.000000    0.000000    0.088147
      2          1           0        0.000000    1.472423   -0.277652
      3          1           0       -0.000000   -1.472423   -0.277652
      4          1           0       -1.314204    0.000000   -0.427527
      5          1           0        1.314204   -0.000000   -0.427527
 ---------------------------------------------------------------------
 Rotational constants (GHZ):    120.3475983     99.3271577     64.3689537
 Standard basis: 3-21G (6D, 7F)
 There are    11 symmetry adapted basis functions of A1  symmetry.
 There are     0 symmetry adapted basis functions of A2  symmetry.
 There are     5 symmetry adapted basis functions of B1  symmetry.
 There are     5 symmetry adapted basis functions of B2  symmetry.
 Integral buffers will be    131072 words long.
 Raffenetti 1 integral format.
 Two-electron integral symmetry is turned on.
    21 basis functions,    39 primitive gaussians,    21 cartesian basis functions
    10 alpha electrons       10 beta electrons
       nuclear repulsion energy        24.6064833656 Hartrees.



 Warning!  S  atom    1 may be hypervalent but has no d functions.



 NAtoms=    5 NActive=    5 NUniq=    3 SFac= 2.78D+00 NAtFMM=   60 NAOKFM=F Big=F
 One-electron integrals computed using PRISM.
 NBasis=    21 RedAO= T  NBF=    11     0     5     5
 NBsUse=    21 1.00D-06 NBFU=    11     0     5     5
 Initial guess read from the read-write file.
 B after Tr=     0.000000    0.000000    0.000000
         Rot=    1.000000    0.000000    0.000000    0.000000 Ang=   0.00 deg.
 Initial guess orbital symmetries:
       Occupied  (A1) (A1) (B1) (B2) (A1) (A1) (B1) (B2) (A1) (A1)
       Virtual   (A1) (B1) (B2) (B1) (A1) (A1) (B2) (A1) (A1) (B1)
                 (B2)
 Harris functional with IExCor=  205 diagonalized for initial guess.
 ExpMin= 1.42D-01 ExpMax= 1.21D+03 ExpMxC= 1.21D+03 IAcc=1 IRadAn=         1 AccDes= 0.00D+00
 HarFok:  IExCor=  205 AccDes= 0.00D+00 IRadAn=         1 IDoV= 1
 ScaDFX=  1.000000  1.000000  1.000000  1.000000
 FoFCou: FMM=F IPFlag=           0 FMFlag=      100000 FMFlg1=           0
         NFxFlg=           0 DoJE=T BraDBF=F KetDBF=T FulRan=T
         Omega=  0.000000  0.000000  1.000000  0.000000  0.000000 ICntrl=     500 IOpCl=  0
         NMat0=    1 NMatS0=    1 NMatT0=    0 NMatD0=    1 NMtDS0=    0 NMtDT0=    0
         I1Cent=           4 NGrid=           0.
 Petite list used in FoFCou.
 Requested convergence on RMS density matrix=1.00D-08 within 128 cycles.
 Requested convergence on MAX density matrix=1.00D-06.
 Requested convergence on             energy=1.00D-06.
 No special actions if energy rises.
 Keep R1 ints in memory in canonical form, NReq=846673.
 SCF Done:  E(RHF) =  -397.618677444     A.U. after   11 cycles
             Convg  =    0.4543D-08             -V/T =  2.0007
 ExpMin= 1.42D-01 ExpMax= 1.21D+03 ExpMxC= 1.21D+03 IAcc=3 IRadAn=         5 AccDes= 0.00D+00
 HarFok:  IExCor=  205 AccDes= 0.00D+00 IRadAn=         5 IDoV=-2
 ScaDFX=  1.000000  1.000000  1.000000  1.000000
 Range of M.O.s used for correlation:     6    21
 NBasis=    21 NAE=    10 NBE=    10 NFC=     5 NFV=     0
 NROrb=     16 NOA=     5 NOB=     5 NVA=    11 NVB=    11
 Fully direct method using O(ONN) memory.
 JobTyp=1 Pass  1:  I=   6 to  10 NPSUse=  1 ParTrn=F ParDer=F DoDerP=T.
 Spin components of T(2) and E(2):
     alpha-alpha T2 =       0.2427862496D-02 E2=     -0.5480175881D-02
     alpha-beta  T2 =       0.4377078681D-01 E2=     -0.8263296727D-01
     beta-beta   T2 =       0.2427862496D-02 E2=     -0.5480175881D-02
 ANorm=    0.1024024664D+01
 E2 =    -0.9359331903D-01 EUMP2 =    -0.39771227076289D+03
          IDoAtm=11111
          Differentiating once with respect to electric field.
                with respect to dipole field.
          Differentiating once with respect to nuclear coordinates.
          Keep R1 ints in memory in canonical form, NReq=827430.
          There are     1 degrees of freedom in the 1st order CPHF.  IDoFFX=0.
 LinEq1:  Iter=  0 NonCon=     1 RMS=4.46D-03 Max=2.59D-02
 AX will form     1 AO Fock derivatives at one time.
 LinEq1:  Iter=  1 NonCon=     1 RMS=7.39D-04 Max=4.77D-03
 LinEq1:  Iter=  2 NonCon=     1 RMS=2.06D-04 Max=1.01D-03
 LinEq1:  Iter=  3 NonCon=     1 RMS=3.52D-05 Max=2.31D-04
 LinEq1:  Iter=  4 NonCon=     1 RMS=2.86D-06 Max=1.54D-05
 LinEq1:  Iter=  5 NonCon=     1 RMS=4.49D-07 Max=2.92D-06
 LinEq1:  Iter=  6 NonCon=     1 RMS=6.22D-08 Max=4.53D-07
 LinEq1:  Iter=  7 NonCon=     1 RMS=7.00D-09 Max=3.55D-08
 LinEq1:  Iter=  8 NonCon=     1 RMS=3.25D-10 Max=1.44D-09
 LinEq1:  Iter=  9 NonCon=     0 RMS=3.33D-11 Max=1.46D-10
 Linear equations converged to 1.000D-10 1.000D-09 after     9 iterations.
 End of Minotr Frequency-dependent properties file   721 does not exist.
 End of Minotr Frequency-dependent properties file   722 does not exist.
 Calling FoFJK, ICntrl=      2127 FMM=F ISym2X=1 I1Cent= 0 IOpClX= 0 NMat=1 NMatS=1 NMatT=0.
 ***** Axes restored to original set *****
 -------------------------------------------------------------------
 Center     Atomic                   Forces (Hartrees/Bohr)
 Number     Number              X              Y              Z
 -------------------------------------------------------------------
      1       16          -0.016736006   -0.000000000    0.000000000
      2        1           0.005201275   -0.000000000   -0.006683379
      3        1           0.005201275   -0.000000000    0.006683379
      4        1           0.003166728    0.009096313    0.000000000
      5        1           0.003166728   -0.009096313   -0.000000000
 -------------------------------------------------------------------
 Cartesian Forces:  Max     0.016736006 RMS     0.006372219

 GradGradGradGradGradGradGradGradGradGradGradGradGradGradGradGradGradGrad
 Berny optimization.
 Using GEDIIS/GDIIS optimizer.
 Internal  Forces:  Max     0.015178454 RMS     0.007047133
 Search for a local minimum.
 Step number   3 out of a maximum of   23
 All quantities printed in internal units (Hartrees-Bohrs-Radians)
 Mixed Optimization -- RFO/linear search
 Update second derivatives using D2CorX and points    2    3
 The second derivative matrix:
                          R1        R2        R3        R4        A1
           R1           0.24268
           R2          -0.04707   0.24268
           R3          -0.02549  -0.02549   0.27579
           R4          -0.02549  -0.02549  -0.01396   0.27579
           A1           0.00633   0.00633   0.00365   0.00365   0.15899
           A2           0.00354   0.00354   0.00213   0.00213  -0.00043
           A3           0.00633   0.00633   0.00365   0.00365  -0.00101
           A4           0.00354   0.00354   0.00213   0.00213  -0.00043
           A5          -0.01895  -0.01895  -0.01075  -0.01075   0.00287
           A6          -0.00815  -0.00815  -0.00431  -0.00431   0.00164
           A7          -0.02403  -0.02403  -0.01166  -0.01166   0.00381
           D1           0.01094   0.01094   0.00518   0.00518  -0.00162
           D2          -0.01094  -0.01094  -0.00518  -0.00518   0.00162
                          A2        A3        A4        A5        A6
           A2           0.16033
           A3          -0.00043   0.15899
           A4           0.00033  -0.00043   0.16033
           A5           0.00147   0.00287   0.00147   0.15205
           A6           0.00228   0.00164   0.00228  -0.00408   0.01118
           A7           0.00552   0.00381   0.00552  -0.01136   0.00581
           D1          -0.00240  -0.00162  -0.00240   0.00510  -0.00264
           D2           0.00240   0.00162   0.00240  -0.00510   0.00264
                          A7        D1        D2
           A7           0.02493
           D1          -0.00730   0.01231
           D2           0.00730  -0.00334   0.01231
 ITU=  0  1  0
 Use linear search instead of GDIIS.
     Eigenvalues ---    0.03679   0.04218   0.07668   0.14125   0.16000
     Eigenvalues ---    0.19315   0.28954   0.28975   0.28975
 RFO step:  Lambda=-9.40414486D-03 EMin= 3.67889653D-02
 Quartic linear search produced a step of  0.03643.
 Iteration  1 RMS(Cart)=  0.11471340 RMS(Int)=  0.01965225
 Iteration  2 RMS(Cart)=  0.02252766 RMS(Int)=  0.00498883
 Iteration  3 RMS(Cart)=  0.00043001 RMS(Int)=  0.00497156
 Iteration  4 RMS(Cart)=  0.00000144 RMS(Int)=  0.00497156
 Iteration  5 RMS(Cart)=  0.00000001 RMS(Int)=  0.00497156
 ClnCor:  largest displacement from symmetrization is 3.47D-03 for atom     5.
 Variable       Old X    -DE/DX   Delta X   Delta X   Delta X     New X
                                 (Linear)    (Quad)   (Total)
    R1        2.86706   0.00523   0.00943   0.08935   0.09877   2.96583
    R2        2.86706   0.00523   0.00943   0.08935   0.09877   2.96583
    R3        2.66783   0.00731   0.00446   0.06212   0.06485   2.73268
    R4        2.66783   0.00731   0.00446   0.06212   0.06485   2.73268
    A1        1.48261   0.00255  -0.00185   0.06159   0.05762   1.54023
    A2        1.48261   0.00516  -0.00185   0.07095   0.05762   1.54023
    A3        1.48261   0.00255  -0.00185   0.06159   0.05762   1.54023
    A4        1.48261   0.00516  -0.00185   0.07095   0.05762   1.54023
    A5        2.39374   0.01518   0.00701   0.11713   0.12632   2.52007
    A6        2.96523   0.00510  -0.00370   0.12318   0.11523   3.08046
    A7        2.68705   0.01099  -0.01119   0.27331   0.26384   2.95089
    D1       -1.34352  -0.00450   0.00559  -0.13308  -0.13192  -1.47545
    D2        1.34352   0.00450  -0.00559   0.13308   0.13192   1.47545
         Item               Value     Threshold  Converged?
 Maximum Force            0.015178     0.000450     NO 
 RMS     Force            0.007047     0.000300     NO 
 Maximum Displacement     0.213261     0.001800     NO 
 RMS     Displacement     0.126264     0.001200     NO 
 Predicted change in Energy=-5.935268D-03
 GradGradGradGradGradGradGradGradGradGradGradGradGradGradGradGradGradGrad

                          Input orientation:                          
 ---------------------------------------------------------------------
 Center     Atomic      Atomic             Coordinates (Angstroms)
 Number     Number       Type             X           Y           Z
 ---------------------------------------------------------------------
      1         16           0        1.200435    0.011560    0.584952
      2          1           0        1.043569    0.011560   -0.976638
      3          1           0        1.043569    0.011560    2.146542
      4          1           0        0.758248    1.388365    0.584952
      5          1           0        0.758248   -1.365244    0.584952
 ---------------------------------------------------------------------
                    Distance matrix (angstroms):
                    1          2          3          4          5
     1  S    0.000000
     2  H    1.569449   0.000000
     3  H    1.569449   3.123180   0.000000
     4  H    1.446070   2.101324   2.101324   0.000000
     5  H    1.446070   2.101324   2.101324   2.753609   0.000000
 Stoichiometry    H4S
 Framework group  C2V[C2(S),SGV(H2),SGV'(H2)]
 Deg. of freedom     4
 Full point group                 C2V     NOp   4
 Largest Abelian subgroup         C2V     NOp   4
 Largest concise Abelian subgroup C2V     NOp   4
                         Standard orientation:                         
 ---------------------------------------------------------------------
 Center     Atomic      Atomic             Coordinates (Angstroms)
 Number     Number       Type             X           Y           Z
 ---------------------------------------------------------------------
      1         16           0        0.000000    0.000000    0.059905
      2          1           0        0.000000    1.561590   -0.096960
      3          1           0       -0.000000   -1.561590   -0.096960
      4          1           0       -1.376804    0.000000   -0.382282
      5          1           0        1.376804   -0.000000   -0.382282
 ---------------------------------------------------------------------
 Rotational constants (GHZ):    119.6427345     95.0226244     57.8492495
 Standard basis: 3-21G (6D, 7F)
 There are    11 symmetry adapted basis functions of A1  symmetry.
 There are     0 symmetry adapted basis functions of A2  symmetry.
 There are     5 symmetry adapted basis functions of B1  symmetry.
 There are     5 symmetry adapted basis functions of B2  symmetry.
 Integral buffers will be    131072 words long.
 Raffenetti 1 integral format.
 Two-electron integral symmetry is turned on.
    21 basis functions,    39 primitive gaussians,    21 cartesian basis functions
    10 alpha electrons       10 beta electrons
       nuclear repulsion energy        23.8686249221 Hartrees.
 NAtoms=    5 NActive=    5 NUniq=    3 SFac= 2.78D+00 NAtFMM=   60 NAOKFM=F Big=F
 One-electron integrals computed using PRISM.
 NBasis=    21 RedAO= T  NBF=    11     0     5     5
 NBsUse=    21 1.00D-06 NBFU=    11     0     5     5
 Initial guess read from the read-write file.
 B after Tr=     0.000000    0.000000    0.000000
         Rot=    1.000000    0.000000    0.000000    0.000000 Ang=   0.00 deg.
 Initial guess orbital symmetries:
       Occupied  (A1) (A1) (B1) (B2) (A1) (A1) (B1) (B2) (A1) (A1)
       Virtual   (A1) (B1) (B2) (A1) (B1) (A1) (B2) (A1) (B1) (B2)
                 (A1)
 Harris functional with IExCor=  205 diagonalized for initial guess.
 ExpMin= 1.42D-01 ExpMax= 1.21D+03 ExpMxC= 1.21D+03 IAcc=1 IRadAn=         1 AccDes= 0.00D+00
 HarFok:  IExCor=  205 AccDes= 0.00D+00 IRadAn=         1 IDoV= 1
 ScaDFX=  1.000000  1.000000  1.000000  1.000000
 FoFCou: FMM=F IPFlag=           0 FMFlag=      100000 FMFlg1=           0
         NFxFlg=           0 DoJE=T BraDBF=F KetDBF=T FulRan=T
         Omega=  0.000000  0.000000  1.000000  0.000000  0.000000 ICntrl=     500 IOpCl=  0
         NMat0=    1 NMatS0=    1 NMatT0=    0 NMatD0=    1 NMtDS0=    0 NMtDT0=    0
         I1Cent=           4 NGrid=           0.
 Petite list used in FoFCou.
 Requested convergence on RMS density matrix=1.00D-08 within 128 cycles.
 Requested convergence on MAX density matrix=1.00D-06.
 Requested convergence on             energy=1.00D-06.
 No special actions if energy rises.
 Keep R1 ints in memory in canonical form, NReq=846673.
 SCF Done:  E(RHF) =  -397.616686910     A.U. after   11 cycles
             Convg  =    0.1489D-08             -V/T =  2.0012
 ExpMin= 1.42D-01 ExpMax= 1.21D+03 ExpMxC= 1.21D+03 IAcc=3 IRadAn=         5 AccDes= 0.00D+00
 HarFok:  IExCor=  205 AccDes= 0.00D+00 IRadAn=         5 IDoV=-2
 ScaDFX=  1.000000  1.000000  1.000000  1.000000
 Range of M.O.s used for correlation:     6    21
 NBasis=    21 NAE=    10 NBE=    10 NFC=     5 NFV=     0
 NROrb=     16 NOA=     5 NOB=     5 NVA=    11 NVB=    11
 Fully direct method using O(ONN) memory.
 JobTyp=1 Pass  1:  I=   6 to  10 NPSUse=  1 ParTrn=F ParDer=F DoDerP=T.
 Spin components of T(2) and E(2):
     alpha-alpha T2 =       0.2497819382D-02 E2=     -0.5519242668D-02
     alpha-beta  T2 =       0.4753547467D-01 E2=     -0.8475226511D-01
     beta-beta   T2 =       0.2497819382D-02 E2=     -0.5519242668D-02
 ANorm=    0.1025929390D+01
 E2 =    -0.9579075045D-01 EUMP2 =    -0.39771247766052D+03
          IDoAtm=11111
          Differentiating once with respect to electric field.
                with respect to dipole field.
          Differentiating once with respect to nuclear coordinates.
          Keep R1 ints in memory in canonical form, NReq=827430.
          There are     1 degrees of freedom in the 1st order CPHF.  IDoFFX=0.
 LinEq1:  Iter=  0 NonCon=     1 RMS=5.21D-03 Max=2.91D-02
 AX will form     1 AO Fock derivatives at one time.
 LinEq1:  Iter=  1 NonCon=     1 RMS=8.30D-04 Max=4.50D-03
 LinEq1:  Iter=  2 NonCon=     1 RMS=2.40D-04 Max=1.10D-03
 LinEq1:  Iter=  3 NonCon=     1 RMS=4.04D-05 Max=2.51D-04
 LinEq1:  Iter=  4 NonCon=     1 RMS=4.22D-06 Max=2.39D-05
 LinEq1:  Iter=  5 NonCon=     1 RMS=8.35D-07 Max=5.16D-06
 LinEq1:  Iter=  6 NonCon=     1 RMS=8.74D-08 Max=4.52D-07
 LinEq1:  Iter=  7 NonCon=     1 RMS=6.10D-09 Max=2.36D-08
 LinEq1:  Iter=  8 NonCon=     1 RMS=2.52D-10 Max=1.19D-09
 LinEq1:  Iter=  9 NonCon=     0 RMS=2.65D-11 Max=1.21D-10
 Linear equations converged to 1.000D-10 1.000D-09 after     9 iterations.
 End of Minotr Frequency-dependent properties file   721 does not exist.
 End of Minotr Frequency-dependent properties file   722 does not exist.
 Calling FoFJK, ICntrl=      2127 FMM=F ISym2X=1 I1Cent= 0 IOpClX= 0 NMat=1 NMatS=1 NMatT=0.
 ***** Axes restored to original set *****
 -------------------------------------------------------------------
 Center     Atomic                   Forces (Hartrees/Bohr)
 Number     Number              X              Y              Z
 -------------------------------------------------------------------
      1       16           0.002733716    0.000000000    0.000000000
      2        1          -0.006167915   -0.000000000    0.009715511
      3        1          -0.006167915   -0.000000000   -0.009715511
      4        1           0.004801057   -0.006562977    0.000000000
      5        1           0.004801057    0.006562977   -0.000000000
 -------------------------------------------------------------------
 Cartesian Forces:  Max     0.009715511 RMS     0.005193506

 GradGradGradGradGradGradGradGradGradGradGradGradGradGradGradGradGradGrad
 Berny optimization.
 Using GEDIIS/GDIIS optimizer.
 Internal  Forces:  Max     0.013523954 RMS     0.006916436
 Search for a local minimum.
 Step number   4 out of a maximum of   23
 All quantities printed in internal units (Hartrees-Bohrs-Radians)
 Mixed Optimization -- RFO/linear search
 Update second derivatives using D2CorX and points    3    4
 DE= -2.07D-04 DEPred=-5.94D-03 R= 3.49D-02
 Trust test= 3.49D-02 RLast= 4.18D-01 DXMaxT set to 2.52D-01
 The second derivative matrix:
                          R1        R2        R3        R4        A1
           R1           0.25142
           R2          -0.03834   0.25142
           R3          -0.01727  -0.01727   0.28313
           R4          -0.01727  -0.01727  -0.00663   0.28313
           A1           0.00129   0.00129  -0.00433  -0.00433   0.13681
           A2           0.00121   0.00121  -0.00299  -0.00299  -0.02179
           A3           0.00129   0.00129  -0.00433  -0.00433  -0.02319
           A4           0.00121   0.00121  -0.00299  -0.00299  -0.02179
           A5          -0.01859  -0.01859  -0.01242  -0.01242  -0.01291
           A6          -0.00244  -0.00244   0.00142   0.00142   0.00114
           A7          -0.00557  -0.00557   0.00723   0.00723   0.00481
           D1           0.00270   0.00270  -0.00322  -0.00322  -0.00184
           D2          -0.00270  -0.00270   0.00322   0.00322   0.00184
                          A2        A3        A4        A5        A6
           A2           0.14041
           A3          -0.02179   0.13681
           A4          -0.01959  -0.02179   0.14041
           A5          -0.01273  -0.01291  -0.01273   0.14240
           A6           0.00328   0.00114   0.00328  -0.00211   0.01459
           A7           0.01112   0.00481   0.01112  -0.00338   0.01657
           D1          -0.00469  -0.00184  -0.00469   0.00168  -0.00747
           D2           0.00469   0.00184   0.00469  -0.00168   0.00747
                          A7        D1        D2
           A7           0.05856
           D1          -0.02241   0.01910
           D2           0.02241  -0.01013   0.01910
 ITU= -1  0  1  0
 Use linear search instead of GDIIS.
     Eigenvalues ---    0.03435   0.07586   0.09305   0.12636   0.16000
     Eigenvalues ---    0.21075   0.28975   0.28975   0.29277
 RFO step:  Lambda=-8.99485213D-04 EMin= 3.43485639D-02
 Quartic linear search produced a step of -0.50407.
 Iteration  1 RMS(Cart)=  0.08257177 RMS(Int)=  0.00515287
 Iteration  2 RMS(Cart)=  0.00415209 RMS(Int)=  0.00321721
 Iteration  3 RMS(Cart)=  0.00001341 RMS(Int)=  0.00321720
 Iteration  4 RMS(Cart)=  0.00000007 RMS(Int)=  0.00321720
 ClnCor:  largest displacement from symmetrization is 5.38D-03 for atom     5.
 Variable       Old X    -DE/DX   Delta X   Delta X   Delta X     New X
                                 (Linear)    (Quad)   (Total)
    R1        2.96583  -0.00905  -0.04979  -0.00467  -0.05447   2.91136
    R2        2.96583  -0.00905  -0.04979  -0.00467  -0.05447   2.91136
    R3        2.73268  -0.00772  -0.03269   0.00195  -0.03339   2.69929
    R4        2.73268  -0.00772  -0.03269   0.00195  -0.03339   2.69929
    A1        1.54023  -0.00144  -0.02904   0.00090  -0.02374   1.51649
    A2        1.54023  -0.00208  -0.02904   0.00103  -0.02374   1.51649
    A3        1.54023  -0.00144  -0.02904   0.00090  -0.02374   1.51649
    A4        1.54023  -0.00208  -0.02904   0.00103  -0.02374   1.51649
    A5        2.52007   0.00700  -0.06368   0.07593   0.00942   2.52949
    A6        3.08046  -0.00287  -0.05808   0.00180  -0.04747   3.03299
    A7        2.95089  -0.01352  -0.13300  -0.01888  -0.15507   2.79582
    D1       -1.47545   0.00656   0.06650   0.00948   0.07753  -1.39791
    D2        1.47545  -0.00656  -0.06650  -0.00948  -0.07753   1.39791
         Item               Value     Threshold  Converged?
 Maximum Force            0.013524     0.000450     NO 
 RMS     Force            0.006916     0.000300     NO 
 Maximum Displacement     0.145607     0.001800     NO 
 RMS     Displacement     0.082239     0.001200     NO 
 Predicted change in Energy=-2.296109D-03
 GradGradGradGradGradGradGradGradGradGradGradGradGradGradGradGradGradGrad

                          Input orientation:                          
 ---------------------------------------------------------------------
 Center     Atomic      Atomic             Coordinates (Angstroms)
 Number     Number       Type             X           Y           Z
 ---------------------------------------------------------------------
      1         16           0        1.244050    0.011560    0.584952
      2          1           0        0.966517    0.011560   -0.930471
      3          1           0        0.966517    0.011560    2.100376
      4          1           0        0.813677    1.373585    0.584952
      5          1           0        0.813677   -1.350464    0.584952
 ---------------------------------------------------------------------
                    Distance matrix (angstroms):
                    1          2          3          4          5
     1  S    0.000000
     2  H    1.540627   0.000000
     3  H    1.540627   3.030847   0.000000
     4  H    1.428401   2.043276   2.043276   0.000000
     5  H    1.428401   2.043276   2.043276   2.724048   0.000000
 Stoichiometry    H4S
 Framework group  C2V[C2(S),SGV(H2),SGV'(H2)]
 Deg. of freedom     4
 Full point group                 C2V     NOp   4
 Largest Abelian subgroup         C2V     NOp   4
 Largest concise Abelian subgroup C2V     NOp   4
                         Standard orientation:                         
 ---------------------------------------------------------------------
 Center     Atomic      Atomic             Coordinates (Angstroms)
 Number     Number       Type             X           Y           Z
 ---------------------------------------------------------------------
      1         16           0        0.000000   -0.000000    0.070791
      2          1           0        0.000000    1.515423   -0.206742
      3          1           0       -0.000000   -1.515423   -0.206742
      4          1           0       -1.362024    0.000000   -0.359582
      5          1           0        1.362024   -0.000000   -0.359582
 ---------------------------------------------------------------------
 Rotational constants (GHZ):    120.0055618     99.0744870     60.3927364
 Standard basis: 3-21G (6D, 7F)
 There are    11 symmetry adapted basis functions of A1  symmetry.
 There are     0 symmetry adapted basis functions of A2  symmetry.
 There are     5 symmetry adapted basis functions of B1  symmetry.
 There are     5 symmetry adapted basis functions of B2  symmetry.
 Integral buffers will be    131072 words long.
 Raffenetti 1 integral format.
 Two-electron integral symmetry is turned on.
    21 basis functions,    39 primitive gaussians,    21 cartesian basis functions
    10 alpha electrons       10 beta electrons
       nuclear repulsion energy        24.2511902807 Hartrees.
 NAtoms=    5 NActive=    5 NUniq=    3 SFac= 2.78D+00 NAtFMM=   60 NAOKFM=F Big=F
 One-electron integrals computed using PRISM.
 NBasis=    21 RedAO= T  NBF=    11     0     5     5
 NBsUse=    21 1.00D-06 NBFU=    11     0     5     5
 Initial guess read from the read-write file.
 B after Tr=     0.000000    0.000000    0.000000
         Rot=    1.000000    0.000000    0.000000    0.000000 Ang=   0.00 deg.
 Initial guess orbital symmetries:
       Occupied  (A1) (A1) (B1) (B2) (A1) (A1) (B1) (B2) (A1) (A1)
       Virtual   (A1) (B1) (B2) (A1) (B1) (A1) (B2) (A1) (B1) (B2)
                 (A1)
 Harris functional with IExCor=  205 diagonalized for initial guess.
 ExpMin= 1.42D-01 ExpMax= 1.21D+03 ExpMxC= 1.21D+03 IAcc=1 IRadAn=         1 AccDes= 0.00D+00
 HarFok:  IExCor=  205 AccDes= 0.00D+00 IRadAn=         1 IDoV= 1
 ScaDFX=  1.000000  1.000000  1.000000  1.000000
 FoFCou: FMM=F IPFlag=           0 FMFlag=      100000 FMFlg1=           0
         NFxFlg=           0 DoJE=T BraDBF=F KetDBF=T FulRan=T
         Omega=  0.000000  0.000000  1.000000  0.000000  0.000000 ICntrl=     500 IOpCl=  0
         NMat0=    1 NMatS0=    1 NMatT0=    0 NMatD0=    1 NMtDS0=    0 NMtDT0=    0
         I1Cent=           4 NGrid=           0.
 Petite list used in FoFCou.
 Requested convergence on RMS density matrix=1.00D-08 within 128 cycles.
 Requested convergence on MAX density matrix=1.00D-06.
 Requested convergence on             energy=1.00D-06.
 No special actions if energy rises.
 Keep R1 ints in memory in canonical form, NReq=846673.
 SCF Done:  E(RHF) =  -397.620581178     A.U. after   10 cycles
             Convg  =    0.9715D-09             -V/T =  2.0010
 ExpMin= 1.42D-01 ExpMax= 1.21D+03 ExpMxC= 1.21D+03 IAcc=3 IRadAn=         5 AccDes= 0.00D+00
 HarFok:  IExCor=  205 AccDes= 0.00D+00 IRadAn=         5 IDoV=-2
 ScaDFX=  1.000000  1.000000  1.000000  1.000000
 Range of M.O.s used for correlation:     6    21
 NBasis=    21 NAE=    10 NBE=    10 NFC=     5 NFV=     0
 NROrb=     16 NOA=     5 NOB=     5 NVA=    11 NVB=    11
 Fully direct method using O(ONN) memory.
 JobTyp=1 Pass  1:  I=   6 to  10 NPSUse=  1 ParTrn=F ParDer=F DoDerP=T.
 Spin components of T(2) and E(2):
     alpha-alpha T2 =       0.2470889844D-02 E2=     -0.5515137489D-02
     alpha-beta  T2 =       0.4549459033D-01 E2=     -0.8359604892D-01
     beta-beta   T2 =       0.2470889844D-02 E2=     -0.5515137489D-02
 ANorm=    0.1024907981D+01
 E2 =    -0.9462632390D-01 EUMP2 =    -0.39771520750191D+03
          IDoAtm=11111
          Differentiating once with respect to electric field.
                with respect to dipole field.
          Differentiating once with respect to nuclear coordinates.
          Keep R1 ints in memory in canonical form, NReq=827430.
          There are     1 degrees of freedom in the 1st order CPHF.  IDoFFX=0.
 LinEq1:  Iter=  0 NonCon=     1 RMS=4.62D-03 Max=2.76D-02
 AX will form     1 AO Fock derivatives at one time.
 LinEq1:  Iter=  1 NonCon=     1 RMS=7.50D-04 Max=4.60D-03
 LinEq1:  Iter=  2 NonCon=     1 RMS=2.13D-04 Max=1.01D-03
 LinEq1:  Iter=  3 NonCon=     1 RMS=3.38D-05 Max=2.10D-04
 LinEq1:  Iter=  4 NonCon=     1 RMS=2.54D-06 Max=1.12D-05
 LinEq1:  Iter=  5 NonCon=     1 RMS=4.27D-07 Max=2.38D-06
 LinEq1:  Iter=  6 NonCon=     1 RMS=5.91D-08 Max=4.76D-07
 LinEq1:  Iter=  7 NonCon=     1 RMS=6.16D-09 Max=2.72D-08
 LinEq1:  Iter=  8 NonCon=     1 RMS=2.42D-10 Max=1.01D-09
 LinEq1:  Iter=  9 NonCon=     0 RMS=2.59D-11 Max=1.27D-10
 Linear equations converged to 1.000D-10 1.000D-09 after     9 iterations.
 End of Minotr Frequency-dependent properties file   721 does not exist.
 End of Minotr Frequency-dependent properties file   722 does not exist.
 Calling FoFJK, ICntrl=      2127 FMM=F ISym2X=1 I1Cent= 0 IOpClX= 0 NMat=1 NMatS=1 NMatT=0.
 ***** Axes restored to original set *****
 -------------------------------------------------------------------
 Center     Atomic                   Forces (Hartrees/Bohr)
 Number     Number              X              Y              Z
 -------------------------------------------------------------------
      1       16          -0.005982784    0.000000000    0.000000000
      2        1           0.000914567   -0.000000000    0.004581615
      3        1           0.000914567   -0.000000000   -0.004581615
      4        1           0.002076825    0.001760648    0.000000000
      5        1           0.002076825   -0.001760648   -0.000000000
 -------------------------------------------------------------------
 Cartesian Forces:  Max     0.005982784 RMS     0.002506992

 GradGradGradGradGradGradGradGradGradGradGradGradGradGradGradGradGradGrad
 Berny optimization.
 Using GEDIIS/GDIIS optimizer.
 Internal  Forces:  Max     0.006463885 RMS     0.002626624
 Search for a local minimum.
 Step number   5 out of a maximum of   23
 All quantities printed in internal units (Hartrees-Bohrs-Radians)
 Mixed Optimization -- RFO/linear search
 Update second derivatives using D2CorX and points    3    4    5
 DE= -2.73D-03 DEPred=-2.30D-03 R= 1.19D+00
 SS=  1.41D+00  RLast= 2.21D-01 DXNew= 4.2426D-01 6.6291D-01
 Trust test= 1.19D+00 RLast= 2.21D-01 DXMaxT set to 4.24D-01
 The second derivative matrix:
                          R1        R2        R3        R4        A1
           R1           0.23893
           R2          -0.05082   0.23893
           R3          -0.02392  -0.02392   0.28566
           R4          -0.02392  -0.02392  -0.00409   0.28566
           A1          -0.00204  -0.00204  -0.00532  -0.00532   0.13602
           A2          -0.00383  -0.00383  -0.00466  -0.00466  -0.02300
           A3          -0.00204  -0.00204  -0.00532  -0.00532  -0.02398
           A4          -0.00383  -0.00383  -0.00466  -0.00466  -0.02300
           A5           0.00314   0.00314  -0.00755  -0.00755  -0.00782
           A6          -0.00651  -0.00651   0.00065   0.00065   0.00024
           A7          -0.01622  -0.01622   0.01009   0.01009   0.00307
           D1           0.00733   0.00733  -0.00504  -0.00504  -0.00116
           D2          -0.00733  -0.00733   0.00504   0.00504   0.00116
                          A2        A3        A4        A5        A6
           A2           0.13855
           A3          -0.02300   0.13602
           A4          -0.02145  -0.02300   0.13855
           A5          -0.00514  -0.00782  -0.00514   0.10411
           A6           0.00188   0.00024   0.00188   0.00311   0.01358
           A7           0.00825   0.00307   0.00825   0.00536   0.01505
           D1          -0.00354  -0.00116  -0.00354  -0.00154  -0.00694
           D2           0.00354   0.00116   0.00354   0.00154   0.00694
                          A7        D1        D2
           A7           0.06144
           D1          -0.02447   0.02040
           D2           0.02447  -0.01143   0.02040
 ITU=  1 -1  0  1  0
 Use linear search instead of GDIIS.
     Eigenvalues ---    0.03318   0.07462   0.08333   0.10462   0.16000
     Eigenvalues ---    0.17401   0.28975   0.28975   0.30536
 RFO step:  Lambda=-6.66010739D-04 EMin= 3.31789600D-02
 Quartic linear search produced a step of  0.10228.
 Iteration  1 RMS(Cart)=  0.03333882 RMS(Int)=  0.00064231
 Iteration  2 RMS(Cart)=  0.00061700 RMS(Int)=  0.00016936
 Iteration  3 RMS(Cart)=  0.00000005 RMS(Int)=  0.00016936
 ClnCor:  largest displacement from symmetrization is 1.02D-03 for atom     5.
 Variable       Old X    -DE/DX   Delta X   Delta X   Delta X     New X
                                 (Linear)    (Quad)   (Total)
    R1        2.91136  -0.00467  -0.00557  -0.02112  -0.02669   2.88468
    R2        2.91136  -0.00467  -0.00557  -0.02112  -0.02669   2.88468
    R3        2.69929   0.00105  -0.00342   0.00552   0.00161   2.70090
    R4        2.69929   0.00105  -0.00342   0.00552   0.00161   2.70090
    A1        1.51649   0.00029  -0.00243   0.00618   0.00429   1.52078
    A2        1.51649   0.00084  -0.00243   0.00680   0.00429   1.52078
    A3        1.51649   0.00029  -0.00243   0.00618   0.00429   1.52078
    A4        1.51649   0.00084  -0.00243   0.00680   0.00429   1.52078
    A5        2.52949   0.00646   0.00096   0.06732   0.06805   2.59754
    A6        3.03299   0.00059  -0.00486   0.01237   0.00858   3.04157
    A7        2.79582  -0.00009  -0.01586   0.00111  -0.01508   2.78074
    D1       -1.39791   0.00022   0.00793  -0.00036   0.00754  -1.39037
    D2        1.39791  -0.00022  -0.00793   0.00036  -0.00754   1.39037
         Item               Value     Threshold  Converged?
 Maximum Force            0.006464     0.000450     NO 
 RMS     Force            0.002627     0.000300     NO 
 Maximum Displacement     0.057470     0.001800     NO 
 RMS     Displacement     0.033259     0.001200     NO 
 Predicted change in Energy=-3.597500D-04
 GradGradGradGradGradGradGradGradGradGradGradGradGradGradGradGradGradGrad

                          Input orientation:                          
 ---------------------------------------------------------------------
 Center     Atomic      Atomic             Coordinates (Angstroms)
 Number     Number       Type             X           Y           Z
 ---------------------------------------------------------------------
      1         16           0        1.228107    0.011560    0.584952
      2          1           0        0.944078    0.011560   -0.914896
      3          1           0        0.944078    0.011560    2.084800
      4          1           0        0.844089    1.388258    0.584952
      5          1           0        0.844089   -1.365137    0.584952
 ---------------------------------------------------------------------
                    Distance matrix (angstroms):
                    1          2          3          4          5
     1  S    0.000000
     2  H    1.526505   0.000000
     3  H    1.526505   2.999696   0.000000
     4  H    1.429253   2.038342   2.038342   0.000000
     5  H    1.429253   2.038342   2.038342   2.753395   0.000000
 Stoichiometry    H4S
 Framework group  C2V[C2(S),SGV(H2),SGV'(H2)]
 Deg. of freedom     4
 Full point group                 C2V     NOp   4
 Largest Abelian subgroup         C2V     NOp   4
 Largest concise Abelian subgroup C2V     NOp   4
                         Standard orientation:                         
 ---------------------------------------------------------------------
 Center     Atomic      Atomic             Coordinates (Angstroms)
 Number     Number       Type             X           Y           Z
 ---------------------------------------------------------------------
      1         16           0        0.000000    0.000000    0.066805
      2          1           0        0.000000    1.499848   -0.217224
      3          1           0       -0.000000   -1.499848   -0.217224
      4          1           0       -1.376697    0.000000   -0.317213
      5          1           0        1.376697   -0.000000   -0.317213
 ---------------------------------------------------------------------
 Rotational constants (GHZ):    119.4821198    102.2250444     60.4914892
 Standard basis: 3-21G (6D, 7F)
 There are    11 symmetry adapted basis functions of A1  symmetry.
 There are     0 symmetry adapted basis functions of A2  symmetry.
 There are     5 symmetry adapted basis functions of B1  symmetry.
 There are     5 symmetry adapted basis functions of B2  symmetry.
 Integral buffers will be    131072 words long.
 Raffenetti 1 integral format.
 Two-electron integral symmetry is turned on.
    21 basis functions,    39 primitive gaussians,    21 cartesian basis functions
    10 alpha electrons       10 beta electrons
       nuclear repulsion energy        24.3480602101 Hartrees.
 NAtoms=    5 NActive=    5 NUniq=    3 SFac= 2.78D+00 NAtFMM=   60 NAOKFM=F Big=F
 One-electron integrals computed using PRISM.
 NBasis=    21 RedAO= T  NBF=    11     0     5     5
 NBsUse=    21 1.00D-06 NBFU=    11     0     5     5
 Initial guess read from the read-write file.
 B after Tr=     0.000000    0.000000    0.000000
         Rot=    1.000000    0.000000    0.000000    0.000000 Ang=   0.00 deg.
 Initial guess orbital symmetries:
       Occupied  (A1) (A1) (B1) (B2) (A1) (A1) (B1) (B2) (A1) (A1)
       Virtual   (A1) (B2) (B1) (A1) (B1) (A1) (B2) (A1) (B1) (B2)
                 (A1)
 Harris functional with IExCor=  205 diagonalized for initial guess.
 ExpMin= 1.42D-01 ExpMax= 1.21D+03 ExpMxC= 1.21D+03 IAcc=1 IRadAn=         1 AccDes= 0.00D+00
 HarFok:  IExCor=  205 AccDes= 0.00D+00 IRadAn=         1 IDoV= 1
 ScaDFX=  1.000000  1.000000  1.000000  1.000000
 FoFCou: FMM=F IPFlag=           0 FMFlag=      100000 FMFlg1=           0
         NFxFlg=           0 DoJE=T BraDBF=F KetDBF=T FulRan=T
         Omega=  0.000000  0.000000  1.000000  0.000000  0.000000 ICntrl=     500 IOpCl=  0
         NMat0=    1 NMatS0=    1 NMatT0=    0 NMatD0=    1 NMtDS0=    0 NMtDT0=    0
         I1Cent=           4 NGrid=           0.
 Petite list used in FoFCou.
 Requested convergence on RMS density matrix=1.00D-08 within 128 cycles.
 Requested convergence on MAX density matrix=1.00D-06.
 Requested convergence on             energy=1.00D-06.
 No special actions if energy rises.
 Keep R1 ints in memory in canonical form, NReq=846673.
 SCF Done:  E(RHF) =  -397.621474658     A.U. after    9 cycles
             Convg  =    0.3542D-08             -V/T =  2.0009
 ExpMin= 1.42D-01 ExpMax= 1.21D+03 ExpMxC= 1.21D+03 IAcc=3 IRadAn=         5 AccDes= 0.00D+00
 HarFok:  IExCor=  205 AccDes= 0.00D+00 IRadAn=         5 IDoV=-2
 ScaDFX=  1.000000  1.000000  1.000000  1.000000
 Range of M.O.s used for correlation:     6    21
 NBasis=    21 NAE=    10 NBE=    10 NFC=     5 NFV=     0
 NROrb=     16 NOA=     5 NOB=     5 NVA=    11 NVB=    11
 Fully direct method using O(ONN) memory.
 JobTyp=1 Pass  1:  I=   6 to  10 NPSUse=  1 ParTrn=F ParDer=F DoDerP=T.
 Spin components of T(2) and E(2):
     alpha-alpha T2 =       0.2468047692D-02 E2=     -0.5523139782D-02
     alpha-beta  T2 =       0.4515284376D-01 E2=     -0.8335270084D-01
     beta-beta   T2 =       0.2468047692D-02 E2=     -0.5523139782D-02
 ANorm=    0.1024738474D+01
 E2 =    -0.9439898040D-01 EUMP2 =    -0.39771587363867D+03
          IDoAtm=11111
          Differentiating once with respect to electric field.
                with respect to dipole field.
          Differentiating once with respect to nuclear coordinates.
          Keep R1 ints in memory in canonical form, NReq=827430.
          There are     1 degrees of freedom in the 1st order CPHF.  IDoFFX=0.
 LinEq1:  Iter=  0 NonCon=     1 RMS=4.35D-03 Max=2.74D-02
 AX will form     1 AO Fock derivatives at one time.
 LinEq1:  Iter=  1 NonCon=     1 RMS=6.89D-04 Max=4.54D-03
 LinEq1:  Iter=  2 NonCon=     1 RMS=1.95D-04 Max=9.17D-04
 LinEq1:  Iter=  3 NonCon=     1 RMS=2.98D-05 Max=1.83D-04
 LinEq1:  Iter=  4 NonCon=     1 RMS=2.18D-06 Max=8.96D-06
 LinEq1:  Iter=  5 NonCon=     1 RMS=2.87D-07 Max=1.18D-06
 LinEq1:  Iter=  6 NonCon=     1 RMS=2.00D-08 Max=1.00D-07
 LinEq1:  Iter=  7 NonCon=     1 RMS=2.08D-09 Max=1.53D-08
 LinEq1:  Iter=  8 NonCon=     1 RMS=1.83D-10 Max=8.96D-10
 LinEq1:  Iter=  9 NonCon=     0 RMS=2.01D-11 Max=1.16D-10
 Linear equations converged to 1.000D-10 1.000D-09 after     9 iterations.
 End of Minotr Frequency-dependent properties file   721 does not exist.
 End of Minotr Frequency-dependent properties file   722 does not exist.
 Calling FoFJK, ICntrl=      2127 FMM=F ISym2X=1 I1Cent= 0 IOpClX= 0 NMat=1 NMatS=1 NMatT=0.
 ***** Axes restored to original set *****
 -------------------------------------------------------------------
 Center     Atomic                   Forces (Hartrees/Bohr)
 Number     Number              X              Y              Z
 -------------------------------------------------------------------
      1       16          -0.005323219   -0.000000000    0.000000000
      2        1           0.001586935   -0.000000000    0.004632780
      3        1           0.001586935   -0.000000000   -0.004632780
      4        1           0.001074675    0.003471916    0.000000000
      5        1           0.001074675   -0.003471916   -0.000000000
 -------------------------------------------------------------------
 Cartesian Forces:  Max     0.005323219 RMS     0.002616829

 GradGradGradGradGradGradGradGradGradGradGradGradGradGradGradGradGradGrad
 Berny optimization.
 Using GEDIIS/GDIIS optimizer.
 Internal  Forces:  Max     0.005039967 RMS     0.002703500
 Search for a local minimum.
 Step number   6 out of a maximum of   23
 All quantities printed in internal units (Hartrees-Bohrs-Radians)
 Mixed Optimization -- RFO/linear search
 Update second derivatives using D2CorX and points    3    4    5    6
 DE= -6.66D-04 DEPred=-3.60D-04 R= 1.85D+00
 SS=  1.41D+00  RLast= 8.09D-02 DXNew= 7.1352D-01 2.4277D-01
 Trust test= 1.85D+00 RLast= 8.09D-02 DXMaxT set to 4.24D-01
 The second derivative matrix:
                          R1        R2        R3        R4        A1
           R1           0.21567
           R2          -0.07409   0.21567
           R3          -0.02805  -0.02805   0.32953
           R4          -0.02805  -0.02805   0.03977   0.32953
           A1          -0.00279  -0.00279  -0.00335  -0.00335   0.13614
           A2          -0.00227  -0.00227  -0.00313  -0.00313  -0.02268
           A3          -0.00279  -0.00279  -0.00335  -0.00335  -0.02386
           A4          -0.00227  -0.00227  -0.00313  -0.00313  -0.02268
           A5           0.05266   0.05266  -0.04700  -0.04700  -0.00593
           A6          -0.00363  -0.00363   0.00391   0.00391   0.00072
           A7          -0.02338  -0.02338   0.03828   0.03828   0.00438
           D1           0.01213   0.01213  -0.01968  -0.01968  -0.00174
           D2          -0.01213  -0.01213   0.01968   0.01968   0.00174
                          A2        A3        A4        A5        A6
           A2           0.13915
           A3          -0.02268   0.13614
           A4          -0.02085  -0.02268   0.13915
           A5          -0.00408  -0.00593  -0.00408   0.05982
           A6           0.00250   0.00072   0.00250  -0.00143   0.01412
           A7           0.00960   0.00438   0.00960  -0.01757   0.01752
           D1          -0.00410  -0.00174  -0.00410   0.00984  -0.00814
           D2           0.00410   0.00174   0.00410  -0.00984   0.00814
                          A7        D1        D2
           A7           0.07768
           D1          -0.03274   0.02464
           D2           0.03274  -0.01566   0.02464
 ITU=  1  1 -1  0  1  0
 Use linear search instead of GDIIS.
     Eigenvalues ---    0.01174   0.02856   0.07885   0.09589   0.16000
     Eigenvalues ---    0.16069   0.28975   0.28975   0.42266
 RFO step:  Lambda=-5.77152875D-04 EMin= 1.17444124D-02
 Quartic linear search produced a step of  2.00000.
 Iteration  1 RMS(Cart)=  0.09200518 RMS(Int)=  0.00928364
 Iteration  2 RMS(Cart)=  0.01260955 RMS(Int)=  0.00057124
 Iteration  3 RMS(Cart)=  0.00011745 RMS(Int)=  0.00056125
 Iteration  4 RMS(Cart)=  0.00000005 RMS(Int)=  0.00056125
 ClnCor:  largest displacement from symmetrization is 6.09D-03 for atom     5.
 Variable       Old X    -DE/DX   Delta X   Delta X   Delta X     New X
                                 (Linear)    (Quad)   (Total)
    R1        2.88468  -0.00485  -0.05337  -0.04505  -0.09844   2.78624
    R2        2.88468  -0.00485  -0.05337  -0.04505  -0.09844   2.78624
    R3        2.70090   0.00306   0.00322   0.02120   0.02145   2.72235
    R4        2.70090   0.00306   0.00322   0.02120   0.02145   2.72235
    A1        1.52078   0.00036   0.00858   0.00810   0.01968   1.54047
    A2        1.52078   0.00088   0.00858   0.01265   0.01968   1.54047
    A3        1.52078   0.00036   0.00858   0.00810   0.01968   1.54047
    A4        1.52078   0.00088   0.00858   0.01265   0.01968   1.54047
    A5        2.59754   0.00504   0.13610   0.08825   0.22343   2.82096
    A6        3.04157   0.00072   0.01716   0.01619   0.03937   3.08093
    A7        2.78074   0.00113  -0.03016   0.01485  -0.01665   2.76409
    D1       -1.39037  -0.00042   0.01508  -0.00618   0.00832  -1.38205
    D2        1.39037   0.00042  -0.01508   0.00618  -0.00832   1.38205
         Item               Value     Threshold  Converged?
 Maximum Force            0.005040     0.000450     NO 
 RMS     Force            0.002704     0.000300     NO 
 Maximum Displacement     0.171640     0.001800     NO 
 RMS     Displacement     0.100991     0.001200     NO 
 Predicted change in Energy=-1.788403D-03
 GradGradGradGradGradGradGradGradGradGradGradGradGradGradGradGradGradGrad

                          Input orientation:                          
 ---------------------------------------------------------------------
 Center     Atomic      Atomic             Coordinates (Angstroms)
 Number     Number       Type             X           Y           Z
 ---------------------------------------------------------------------
      1         16           0        1.164879    0.011560    0.584952
      2          1           0        0.884770    0.011560   -0.862609
      3          1           0        0.884770    0.011560    2.032513
      4          1           0        0.934917    1.433693    0.584952
      5          1           0        0.934917   -1.410572    0.584952
 ---------------------------------------------------------------------
                    Distance matrix (angstroms):
                    1          2          3          4          5
     1  S    0.000000
     2  H    1.474413   0.000000
     3  H    1.474413   2.895122   0.000000
     4  H    1.440605   2.029879   2.029879   0.000000
     5  H    1.440605   2.029879   2.029879   2.844264   0.000000
 Stoichiometry    H4S
 Framework group  C2V[C2(S),SGV(H2),SGV'(H2)]
 Deg. of freedom     4
 Full point group                 C2V     NOp   4
 Largest Abelian subgroup         C2V     NOp   4
 Largest concise Abelian subgroup C2V     NOp   4
                         Standard orientation:                         
 ---------------------------------------------------------------------
 Center     Atomic      Atomic             Coordinates (Angstroms)
 Number     Number       Type             X           Y           Z
 ---------------------------------------------------------------------
      1         16           0        0.000000   -0.000000    0.051007
      2          1           0        0.000000    1.447561   -0.229102
      3          1           0       -0.000000   -1.447561   -0.229102
      4          1           0       -1.422132    0.000000   -0.178955
      5          1           0        1.422132   -0.000000   -0.178955
 ---------------------------------------------------------------------
 Rotational constants (GHZ):    117.2041724    113.3380370     60.8873492
 Standard basis: 3-21G (6D, 7F)
 There are    11 symmetry adapted basis functions of A1  symmetry.
 There are     0 symmetry adapted basis functions of A2  symmetry.
 There are     5 symmetry adapted basis functions of B1  symmetry.
 There are     5 symmetry adapted basis functions of B2  symmetry.
 Integral buffers will be    131072 words long.
 Raffenetti 1 integral format.
 Two-electron integral symmetry is turned on.
    21 basis functions,    39 primitive gaussians,    21 cartesian basis functions
    10 alpha electrons       10 beta electrons
       nuclear repulsion energy        24.6511916223 Hartrees.



 Warning!  S  atom    1 may be hypervalent but has no d functions.



 NAtoms=    5 NActive=    5 NUniq=    3 SFac= 2.78D+00 NAtFMM=   60 NAOKFM=F Big=F
 One-electron integrals computed using PRISM.
 NBasis=    21 RedAO= T  NBF=    11     0     5     5
 NBsUse=    21 1.00D-06 NBFU=    11     0     5     5
 Initial guess read from the read-write file.
 B after Tr=     0.000000    0.000000    0.000000
         Rot=    1.000000    0.000000    0.000000    0.000000 Ang=   0.00 deg.
 Initial guess orbital symmetries:
       Occupied  (A1) (A1) (B1) (B2) (A1) (A1) (B1) (B2) (A1) (A1)
       Virtual   (A1) (B2) (B1) (A1) (B1) (A1) (B2) (A1) (B1) (B2)
                 (A1)
 Harris functional with IExCor=  205 diagonalized for initial guess.
 ExpMin= 1.42D-01 ExpMax= 1.21D+03 ExpMxC= 1.21D+03 IAcc=1 IRadAn=         1 AccDes= 0.00D+00
 HarFok:  IExCor=  205 AccDes= 0.00D+00 IRadAn=         1 IDoV= 1
 ScaDFX=  1.000000  1.000000  1.000000  1.000000
 FoFCou: FMM=F IPFlag=           0 FMFlag=      100000 FMFlg1=           0
         NFxFlg=           0 DoJE=T BraDBF=F KetDBF=T FulRan=T
         Omega=  0.000000  0.000000  1.000000  0.000000  0.000000 ICntrl=     500 IOpCl=  0
         NMat0=    1 NMatS0=    1 NMatT0=    0 NMatD0=    1 NMtDS0=    0 NMtDT0=    0
         I1Cent=           4 NGrid=           0.
 Petite list used in FoFCou.
 Requested convergence on RMS density matrix=1.00D-08 within 128 cycles.
 Requested convergence on MAX density matrix=1.00D-06.
 Requested convergence on             energy=1.00D-06.
 No special actions if energy rises.
 Keep R1 ints in memory in canonical form, NReq=846673.
 SCF Done:  E(RHF) =  -397.623657833     A.U. after   10 cycles
             Convg  =    0.1480D-08             -V/T =  2.0008
 ExpMin= 1.42D-01 ExpMax= 1.21D+03 ExpMxC= 1.21D+03 IAcc=3 IRadAn=         5 AccDes= 0.00D+00
 HarFok:  IExCor=  205 AccDes= 0.00D+00 IRadAn=         5 IDoV=-2
 ScaDFX=  1.000000  1.000000  1.000000  1.000000
 Range of M.O.s used for correlation:     6    21
 NBasis=    21 NAE=    10 NBE=    10 NFC=     5 NFV=     0
 NROrb=     16 NOA=     5 NOB=     5 NVA=    11 NVB=    11
 Fully direct method using O(ONN) memory.
 JobTyp=1 Pass  1:  I=   6 to  10 NPSUse=  1 ParTrn=F ParDer=F DoDerP=T.
 Spin components of T(2) and E(2):
     alpha-alpha T2 =       0.2425557643D-02 E2=     -0.5492255542D-02
     alpha-beta  T2 =       0.4400388843D-01 E2=     -0.8244142102D-01
     beta-beta   T2 =       0.2425557643D-02 E2=     -0.5492255542D-02
 ANorm=    0.1024136223D+01
 E2 =    -0.9342593211D-01 EUMP2 =    -0.39771708376507D+03
          IDoAtm=11111
          Differentiating once with respect to electric field.
                with respect to dipole field.
          Differentiating once with respect to nuclear coordinates.
          Keep R1 ints in memory in canonical form, NReq=827430.
          There are     1 degrees of freedom in the 1st order CPHF.  IDoFFX=0.
 LinEq1:  Iter=  0 NonCon=     1 RMS=3.69D-03 Max=2.62D-02
 AX will form     1 AO Fock derivatives at one time.
 LinEq1:  Iter=  1 NonCon=     1 RMS=5.19D-04 Max=4.30D-03
 LinEq1:  Iter=  2 NonCon=     1 RMS=1.35D-04 Max=7.18D-04
 LinEq1:  Iter=  3 NonCon=     1 RMS=1.63D-05 Max=1.04D-04
 LinEq1:  Iter=  4 NonCon=     1 RMS=2.07D-06 Max=1.18D-05
 LinEq1:  Iter=  5 NonCon=     1 RMS=2.89D-07 Max=1.12D-06
 LinEq1:  Iter=  6 NonCon=     1 RMS=2.13D-08 Max=1.31D-07
 LinEq1:  Iter=  7 NonCon=     1 RMS=3.11D-09 Max=1.74D-08
 LinEq1:  Iter=  8 NonCon=     1 RMS=1.55D-10 Max=7.42D-10
 LinEq1:  Iter=  9 NonCon=     0 RMS=1.04D-11 Max=6.12D-11
 Linear equations converged to 1.000D-10 1.000D-09 after     9 iterations.
 End of Minotr Frequency-dependent properties file   721 does not exist.
 End of Minotr Frequency-dependent properties file   722 does not exist.
 Calling FoFJK, ICntrl=      2127 FMM=F ISym2X=1 I1Cent= 0 IOpClX= 0 NMat=1 NMatS=1 NMatT=0.
 ***** Axes restored to original set *****
 -------------------------------------------------------------------
 Center     Atomic                   Forces (Hartrees/Bohr)
 Number     Number              X              Y              Z
 -------------------------------------------------------------------
      1       16          -0.000772937    0.000000000   -0.000000000
      2        1           0.002786083   -0.000000000    0.001325753
      3        1           0.002786083   -0.000000000   -0.001325753
      4        1          -0.002399614    0.005447668    0.000000000
      5        1          -0.002399614   -0.005447668   -0.000000000
 -------------------------------------------------------------------
 Cartesian Forces:  Max     0.005447668 RMS     0.002456388

 GradGradGradGradGradGradGradGradGradGradGradGradGradGradGradGradGradGrad
 Berny optimization.
 Using GEDIIS/GDIIS optimizer.
 Internal  Forces:  Max     0.005760861 RMS     0.003048863
 Search for a local minimum.
 Step number   7 out of a maximum of   23
 All quantities printed in internal units (Hartrees-Bohrs-Radians)
 Mixed Optimization -- RFO/linear search
 Update second derivatives using D2CorX and points    3    4    5    6    7
 DE= -1.21D-03 DEPred=-1.79D-03 R= 6.77D-01
 SS=  1.41D+00  RLast= 2.72D-01 DXNew= 7.1352D-01 8.1462D-01
 Trust test= 6.77D-01 RLast= 2.72D-01 DXMaxT set to 7.14D-01
 The second derivative matrix:
                          R1        R2        R3        R4        A1
           R1           0.21972
           R2          -0.07004   0.21972
           R3          -0.02033  -0.02033   0.30893
           R4          -0.02033  -0.02033   0.01918   0.30893
           A1          -0.00080  -0.00080  -0.00528  -0.00528   0.13630
           A2           0.00137   0.00137  -0.00701  -0.00701  -0.02235
           A3          -0.00080  -0.00080  -0.00528  -0.00528  -0.02370
           A4           0.00137   0.00137  -0.00701  -0.00701  -0.02235
           A5           0.05466   0.05466  -0.05641  -0.05641  -0.00425
           A6           0.00023   0.00023  -0.00078  -0.00078   0.00087
           A7          -0.01314  -0.01314   0.02459   0.02459   0.00359
           D1           0.00764   0.00764  -0.01317  -0.01317  -0.00127
           D2          -0.00764  -0.00764   0.01317   0.01317   0.00127
                          A2        A3        A4        A5        A6
           A2           0.13993
           A3          -0.02235   0.13630
           A4          -0.02007  -0.02235   0.13993
           A5           0.00061  -0.00425   0.00061   0.09608
           A6           0.00285   0.00087   0.00285   0.00127   0.01405
           A7           0.00761   0.00359   0.00761  -0.02904   0.01496
           D1          -0.00296  -0.00127  -0.00296   0.01620  -0.00677
           D2           0.00296   0.00127   0.00296  -0.01620   0.00677
                          A7        D1        D2
           A7           0.07156
           D1          -0.02981   0.02325
           D2           0.02981  -0.01428   0.02325
 ITU=  1  1  1 -1  0  1  0
 Use linear search instead of GDIIS.
     Eigenvalues ---    0.01621   0.03241   0.08434   0.09341   0.16000
     Eigenvalues ---    0.17052   0.28975   0.28975   0.38371
 RFO step:  Lambda=-3.99504151D-04 EMin= 1.62111017D-02
 Quartic linear search produced a step of -0.08882.
 Iteration  1 RMS(Cart)=  0.01681245 RMS(Int)=  0.00017715
 Iteration  2 RMS(Cart)=  0.00017794 RMS(Int)=  0.00001676
 Iteration  3 RMS(Cart)=  0.00000000 RMS(Int)=  0.00001676
 ClnCor:  largest displacement from symmetrization is 1.56D-03 for atom     5.
 Variable       Old X    -DE/DX   Delta X   Delta X   Delta X     New X
                                 (Linear)    (Quad)   (Total)
    R1        2.78624  -0.00183   0.00874  -0.01327  -0.00452   2.78171
    R2        2.78624  -0.00183   0.00874  -0.01327  -0.00452   2.78171
    R3        2.72235   0.00576  -0.00191   0.01491   0.01226   2.73460
    R4        2.72235   0.00576  -0.00191   0.01491   0.01226   2.73460
    A1        1.54047   0.00009  -0.00175   0.00376   0.00267   1.54314
    A2        1.54047  -0.00010  -0.00175   0.00515   0.00267   1.54314
    A3        1.54047   0.00009  -0.00175   0.00376   0.00267   1.54314
    A4        1.54047  -0.00010  -0.00175   0.00515   0.00267   1.54314
    A5        2.82096  -0.00390  -0.01984   0.01841  -0.00158   2.81938
    A6        3.08093   0.00018  -0.00350   0.00753   0.00535   3.08628
    A7        2.76409   0.00463   0.00148   0.03410   0.03537   2.79946
    D1       -1.38205  -0.00235  -0.00074  -0.01683  -0.01768  -1.39973
    D2        1.38205   0.00235   0.00074   0.01683   0.01768   1.39973
         Item               Value     Threshold  Converged?
 Maximum Force            0.005761     0.000450     NO 
 RMS     Force            0.003049     0.000300     NO 
 Maximum Displacement     0.031453     0.001800     NO 
 RMS     Displacement     0.016722     0.001200     NO 
 Predicted change in Energy=-2.093259D-04
 GradGradGradGradGradGradGradGradGradGradGradGradGradGradGradGradGradGrad

                          Input orientation:                          
 ---------------------------------------------------------------------
 Center     Atomic      Atomic             Coordinates (Angstroms)
 Number     Number       Type             X           Y           Z
 ---------------------------------------------------------------------
      1         16           0        1.155189    0.011560    0.584952
      2          1           0        0.901414    0.011560   -0.865026
      3          1           0        0.901414    0.011560    2.034931
      4          1           0        0.923064    1.439912    0.584952
      5          1           0        0.923064   -1.416791    0.584952
 ---------------------------------------------------------------------
                    Distance matrix (angstroms):
                    1          2          3          4          5
     1  S    0.000000
     2  H    1.472019   0.000000
     3  H    1.472019   2.899957   0.000000
     4  H    1.447090   2.035459   2.035459   0.000000
     5  H    1.447090   2.035459   2.035459   2.856703   0.000000
 Stoichiometry    H4S
 Framework group  C2V[C2(S),SGV(H2),SGV'(H2)]
 Deg. of freedom     4
 Full point group                 C2V     NOp   4
 Largest Abelian subgroup         C2V     NOp   4
 Largest concise Abelian subgroup C2V     NOp   4
                         Standard orientation:                         
 ---------------------------------------------------------------------
 Center     Atomic      Atomic             Coordinates (Angstroms)
 Number     Number       Type             X           Y           Z
 ---------------------------------------------------------------------
      1         16           0        0.000000   -0.000000    0.048590
      2          1           0       -0.000000    1.449978   -0.205185
      3          1           0       -0.000000   -1.449978   -0.205185
      4          1           0       -1.428351    0.000000   -0.183535
      5          1           0        1.428351   -0.000000   -0.183535
 ---------------------------------------------------------------------
 Rotational constants (GHZ):    116.8754649    113.5796782     60.5238270
 Standard basis: 3-21G (6D, 7F)
 There are    11 symmetry adapted basis functions of A1  symmetry.
 There are     0 symmetry adapted basis functions of A2  symmetry.
 There are     5 symmetry adapted basis functions of B1  symmetry.
 There are     5 symmetry adapted basis functions of B2  symmetry.
 Integral buffers will be    131072 words long.
 Raffenetti 1 integral format.
 Two-electron integral symmetry is turned on.
    21 basis functions,    39 primitive gaussians,    21 cartesian basis functions
    10 alpha electrons       10 beta electrons
       nuclear repulsion energy        24.6132166478 Hartrees.



 Warning!  S  atom    1 may be hypervalent but has no d functions.



 NAtoms=    5 NActive=    5 NUniq=    3 SFac= 2.78D+00 NAtFMM=   60 NAOKFM=F Big=F
 One-electron integrals computed using PRISM.
 NBasis=    21 RedAO= T  NBF=    11     0     5     5
 NBsUse=    21 1.00D-06 NBFU=    11     0     5     5
 Initial guess read from the read-write file.
 B after Tr=     0.000000    0.000000    0.000000
         Rot=    1.000000    0.000000    0.000000    0.000000 Ang=   0.00 deg.
 Initial guess orbital symmetries:
       Occupied  (A1) (A1) (B1) (B2) (A1) (A1) (B1) (B2) (A1) (A1)
       Virtual   (A1) (B2) (B1) (A1) (A1) (B1) (B2) (A1) (B2) (B1)
                 (A1)
 Harris functional with IExCor=  205 diagonalized for initial guess.
 ExpMin= 1.42D-01 ExpMax= 1.21D+03 ExpMxC= 1.21D+03 IAcc=1 IRadAn=         1 AccDes= 0.00D+00
 HarFok:  IExCor=  205 AccDes= 0.00D+00 IRadAn=         1 IDoV= 1
 ScaDFX=  1.000000  1.000000  1.000000  1.000000
 FoFCou: FMM=F IPFlag=           0 FMFlag=      100000 FMFlg1=           0
         NFxFlg=           0 DoJE=T BraDBF=F KetDBF=T FulRan=T
         Omega=  0.000000  0.000000  1.000000  0.000000  0.000000 ICntrl=     500 IOpCl=  0
         NMat0=    1 NMatS0=    1 NMatT0=    0 NMatD0=    1 NMtDS0=    0 NMtDT0=    0
         I1Cent=           4 NGrid=           0.
 Petite list used in FoFCou.
 Requested convergence on RMS density matrix=1.00D-08 within 128 cycles.
 Requested convergence on MAX density matrix=1.00D-06.
 Requested convergence on             energy=1.00D-06.
 No special actions if energy rises.
 Keep R1 ints in memory in canonical form, NReq=846673.
 SCF Done:  E(RHF) =  -397.623886221     A.U. after    9 cycles
             Convg  =    0.3870D-08             -V/T =  2.0009
 ExpMin= 1.42D-01 ExpMax= 1.21D+03 ExpMxC= 1.21D+03 IAcc=3 IRadAn=         5 AccDes= 0.00D+00
 HarFok:  IExCor=  205 AccDes= 0.00D+00 IRadAn=         5 IDoV=-2
 ScaDFX=  1.000000  1.000000  1.000000  1.000000
 Range of M.O.s used for correlation:     6    21
 NBasis=    21 NAE=    10 NBE=    10 NFC=     5 NFV=     0
 NROrb=     16 NOA=     5 NOB=     5 NVA=    11 NVB=    11
 Fully direct method using O(ONN) memory.
 JobTyp=1 Pass  1:  I=   6 to  10 NPSUse=  1 ParTrn=F ParDer=F DoDerP=T.
 Spin components of T(2) and E(2):
     alpha-alpha T2 =       0.2426090887D-02 E2=     -0.5488641372D-02
     alpha-beta  T2 =       0.4419342766D-01 E2=     -0.8253800546D-01
     beta-beta   T2 =       0.2426090887D-02 E2=     -0.5488641372D-02
 ANorm=    0.1024229276D+01
 E2 =    -0.9351528820D-01 EUMP2 =    -0.39771740150950D+03
          IDoAtm=11111
          Differentiating once with respect to electric field.
                with respect to dipole field.
          Differentiating once with respect to nuclear coordinates.
          Keep R1 ints in memory in canonical form, NReq=827430.
          There are     1 degrees of freedom in the 1st order CPHF.  IDoFFX=0.
 LinEq1:  Iter=  0 NonCon=     1 RMS=3.69D-03 Max=2.63D-02
 AX will form     1 AO Fock derivatives at one time.
 LinEq1:  Iter=  1 NonCon=     1 RMS=5.17D-04 Max=4.30D-03
 LinEq1:  Iter=  2 NonCon=     1 RMS=1.34D-04 Max=7.05D-04
 LinEq1:  Iter=  3 NonCon=     1 RMS=1.64D-05 Max=1.09D-04
 LinEq1:  Iter=  4 NonCon=     1 RMS=2.05D-06 Max=1.21D-05
 LinEq1:  Iter=  5 NonCon=     1 RMS=2.86D-07 Max=1.11D-06
 LinEq1:  Iter=  6 NonCon=     1 RMS=2.21D-08 Max=1.50D-07
 LinEq1:  Iter=  7 NonCon=     1 RMS=3.06D-09 Max=1.66D-08
 LinEq1:  Iter=  8 NonCon=     1 RMS=1.51D-10 Max=6.93D-10
 LinEq1:  Iter=  9 NonCon=     0 RMS=9.32D-12 Max=4.64D-11
 Linear equations converged to 1.000D-10 1.000D-09 after     9 iterations.
 End of Minotr Frequency-dependent properties file   721 does not exist.
 End of Minotr Frequency-dependent properties file   722 does not exist.
 Calling FoFJK, ICntrl=      2127 FMM=F ISym2X=1 I1Cent= 0 IOpClX= 0 NMat=1 NMatS=1 NMatT=0.
 ***** Axes restored to original set *****
 -------------------------------------------------------------------
 Center     Atomic                   Forces (Hartrees/Bohr)
 Number     Number              X              Y              Z
 -------------------------------------------------------------------
      1       16          -0.000283245    0.000000000    0.000000000
      2        1           0.001461202   -0.000000000    0.001220516
      3        1           0.001461202   -0.000000000   -0.001220516
      4        1          -0.001319580    0.003324310    0.000000000
      5        1          -0.001319580   -0.003324310   -0.000000000
 -------------------------------------------------------------------
 Cartesian Forces:  Max     0.003324310 RMS     0.001481315

 GradGradGradGradGradGradGradGradGradGradGradGradGradGradGradGradGradGrad
 Berny optimization.
 Using GEDIIS/GDIIS optimizer.
 Internal  Forces:  Max     0.003492934 RMS     0.001768634
 Search for a local minimum.
 Step number   8 out of a maximum of   23
 All quantities printed in internal units (Hartrees-Bohrs-Radians)
 Mixed Optimization -- RFO/linear search
 Update second derivatives using D2CorX and points    3    4    5    6    7
                                                      8
 DE= -3.18D-04 DEPred=-2.09D-04 R= 1.52D+00
 SS=  1.41D+00  RLast= 4.77D-02 DXNew= 1.2000D+00 1.4316D-01
 Trust test= 1.52D+00 RLast= 4.77D-02 DXMaxT set to 7.14D-01
 The second derivative matrix:
                          R1        R2        R3        R4        A1
           R1           0.21217
           R2          -0.07759   0.21217
           R3           0.00137   0.00137   0.26058
           R4           0.00137   0.00137  -0.02917   0.26058
           A1           0.00091   0.00091  -0.00839  -0.00839   0.13619
           A2           0.00481   0.00481  -0.01389  -0.01389  -0.02256
           A3           0.00091   0.00091  -0.00839  -0.00839  -0.02381
           A4           0.00481   0.00481  -0.01389  -0.01389  -0.02256
           A5           0.04418   0.04418  -0.03138  -0.03138  -0.00223
           A6           0.00547   0.00547  -0.01185  -0.01185   0.00041
           A7           0.00504   0.00504  -0.00923  -0.00923   0.00161
           D1          -0.00085  -0.00085   0.00272   0.00272  -0.00030
           D2           0.00085   0.00085  -0.00272  -0.00272   0.00030
                          A2        A3        A4        A5        A6
           A2           0.13956
           A3          -0.02256   0.13619
           A4          -0.02044  -0.02256   0.13956
           A5           0.00504  -0.00223   0.00504   0.08475
           A6           0.00195   0.00041   0.00195   0.00788   0.01228
           A7           0.00279   0.00161   0.00279  -0.01027   0.00705
           D1          -0.00058  -0.00030  -0.00058   0.00755  -0.00292
           D2           0.00058   0.00030   0.00058  -0.00755   0.00292
                          A7        D1        D2
           A7           0.05140
           D1          -0.02041   0.01889
           D2           0.02041  -0.00992   0.01889
 ITU=  1  1  1  1 -1  0  1  0
 Use linear search instead of GDIIS.
     Eigenvalues ---    0.01633   0.02617   0.07893   0.08454   0.16000
     Eigenvalues ---    0.17020   0.25164   0.28975   0.28975
 RFO step:  Lambda=-5.10417203D-05 EMin= 1.63272029D-02
 Quartic linear search produced a step of  1.21640.
 Iteration  1 RMS(Cart)=  0.01922570 RMS(Int)=  0.00036934
 Iteration  2 RMS(Cart)=  0.00039456 RMS(Int)=  0.00015560
 Iteration  3 RMS(Cart)=  0.00000006 RMS(Int)=  0.00015560
 ClnCor:  largest displacement from symmetrization is 5.89D-04 for atom     5.
 Variable       Old X    -DE/DX   Delta X   Delta X   Delta X     New X
                                 (Linear)    (Quad)   (Total)
    R1        2.78171  -0.00145  -0.00550  -0.01647  -0.02197   2.75974
    R2        2.78171  -0.00145  -0.00550  -0.01647  -0.02197   2.75974
    R3        2.73460   0.00349   0.01491   0.00764   0.02284   2.75744
    R4        2.73460   0.00349   0.01491   0.00764   0.02284   2.75744
    A1        1.54314   0.00005   0.00325   0.00243   0.00531   1.54845
    A2        1.54314  -0.00003   0.00325   0.00213   0.00531   1.54845
    A3        1.54314   0.00005   0.00325   0.00243   0.00531   1.54845
    A4        1.54314  -0.00003   0.00325   0.00213   0.00531   1.54845
    A5        2.81938  -0.00203  -0.00192   0.02581   0.02404   2.84343
    A6        3.08628   0.00010   0.00650   0.00486   0.01062   3.09690
    A7        2.79946   0.00229   0.04302   0.00026   0.04341   2.84287
    D1       -1.39973  -0.00116  -0.02151  -0.00018  -0.02170  -1.42143
    D2        1.39973   0.00116   0.02151   0.00018   0.02170   1.42143
         Item               Value     Threshold  Converged?
 Maximum Force            0.003493     0.000450     NO 
 RMS     Force            0.001769     0.000300     NO 
 Maximum Displacement     0.037383     0.001800     NO 
 RMS     Displacement     0.019215     0.001200     NO 
 Predicted change in Energy=-1.592011D-04
 GradGradGradGradGradGradGradGradGradGradGradGradGradGradGradGradGradGrad

                          Input orientation:                          
 ---------------------------------------------------------------------
 Center     Atomic      Atomic             Coordinates (Angstroms)
 Number     Number       Type             X           Y           Z
 ---------------------------------------------------------------------
      1         16           0        1.135407    0.011560    0.584952
      2          1           0        0.915708    0.011560   -0.858819
      3          1           0        0.915708    0.011560    2.028724
      4          1           0        0.918675    1.454549    0.584952
      5          1           0        0.918675   -1.431428    0.584952
 ---------------------------------------------------------------------
                    Distance matrix (angstroms):
                    1          2          3          4          5
     1  S    0.000000
     2  H    1.460392   0.000000
     3  H    1.460392   2.887543   0.000000
     4  H    1.459174   2.041250   2.041250   0.000000
     5  H    1.459174   2.041250   2.041250   2.885977   0.000000
 Stoichiometry    H4S
 Framework group  C2V[C2(S),SGV(H2),SGV'(H2)]
 Deg. of freedom     4
 Full point group                 C2V     NOp   4
 Largest Abelian subgroup         C2V     NOp   4
 Largest concise Abelian subgroup C2V     NOp   4
                         Standard orientation:                         
 ---------------------------------------------------------------------
 Center     Atomic      Atomic             Coordinates (Angstroms)
 Number     Number       Type             X           Y           Z
 ---------------------------------------------------------------------
      1         16           0        0.000000   -0.000000    0.043643
      2          1           0        0.000000    1.443771   -0.176056
      3          1           0       -0.000000   -1.443771   -0.176056
      4          1           0       -1.442989    0.000000   -0.173089
      5          1           0        1.442989   -0.000000   -0.173089
 ---------------------------------------------------------------------
 Rotational constants (GHZ):    115.7136449    115.5930891     60.1742398
 Standard basis: 3-21G (6D, 7F)
 There are    11 symmetry adapted basis functions of A1  symmetry.
 There are     0 symmetry adapted basis functions of A2  symmetry.
 There are     5 symmetry adapted basis functions of B1  symmetry.
 There are     5 symmetry adapted basis functions of B2  symmetry.
 Integral buffers will be    131072 words long.
 Raffenetti 1 integral format.
 Two-electron integral symmetry is turned on.
    21 basis functions,    39 primitive gaussians,    21 cartesian basis functions
    10 alpha electrons       10 beta electrons
       nuclear repulsion energy        24.6038535058 Hartrees.



 Warning!  S  atom    1 may be hypervalent but has no d functions.



 NAtoms=    5 NActive=    5 NUniq=    3 SFac= 2.78D+00 NAtFMM=   60 NAOKFM=F Big=F
 One-electron integrals computed using PRISM.
 NBasis=    21 RedAO= T  NBF=    11     0     5     5
 NBsUse=    21 1.00D-06 NBFU=    11     0     5     5
 Initial guess read from the read-write file.
 B after Tr=     0.000000    0.000000    0.000000
         Rot=    1.000000    0.000000    0.000000    0.000000 Ang=   0.00 deg.
 Initial guess orbital symmetries:
       Occupied  (A1) (A1) (B1) (B2) (A1) (A1) (B1) (B2) (A1) (A1)
       Virtual   (A1) (B2) (B1) (A1) (A1) (B1) (B2) (A1) (B2) (B1)
                 (A1)
 Harris functional with IExCor=  205 diagonalized for initial guess.
 ExpMin= 1.42D-01 ExpMax= 1.21D+03 ExpMxC= 1.21D+03 IAcc=1 IRadAn=         1 AccDes= 0.00D+00
 HarFok:  IExCor=  205 AccDes= 0.00D+00 IRadAn=         1 IDoV= 1
 ScaDFX=  1.000000  1.000000  1.000000  1.000000
 FoFCou: FMM=F IPFlag=           0 FMFlag=      100000 FMFlg1=           0
         NFxFlg=           0 DoJE=T BraDBF=F KetDBF=T FulRan=T
         Omega=  0.000000  0.000000  1.000000  0.000000  0.000000 ICntrl=     500 IOpCl=  0
         NMat0=    1 NMatS0=    1 NMatT0=    0 NMatD0=    1 NMtDS0=    0 NMtDT0=    0
         I1Cent=           4 NGrid=           0.
 Petite list used in FoFCou.
 Requested convergence on RMS density matrix=1.00D-08 within 128 cycles.
 Requested convergence on MAX density matrix=1.00D-06.
 Requested convergence on             energy=1.00D-06.
 No special actions if energy rises.
 Keep R1 ints in memory in canonical form, NReq=846673.
 SCF Done:  E(RHF) =  -397.624067445     A.U. after    9 cycles
             Convg  =    0.3685D-08             -V/T =  2.0009
 ExpMin= 1.42D-01 ExpMax= 1.21D+03 ExpMxC= 1.21D+03 IAcc=3 IRadAn=         5 AccDes= 0.00D+00
 HarFok:  IExCor=  205 AccDes= 0.00D+00 IRadAn=         5 IDoV=-2
 ScaDFX=  1.000000  1.000000  1.000000  1.000000
 Range of M.O.s used for correlation:     6    21
 NBasis=    21 NAE=    10 NBE=    10 NFC=     5 NFV=     0
 NROrb=     16 NOA=     5 NOB=     5 NVA=    11 NVB=    11
 Fully direct method using O(ONN) memory.
 JobTyp=1 Pass  1:  I=   6 to  10 NPSUse=  1 ParTrn=F ParDer=F DoDerP=T.
 Spin components of T(2) and E(2):
     alpha-alpha T2 =       0.2418708344D-02 E2=     -0.5475418195D-02
     alpha-beta  T2 =       0.4428984933D-01 E2=     -0.8254096265D-01
     beta-beta   T2 =       0.2418708344D-02 E2=     -0.5475418195D-02
 ANorm=    0.1024269137D+01
 E2 =    -0.9349179904D-01 EUMP2 =    -0.39771755924436D+03
          IDoAtm=11111
          Differentiating once with respect to electric field.
                with respect to dipole field.
          Differentiating once with respect to nuclear coordinates.
          Keep R1 ints in memory in canonical form, NReq=827430.
          There are     1 degrees of freedom in the 1st order CPHF.  IDoFFX=0.
 LinEq1:  Iter=  0 NonCon=     1 RMS=3.66D-03 Max=2.64D-02
 AX will form     1 AO Fock derivatives at one time.
 LinEq1:  Iter=  1 NonCon=     1 RMS=5.05D-04 Max=4.24D-03
 LinEq1:  Iter=  2 NonCon=     1 RMS=1.30D-04 Max=6.52D-04
 LinEq1:  Iter=  3 NonCon=     1 RMS=1.53D-05 Max=1.12D-04
 LinEq1:  Iter=  4 NonCon=     1 RMS=2.03D-06 Max=1.19D-05
 LinEq1:  Iter=  5 NonCon=     1 RMS=2.76D-07 Max=1.09D-06
 LinEq1:  Iter=  6 NonCon=     1 RMS=1.36D-08 Max=7.03D-08
 LinEq1:  Iter=  7 NonCon=     1 RMS=5.22D-10 Max=2.44D-09
 LinEq1:  Iter=  8 NonCon=     0 RMS=4.39D-11 Max=2.85D-10
 Linear equations converged to 1.000D-10 1.000D-09 after     8 iterations.
 End of Minotr Frequency-dependent properties file   721 does not exist.
 End of Minotr Frequency-dependent properties file   722 does not exist.
 Calling FoFJK, ICntrl=      2127 FMM=F ISym2X=1 I1Cent= 0 IOpClX= 0 NMat=1 NMatS=1 NMatT=0.
 ***** Axes restored to original set *****
 -------------------------------------------------------------------
 Center     Atomic                   Forces (Hartrees/Bohr)
 Number     Number              X              Y              Z
 -------------------------------------------------------------------
      1       16           0.000759181   -0.000000000    0.000000000
      2        1          -0.000058633   -0.000000000   -0.000199130
      3        1          -0.000058633   -0.000000000    0.000199130
      4        1          -0.000320957    0.000469929    0.000000000
      5        1          -0.000320957   -0.000469929   -0.000000000
 -------------------------------------------------------------------
 Cartesian Forces:  Max     0.000759181 RMS     0.000295548

 GradGradGradGradGradGradGradGradGradGradGradGradGradGradGradGradGradGrad
 Berny optimization.
 Using GEDIIS/GDIIS optimizer.
 Internal  Forces:  Max     0.000660100 RMS     0.000286107
 Search for a local minimum.
 Step number   9 out of a maximum of   23
 All quantities printed in internal units (Hartrees-Bohrs-Radians)
 Mixed Optimization -- En-DIIS/RFO-DIIS
 Update second derivatives using D2CorX and points    3    4    5    6    7
                                                      8    9
 DE= -1.58D-04 DEPred=-1.59D-04 R= 9.91D-01
 SS=  1.41D+00  RLast= 7.51D-02 DXNew= 1.2000D+00 2.2527D-01
 Trust test= 9.91D-01 RLast= 7.51D-02 DXMaxT set to 7.14D-01
 The second derivative matrix:
                          R1        R2        R3        R4        A1
           R1           0.20610
           R2          -0.08365   0.20610
           R3           0.00556   0.00556   0.24930
           R4           0.00556   0.00556  -0.04046   0.24930
           A1          -0.00004  -0.00004  -0.00719  -0.00719   0.13626
           A2           0.00392   0.00392  -0.01162  -0.01162  -0.02236
           A3          -0.00004  -0.00004  -0.00719  -0.00719  -0.02374
           A4           0.00392   0.00392  -0.01162  -0.01162  -0.02236
           A5           0.03095   0.03095  -0.02134  -0.02134  -0.00363
           A6           0.00589   0.00589  -0.01043  -0.01043   0.00079
           A7          -0.00010  -0.00010  -0.01209  -0.01209   0.00222
           D1           0.00154   0.00154   0.00451   0.00451  -0.00058
           D2          -0.00154  -0.00154  -0.00451  -0.00451   0.00058
                          A2        A3        A4        A5        A6
           A2           0.14000
           A3          -0.02236   0.13626
           A4          -0.02000  -0.02236   0.14000
           A5           0.00244  -0.00363   0.00244   0.06739
           A6           0.00270   0.00079   0.00270   0.00640   0.01326
           A7           0.00455   0.00222   0.00455  -0.00959   0.00900
           D1          -0.00141  -0.00058  -0.00141   0.00676  -0.00379
           D2           0.00141   0.00058   0.00141  -0.00676   0.00379
                          A7        D1        D2
           A7           0.04880
           D1          -0.01890   0.01804
           D2           0.01890  -0.00907   0.01804
 ITU=  1  1  1  1  1 -1  0  1  0
 Use linear search instead of GDIIS.
     Eigenvalues ---    0.01535   0.03056   0.07154   0.08483   0.14823
     Eigenvalues ---    0.16000   0.21996   0.28975   0.28975
 RFO step:  Lambda=-1.28127447D-05 EMin= 1.53467922D-02
 Quartic linear search produced a step of -0.01749.
 Iteration  1 RMS(Cart)=  0.00593675 RMS(Int)=  0.00003129
 Iteration  2 RMS(Cart)=  0.00003165 RMS(Int)=  0.00000317
 Iteration  3 RMS(Cart)=  0.00000000 RMS(Int)=  0.00000317
 ClnCor:  largest displacement from symmetrization is 1.82D-04 for atom     5.
 Variable       Old X    -DE/DX   Delta X   Delta X   Delta X     New X
                                 (Linear)    (Quad)   (Total)
    R1        2.75974   0.00021   0.00038   0.00528   0.00566   2.76540
    R2        2.75974   0.00021   0.00038   0.00528   0.00566   2.76540
    R3        2.75744   0.00051  -0.00040   0.00048   0.00017   2.75761
    R4        2.75744   0.00051  -0.00040   0.00048   0.00017   2.75761
    A1        1.54845  -0.00003  -0.00009  -0.00113  -0.00131   1.54714
    A2        1.54845  -0.00008  -0.00009  -0.00129  -0.00131   1.54714
    A3        1.54845  -0.00003  -0.00009  -0.00113  -0.00131   1.54714
    A4        1.54845  -0.00008  -0.00009  -0.00129  -0.00131   1.54714
    A5        2.84343  -0.00066  -0.00042  -0.01463  -0.01504   2.82839
    A6        3.09690  -0.00005  -0.00019  -0.00227  -0.00262   3.09428
    A7        2.84287  -0.00004  -0.00076  -0.00138  -0.00211   2.84075
    D1       -1.42143   0.00001   0.00038   0.00067   0.00106  -1.42038
    D2        1.42143  -0.00001  -0.00038  -0.00067  -0.00106   1.42038
         Item               Value     Threshold  Converged?
 Maximum Force            0.000660     0.000450     NO 
 RMS     Force            0.000286     0.000300     YES
 Maximum Displacement     0.010607     0.001800     NO 
 RMS     Displacement     0.005927     0.001200     NO 
 Predicted change in Energy=-6.421594D-06
 GradGradGradGradGradGradGradGradGradGradGradGradGradGradGradGradGradGrad

                          Input orientation:                          
 ---------------------------------------------------------------------
 Center     Atomic      Atomic             Coordinates (Angstroms)
 Number     Number       Type             X           Y           Z
 ---------------------------------------------------------------------
      1         16           0        1.140650    0.011560    0.584952
      2          1           0        0.918703    0.011560   -0.861507
      3          1           0        0.918703    0.011560    2.031411
      4          1           0        0.913062    1.452967    0.584952
      5          1           0        0.913062   -1.429846    0.584952
 ---------------------------------------------------------------------
                    Distance matrix (angstroms):
                    1          2          3          4          5
     1  S    0.000000
     2  H    1.463388   0.000000
     3  H    1.463388   2.892917   0.000000
     4  H    1.459263   2.042040   2.042040   0.000000
     5  H    1.459263   2.042040   2.042040   2.882813   0.000000
 Stoichiometry    H4S
 Framework group  C2V[C2(S),SGV(H2),SGV'(H2)]
 Deg. of freedom     4
 Full point group                 C2V     NOp   4
 Largest Abelian subgroup         C2V     NOp   4
 Largest concise Abelian subgroup C2V     NOp   4
                         Standard orientation:                         
 ---------------------------------------------------------------------
 Center     Atomic      Atomic             Coordinates (Angstroms)
 Number     Number       Type             X           Y           Z
 ---------------------------------------------------------------------
      1         16           0        0.000000    0.000000    0.044953
      2          1           0        0.000000    1.446459   -0.176993
      3          1           0       -0.000000   -1.446459   -0.176993
      4          1           0       -1.441406    0.000000   -0.182634
      5          1           0        1.441406   -0.000000   -0.182634
 ---------------------------------------------------------------------
 Rotational constants (GHZ):    115.6814901    114.9079625     60.1280192
 Standard basis: 3-21G (6D, 7F)
 There are    11 symmetry adapted basis functions of A1  symmetry.
 There are     0 symmetry adapted basis functions of A2  symmetry.
 There are     5 symmetry adapted basis functions of B1  symmetry.
 There are     5 symmetry adapted basis functions of B2  symmetry.
 Integral buffers will be    131072 words long.
 Raffenetti 1 integral format.
 Two-electron integral symmetry is turned on.
    21 basis functions,    39 primitive gaussians,    21 cartesian basis functions
    10 alpha electrons       10 beta electrons
       nuclear repulsion energy        24.5788675169 Hartrees.



 Warning!  S  atom    1 may be hypervalent but has no d functions.



 NAtoms=    5 NActive=    5 NUniq=    3 SFac= 2.78D+00 NAtFMM=   60 NAOKFM=F Big=F
 One-electron integrals computed using PRISM.
 NBasis=    21 RedAO= T  NBF=    11     0     5     5
 NBsUse=    21 1.00D-06 NBFU=    11     0     5     5
 Initial guess read from the read-write file.
 B after Tr=     0.000000    0.000000    0.000000
         Rot=    1.000000    0.000000    0.000000    0.000000 Ang=   0.00 deg.
 Initial guess orbital symmetries:
       Occupied  (A1) (A1) (B1) (B2) (A1) (A1) (B1) (B2) (A1) (A1)
       Virtual   (A1) (B2) (B1) (A1) (A1) (B2) (B1) (A1) (B2) (B1)
                 (A1)
 Requested convergence on RMS density matrix=1.00D-08 within 128 cycles.
 Requested convergence on MAX density matrix=1.00D-06.
 Requested convergence on             energy=1.00D-06.
 No special actions if energy rises.
 Keep R1 ints in memory in canonical form, NReq=846673.
 SCF Done:  E(RHF) =  -397.623972033     A.U. after    9 cycles
             Convg  =    0.6263D-09             -V/T =  2.0009
 ExpMin= 1.42D-01 ExpMax= 1.21D+03 ExpMxC= 1.21D+03 IAcc=3 IRadAn=         5 AccDes= 0.00D+00
 HarFok:  IExCor=  205 AccDes= 0.00D+00 IRadAn=         5 IDoV=-2
 ScaDFX=  1.000000  1.000000  1.000000  1.000000
 Range of M.O.s used for correlation:     6    21
 NBasis=    21 NAE=    10 NBE=    10 NFC=     5 NFV=     0
 NROrb=     16 NOA=     5 NOB=     5 NVA=    11 NVB=    11
 Fully direct method using O(ONN) memory.
 JobTyp=1 Pass  1:  I=   6 to  10 NPSUse=  1 ParTrn=F ParDer=F DoDerP=T.
 Spin components of T(2) and E(2):
     alpha-alpha T2 =       0.2424235816D-02 E2=     -0.5481646033D-02
     alpha-beta  T2 =       0.4439713378D-01 E2=     -0.8262917996D-01
     beta-beta   T2 =       0.2424235816D-02 E2=     -0.5481646033D-02
 ANorm=    0.1024326904D+01
 E2 =    -0.9359247203D-01 EUMP2 =    -0.39771756450472D+03
          IDoAtm=11111
          Differentiating once with respect to electric field.
                with respect to dipole field.
          Differentiating once with respect to nuclear coordinates.
          Keep R1 ints in memory in canonical form, NReq=827430.
          There are     1 degrees of freedom in the 1st order CPHF.  IDoFFX=0.
 LinEq1:  Iter=  0 NonCon=     1 RMS=3.68D-03 Max=2.65D-02
 AX will form     1 AO Fock derivatives at one time.
 LinEq1:  Iter=  1 NonCon=     1 RMS=5.10D-04 Max=4.28D-03
 LinEq1:  Iter=  2 NonCon=     1 RMS=1.32D-04 Max=6.65D-04
 LinEq1:  Iter=  3 NonCon=     1 RMS=1.57D-05 Max=1.14D-04
 LinEq1:  Iter=  4 NonCon=     1 RMS=2.05D-06 Max=1.20D-05
 LinEq1:  Iter=  5 NonCon=     1 RMS=2.79D-07 Max=1.10D-06
 LinEq1:  Iter=  6 NonCon=     1 RMS=1.52D-08 Max=7.11D-08
 LinEq1:  Iter=  7 NonCon=     1 RMS=1.56D-09 Max=1.31D-08
 LinEq1:  Iter=  8 NonCon=     1 RMS=1.43D-10 Max=5.43D-10
 LinEq1:  Iter=  9 NonCon=     0 RMS=8.73D-12 Max=4.08D-11
 Linear equations converged to 1.000D-10 1.000D-09 after     9 iterations.
 End of Minotr Frequency-dependent properties file   721 does not exist.
 End of Minotr Frequency-dependent properties file   722 does not exist.
 Calling FoFJK, ICntrl=      2127 FMM=F ISym2X=1 I1Cent= 0 IOpClX= 0 NMat=1 NMatS=1 NMatT=0.
 ***** Axes restored to original set *****
 -------------------------------------------------------------------
 Center     Atomic                   Forces (Hartrees/Bohr)
 Number     Number              X              Y              Z
 -------------------------------------------------------------------
      1       16           0.000374742    0.000000000   -0.000000000
      2        1          -0.000182007   -0.000000000    0.000224433
      3        1          -0.000182007   -0.000000000   -0.000224433
      4        1          -0.000005363    0.000300544    0.000000000
      5        1          -0.000005363   -0.000300544   -0.000000000
 -------------------------------------------------------------------
 Cartesian Forces:  Max     0.000374742 RMS     0.000180395

 GradGradGradGradGradGradGradGradGradGradGradGradGradGradGradGradGradGrad
 Berny optimization.
 Using GEDIIS/GDIIS optimizer.
 Internal  Forces:  Max     0.000391361 RMS     0.000195676
 Search for a local minimum.
 Step number  10 out of a maximum of   23
 All quantities printed in internal units (Hartrees-Bohrs-Radians)
 Mixed Optimization -- En-DIIS/RFO-DIIS
 Swaping is turned off.
 Update second derivatives using D2CorX and points    3    4    5    6    7
                                                      8    9   10
 DE= -5.26D-06 DEPred=-6.42D-06 R= 8.19D-01
 SS=  1.41D+00  RLast= 1.76D-02 DXNew= 1.2000D+00 5.2876D-02
 Trust test= 8.19D-01 RLast= 1.76D-02 DXMaxT set to 7.14D-01
 The second derivative matrix:
                          R1        R2        R3        R4        A1
           R1           0.21065
           R2          -0.07910   0.21065
           R3           0.00805   0.00805   0.22306
           R4           0.00805   0.00805  -0.06670   0.22306
           A1          -0.00014  -0.00014  -0.00498  -0.00498   0.13603
           A2           0.00375   0.00375  -0.00656  -0.00656  -0.02281
           A3          -0.00014  -0.00014  -0.00498  -0.00498  -0.02397
           A4           0.00375   0.00375  -0.00656  -0.00656  -0.02281
           A5           0.01996   0.01996  -0.00272  -0.00272  -0.00583
           A6           0.00687   0.00687  -0.00521  -0.00521   0.00044
           A7           0.00733   0.00733  -0.00426  -0.00426   0.00188
           D1          -0.00207  -0.00207   0.00167   0.00167  -0.00050
           D2           0.00207   0.00207  -0.00167  -0.00167   0.00050
                          A2        A3        A4        A5        A6
           A2           0.13913
           A3          -0.02281   0.13603
           A4          -0.02087  -0.02281   0.13913
           A5          -0.00101  -0.00583  -0.00101   0.07427
           A6           0.00194   0.00044   0.00194   0.00181   0.01269
           A7           0.00308   0.00188   0.00308  -0.03241   0.00889
           D1          -0.00084  -0.00050  -0.00084   0.01736  -0.00388
           D2           0.00084   0.00050   0.00084  -0.01736   0.00388
                          A7        D1        D2
           A7           0.06106
           D1          -0.02520   0.02124
           D2           0.02520  -0.01227   0.02124
 ITU=  1  1  1  1  1  1 -1  0  1  0
     Eigenvalues ---    0.01598   0.02996   0.08373   0.11829   0.13733
     Eigenvalues ---    0.16000   0.16565   0.28975   0.28975
 En-DIIS/RFO-DIIS IScMMF=        0 using points:    10    9
 RFO step:  Lambda=-1.40105535D-06.
 DidBck=F Rises=F RFO-DIIS coefs:    0.84645    0.15355
 Iteration  1 RMS(Cart)=  0.00190256 RMS(Int)=  0.00000248
 Iteration  2 RMS(Cart)=  0.00000227 RMS(Int)=  0.00000097
 Iteration  3 RMS(Cart)=  0.00000000 RMS(Int)=  0.00000097
 ClnCor:  largest displacement from symmetrization is 2.67D-04 for atom     5.
 Variable       Old X    -DE/DX   Delta X   Delta X   Delta X     New X
                                  (DIIS)     (GDIIS)  (Total)
    R1        2.76540  -0.00019  -0.00087  -0.00050  -0.00137   2.76403
    R2        2.76540  -0.00019  -0.00087  -0.00050  -0.00137   2.76403
    R3        2.75761   0.00030  -0.00003   0.00186   0.00196   2.75957
    R4        2.75761   0.00030  -0.00003   0.00186   0.00196   2.75957
    A1        1.54714  -0.00002   0.00020  -0.00039  -0.00031   1.54683
    A2        1.54714  -0.00002   0.00020  -0.00063  -0.00031   1.54683
    A3        1.54714  -0.00002   0.00020  -0.00039  -0.00031   1.54683
    A4        1.54714  -0.00002   0.00020  -0.00063  -0.00031   1.54683
    A5        2.82839   0.00011   0.00231  -0.00232   0.00001   2.82840
    A6        3.09428  -0.00004   0.00040  -0.00079  -0.00062   3.09366
    A7        2.84075  -0.00039   0.00032  -0.00432  -0.00396   2.83680
    D1       -1.42038   0.00019  -0.00016   0.00212   0.00198  -1.41840
    D2        1.42038  -0.00019   0.00016  -0.00212  -0.00198   1.41840
         Item               Value     Threshold  Converged?
 Maximum Force            0.000391     0.000450     YES
 RMS     Force            0.000196     0.000300     YES
 Maximum Displacement     0.003033     0.001800     NO 
 RMS     Displacement     0.001921     0.001200     NO 
 Predicted change in Energy=-1.987701D-06
 GradGradGradGradGradGradGradGradGradGradGradGradGradGradGradGradGradGrad

                          Input orientation:                          
 ---------------------------------------------------------------------
 Center     Atomic      Atomic             Coordinates (Angstroms)
 Number     Number       Type             X           Y           Z
 ---------------------------------------------------------------------
      1         16           0        1.141828    0.011560    0.584952
      2          1           0        0.917098    0.011560   -0.860343
      3          1           0        0.917098    0.011560    2.030247
      4          1           0        0.914083    1.453994    0.584952
      5          1           0        0.914083   -1.430873    0.584952
 ---------------------------------------------------------------------
                    Distance matrix (angstroms):
                    1          2          3          4          5
     1  S    0.000000
     2  H    1.462663   0.000000
     3  H    1.462663   2.890590   0.000000
     4  H    1.460302   2.041935   2.041935   0.000000
     5  H    1.460302   2.041935   2.041935   2.884866   0.000000
 Stoichiometry    H4S
 Framework group  C2V[C2(S),SGV(H2),SGV'(H2)]
 Deg. of freedom     4
 Full point group                 C2V     NOp   4
 Largest Abelian subgroup         C2V     NOp   4
 Largest concise Abelian subgroup C2V     NOp   4
                         Standard orientation:                         
 ---------------------------------------------------------------------
 Center     Atomic      Atomic             Coordinates (Angstroms)
 Number     Number       Type             X           Y           Z
 ---------------------------------------------------------------------
      1         16           0        0.000000   -0.000000    0.045248
      2          1           0       -0.000000    1.445295   -0.179483
      3          1           0       -0.000000   -1.445295   -0.179483
      4          1           0       -1.442433    0.000000   -0.182498
      5          1           0        1.442433   -0.000000   -0.182498
 ---------------------------------------------------------------------
 Rotational constants (GHZ):    115.4616197    115.0238421     60.1338446
 Standard basis: 3-21G (6D, 7F)
 There are    11 symmetry adapted basis functions of A1  symmetry.
 There are     0 symmetry adapted basis functions of A2  symmetry.
 There are     5 symmetry adapted basis functions of B1  symmetry.
 There are     5 symmetry adapted basis functions of B2  symmetry.
 Integral buffers will be    131072 words long.
 Raffenetti 1 integral format.
 Two-electron integral symmetry is turned on.
    21 basis functions,    39 primitive gaussians,    21 cartesian basis functions
    10 alpha electrons       10 beta electrons
       nuclear repulsion energy        24.5764190587 Hartrees.



 Warning!  S  atom    1 may be hypervalent but has no d functions.



 NAtoms=    5 NActive=    5 NUniq=    3 SFac= 2.78D+00 NAtFMM=   60 NAOKFM=F Big=F
 One-electron integrals computed using PRISM.
 NBasis=    21 RedAO= T  NBF=    11     0     5     5
 NBsUse=    21 1.00D-06 NBFU=    11     0     5     5
 Initial guess read from the read-write file.
 B after Tr=     0.000000    0.000000    0.000000
         Rot=    1.000000    0.000000    0.000000    0.000000 Ang=   0.00 deg.
 Initial guess orbital symmetries:
       Occupied  (A1) (A1) (B1) (B2) (A1) (A1) (B1) (B2) (A1) (A1)
       Virtual   (A1) (B2) (B1) (A1) (A1) (B1) (B2) (A1) (B2) (B1)
                 (A1)
 Requested convergence on RMS density matrix=1.00D-08 within 128 cycles.
 Requested convergence on MAX density matrix=1.00D-06.
 Requested convergence on             energy=1.00D-06.
 No special actions if energy rises.
 Keep R1 ints in memory in canonical form, NReq=846673.
 SCF Done:  E(RHF) =  -397.623963274     A.U. after    8 cycles
             Convg  =    0.4529D-08             -V/T =  2.0009
 ExpMin= 1.42D-01 ExpMax= 1.21D+03 ExpMxC= 1.21D+03 IAcc=3 IRadAn=         5 AccDes= 0.00D+00
 HarFok:  IExCor=  205 AccDes= 0.00D+00 IRadAn=         5 IDoV=-2
 ScaDFX=  1.000000  1.000000  1.000000  1.000000
 Range of M.O.s used for correlation:     6    21
 NBasis=    21 NAE=    10 NBE=    10 NFC=     5 NFV=     0
 NROrb=     16 NOA=     5 NOB=     5 NVA=    11 NVB=    11
 Fully direct method using O(ONN) memory.
 JobTyp=1 Pass  1:  I=   6 to  10 NPSUse=  1 ParTrn=F ParDer=F DoDerP=T.
 Spin components of T(2) and E(2):
     alpha-alpha T2 =       0.2425076953D-02 E2=     -0.5482753913D-02
     alpha-beta  T2 =       0.4440593518D-01 E2=     -0.8263899844D-01
     beta-beta   T2 =       0.2425076953D-02 E2=     -0.5482753913D-02
 ANorm=    0.1024332021D+01
 E2 =    -0.9360450626D-01 EUMP2 =    -0.39771756778066D+03
          IDoAtm=11111
          Differentiating once with respect to electric field.
                with respect to dipole field.
          Differentiating once with respect to nuclear coordinates.
          Keep R1 ints in memory in canonical form, NReq=827430.
          There are     1 degrees of freedom in the 1st order CPHF.  IDoFFX=0.
 LinEq1:  Iter=  0 NonCon=     1 RMS=3.69D-03 Max=2.65D-02
 AX will form     1 AO Fock derivatives at one time.
 LinEq1:  Iter=  1 NonCon=     1 RMS=5.10D-04 Max=4.29D-03
 LinEq1:  Iter=  2 NonCon=     1 RMS=1.32D-04 Max=6.62D-04
 LinEq1:  Iter=  3 NonCon=     1 RMS=1.56D-05 Max=1.15D-04
 LinEq1:  Iter=  4 NonCon=     1 RMS=2.05D-06 Max=1.20D-05
 LinEq1:  Iter=  5 NonCon=     1 RMS=2.78D-07 Max=1.10D-06
 LinEq1:  Iter=  6 NonCon=     1 RMS=1.43D-08 Max=7.11D-08
 LinEq1:  Iter=  7 NonCon=     1 RMS=1.02D-09 Max=8.44D-09
 LinEq1:  Iter=  8 NonCon=     1 RMS=1.31D-10 Max=6.20D-10
 LinEq1:  Iter=  9 NonCon=     0 RMS=8.64D-12 Max=4.04D-11
 Linear equations converged to 1.000D-10 1.000D-09 after     9 iterations.
 End of Minotr Frequency-dependent properties file   721 does not exist.
 End of Minotr Frequency-dependent properties file   722 does not exist.
 Calling FoFJK, ICntrl=      2127 FMM=F ISym2X=1 I1Cent= 0 IOpClX= 0 NMat=1 NMatS=1 NMatT=0.
 ***** Axes restored to original set *****
 -------------------------------------------------------------------
 Center     Atomic                   Forces (Hartrees/Bohr)
 Number     Number              X              Y              Z
 -------------------------------------------------------------------
      1       16           0.000292530    0.000000000    0.000000000
      2        1          -0.000115999   -0.000000000    0.000127877
      3        1          -0.000115999   -0.000000000   -0.000127877
      4        1          -0.000030266    0.000176355    0.000000000
      5        1          -0.000030266   -0.000176355   -0.000000000
 -------------------------------------------------------------------
 Cartesian Forces:  Max     0.000292530 RMS     0.000118103

 GradGradGradGradGradGradGradGradGradGradGradGradGradGradGradGradGradGrad
 Berny optimization.
 Using GEDIIS/GDIIS optimizer.
 Internal  Forces:  Max     0.000244312 RMS     0.000117288
 Search for a local minimum.
 Step number  11 out of a maximum of   23
 All quantities printed in internal units (Hartrees-Bohrs-Radians)
 Mixed Optimization -- En-DIIS/RFO-DIIS
 Swaping is turned off.
 Update second derivatives using D2CorX and points    3    4    5    6    7
                                                      8    9   10   11
 DE= -3.28D-06 DEPred=-1.99D-06 R= 1.65D+00
 SS=  1.41D+00  RLast= 5.98D-03 DXNew= 1.2000D+00 1.7925D-02
 Trust test= 1.65D+00 RLast= 5.98D-03 DXMaxT set to 7.14D-01
 The second derivative matrix:
                          R1        R2        R3        R4        A1
           R1           0.20566
           R2          -0.08409   0.20566
           R3           0.01630   0.01630   0.20874
           R4           0.01630   0.01630  -0.08101   0.20874
           A1          -0.00205  -0.00205  -0.00101  -0.00101   0.13539
           A2           0.00082   0.00082   0.00010   0.00010  -0.02382
           A3          -0.00205  -0.00205  -0.00101  -0.00101  -0.02461
           A4           0.00082   0.00082   0.00010   0.00010  -0.02382
           A5           0.02083   0.02083  -0.00324  -0.00324  -0.00537
           A6           0.00346   0.00346   0.00297   0.00297  -0.00079
           A7          -0.00228  -0.00228   0.01495   0.01495  -0.00205
           D1           0.00230   0.00230  -0.00679  -0.00679   0.00131
           D2          -0.00230  -0.00230   0.00679   0.00679  -0.00131
                          A2        A3        A4        A5        A6
           A2           0.13752
           A3          -0.02382   0.13539
           A4          -0.02248  -0.02382   0.13752
           A5          -0.00019  -0.00537  -0.00019   0.07383
           A6          -0.00002  -0.00079  -0.00002   0.00291   0.01025
           A7          -0.00337  -0.00205  -0.00337  -0.03041   0.00094
           D1           0.00213   0.00131   0.00213   0.01653  -0.00021
           D2          -0.00213  -0.00131  -0.00213  -0.01653   0.00021
                          A7        D1        D2
           A7           0.03899
           D1          -0.01524   0.01676
           D2           0.01524  -0.00779   0.01676
 ITU=  1  1  1  1  1  1  1 -1  0  1  0
     Eigenvalues ---    0.01598   0.01957   0.06456   0.08434   0.13099
     Eigenvalues ---    0.16000   0.16124   0.28975   0.28975
 En-DIIS/RFO-DIIS IScMMF=        0 using points:    11   10    9
 RFO step:  Lambda=-9.08684608D-07.
 DidBck=F Rises=F RFO-DIIS coefs:    2.96121   -1.69207   -0.26915
 Iteration  1 RMS(Cart)=  0.00340221 RMS(Int)=  0.00001944
 Iteration  2 RMS(Cart)=  0.00001478 RMS(Int)=  0.00001273
 Iteration  3 RMS(Cart)=  0.00000000 RMS(Int)=  0.00001273
 ClnCor:  largest displacement from symmetrization is 3.52D-05 for atom     5.
 Variable       Old X    -DE/DX   Delta X   Delta X   Delta X     New X
                                  (DIIS)     (GDIIS)  (Total)
    R1        2.76403  -0.00011  -0.00116  -0.00004  -0.00120   2.76283
    R2        2.76403  -0.00011  -0.00116  -0.00004  -0.00120   2.76283
    R3        2.75957   0.00018   0.00389  -0.00066   0.00325   2.76282
    R4        2.75957   0.00018   0.00389  -0.00066   0.00325   2.76282
    A1        1.54683  -0.00001  -0.00096  -0.00020  -0.00118   1.54565
    A2        1.54683  -0.00002  -0.00096  -0.00021  -0.00118   1.54565
    A3        1.54683  -0.00001  -0.00096  -0.00020  -0.00118   1.54565
    A4        1.54683  -0.00002  -0.00096  -0.00021  -0.00118   1.54565
    A5        2.82840  -0.00000  -0.00403  -0.00129  -0.00532   2.82308
    A6        3.09366  -0.00003  -0.00191  -0.00040  -0.00236   3.09130
    A7        2.83680  -0.00024  -0.00833  -0.00135  -0.00967   2.82713
    D1       -1.41840   0.00012   0.00416   0.00067   0.00483  -1.41356
    D2        1.41840  -0.00012  -0.00416  -0.00067  -0.00483   1.41356
         Item               Value     Threshold  Converged?
 Maximum Force            0.000244     0.000450     YES
 RMS     Force            0.000117     0.000300     YES
 Maximum Displacement     0.008442     0.001800     NO 
 RMS     Displacement     0.003406     0.001200     NO 
 Predicted change in Energy=-2.533683D-06
 GradGradGradGradGradGradGradGradGradGradGradGradGradGradGradGradGradGrad

                          Input orientation:                          
 ---------------------------------------------------------------------
 Center     Atomic      Atomic             Coordinates (Angstroms)
 Number     Number       Type             X           Y           Z
 ---------------------------------------------------------------------
      1         16           0        1.146296    0.011560    0.584952
      2          1           0        0.914504    0.011560   -0.858582
      3          1           0        0.914504    0.011560    2.028487
      4          1           0        0.914444    1.455081    0.584952
      5          1           0        0.914444   -1.431960    0.584952
 ---------------------------------------------------------------------
                    Distance matrix (angstroms):
                    1          2          3          4          5
     1  S    0.000000
     2  H    1.462026   0.000000
     3  H    1.462026   2.887069   0.000000
     4  H    1.462021   2.041456   2.041456   0.000000
     5  H    1.462021   2.041456   2.041456   2.887041   0.000000
 Stoichiometry    H4S
 Framework group  C2V[C2(S),SGV(H2),SGV'(H2)]
 Deg. of freedom     4
 Full point group                 C2V     NOp   4
 Largest Abelian subgroup         C2V     NOp   4
 Largest concise Abelian subgroup C2V     NOp   4
                         Standard orientation:                         
 ---------------------------------------------------------------------
 Center     Atomic      Atomic             Coordinates (Angstroms)
 Number     Number       Type             X           Y           Z
 ---------------------------------------------------------------------
      1         16           0        0.000000   -0.000000    0.046364
      2          1           0        0.000000    1.443535   -0.185428
      3          1           0       -0.000000   -1.443535   -0.185428
      4          1           0       -1.443521    0.000000   -0.185487
      5          1           0        1.443521   -0.000000   -0.185487
 ---------------------------------------------------------------------
 Rotational constants (GHZ):    115.0549048    115.0527556     60.1619501
 Standard basis: 3-21G (6D, 7F)
 There are    11 symmetry adapted basis functions of A1  symmetry.
 There are     0 symmetry adapted basis functions of A2  symmetry.
 There are     5 symmetry adapted basis functions of B1  symmetry.
 There are     5 symmetry adapted basis functions of B2  symmetry.
 Integral buffers will be    131072 words long.
 Raffenetti 1 integral format.
 Two-electron integral symmetry is turned on.
    21 basis functions,    39 primitive gaussians,    21 cartesian basis functions
    10 alpha electrons       10 beta electrons
       nuclear repulsion energy        24.5681502936 Hartrees.



 Warning!  S  atom    1 may be hypervalent but has no d functions.



 NAtoms=    5 NActive=    5 NUniq=    3 SFac= 2.78D+00 NAtFMM=   60 NAOKFM=F Big=F
 One-electron integrals computed using PRISM.
 NBasis=    21 RedAO= T  NBF=    11     0     5     5
 NBsUse=    21 1.00D-06 NBFU=    11     0     5     5
 Initial guess read from the read-write file.
 B after Tr=     0.000000    0.000000    0.000000
         Rot=    1.000000    0.000000    0.000000    0.000000 Ang=   0.00 deg.
 Initial guess orbital symmetries:
       Occupied  (A1) (A1) (B1) (B2) (A1) (A1) (B1) (B2) (A1) (A1)
       Virtual   (A1) (B2) (B1) (A1) (A1) (B1) (B2) (A1) (B2) (B1)
                 (A1)
 Requested convergence on RMS density matrix=1.00D-08 within 128 cycles.
 Requested convergence on MAX density matrix=1.00D-06.
 Requested convergence on             energy=1.00D-06.
 No special actions if energy rises.
 Keep R1 ints in memory in canonical form, NReq=846673.
 SCF Done:  E(RHF) =  -397.623924424     A.U. after    9 cycles
             Convg  =    0.4277D-09             -V/T =  2.0009
 ExpMin= 1.42D-01 ExpMax= 1.21D+03 ExpMxC= 1.21D+03 IAcc=3 IRadAn=         5 AccDes= 0.00D+00
 HarFok:  IExCor=  205 AccDes= 0.00D+00 IRadAn=         5 IDoV=-2
 ScaDFX=  1.000000  1.000000  1.000000  1.000000
 Range of M.O.s used for correlation:     6    21
 NBasis=    21 NAE=    10 NBE=    10 NFC=     5 NFV=     0
 NROrb=     16 NOA=     5 NOB=     5 NVA=    11 NVB=    11
 Fully direct method using O(ONN) memory.
 JobTyp=1 Pass  1:  I=   6 to  10 NPSUse=  1 ParTrn=F ParDer=F DoDerP=T.
 Spin components of T(2) and E(2):
     alpha-alpha T2 =       0.2428077242D-02 E2=     -0.5486753972D-02
     alpha-beta  T2 =       0.4443383266D-01 E2=     -0.8267240926D-01
     beta-beta   T2 =       0.2428077242D-02 E2=     -0.5486753972D-02
 ANorm=    0.1024348567D+01
 E2 =    -0.9364591720D-01 EUMP2 =    -0.39771757034120D+03
          IDoAtm=11111
          Differentiating once with respect to electric field.
                with respect to dipole field.
          Differentiating once with respect to nuclear coordinates.
          Keep R1 ints in memory in canonical form, NReq=827430.
          There are     1 degrees of freedom in the 1st order CPHF.  IDoFFX=0.
 LinEq1:  Iter=  0 NonCon=     1 RMS=3.70D-03 Max=2.65D-02
 AX will form     1 AO Fock derivatives at one time.
 LinEq1:  Iter=  1 NonCon=     1 RMS=5.13D-04 Max=4.31D-03
 LinEq1:  Iter=  2 NonCon=     1 RMS=1.33D-04 Max=6.61D-04
 LinEq1:  Iter=  3 NonCon=     1 RMS=1.57D-05 Max=1.16D-04
 LinEq1:  Iter=  4 NonCon=     1 RMS=2.06D-06 Max=1.20D-05
 LinEq1:  Iter=  5 NonCon=     1 RMS=2.79D-07 Max=1.10D-06
 LinEq1:  Iter=  6 NonCon=     1 RMS=1.41D-08 Max=7.15D-08
 LinEq1:  Iter=  7 NonCon=     1 RMS=5.10D-10 Max=2.24D-09
 LinEq1:  Iter=  8 NonCon=     0 RMS=3.19D-11 Max=1.24D-10
 Linear equations converged to 1.000D-10 1.000D-09 after     8 iterations.
 End of Minotr Frequency-dependent properties file   721 does not exist.
 End of Minotr Frequency-dependent properties file   722 does not exist.
 Calling FoFJK, ICntrl=      2127 FMM=F ISym2X=1 I1Cent= 0 IOpClX= 0 NMat=1 NMatS=1 NMatT=0.
 ***** Axes restored to original set *****
 -------------------------------------------------------------------
 Center     Atomic                   Forces (Hartrees/Bohr)
 Number     Number              X              Y              Z
 -------------------------------------------------------------------
      1       16          -0.000005637   -0.000000000    0.000000000
      2        1          -0.000000477   -0.000000000    0.000004960
      3        1          -0.000000477   -0.000000000   -0.000004960
      4        1           0.000003296   -0.000005751    0.000000000
      5        1           0.000003296    0.000005751   -0.000000000
 -------------------------------------------------------------------
 Cartesian Forces:  Max     0.000005751 RMS     0.000003360

 GradGradGradGradGradGradGradGradGradGradGradGradGradGradGradGradGradGrad
 Berny optimization.
 Using GEDIIS/GDIIS optimizer.
 Internal  Forces:  Max     0.000006250 RMS     0.000003637
 Search for a local minimum.
 Step number  12 out of a maximum of   23
 All quantities printed in internal units (Hartrees-Bohrs-Radians)
 Mixed Optimization -- En-DIIS/RFO-DIIS
 Swaping is turned off.
 Update second derivatives using D2CorX and points    3    4    5    6    7
                                                      8    9   10   11   12
 DE= -2.56D-06 DEPred=-2.53D-06 R= 1.01D+00
 SS=  1.41D+00  RLast= 1.43D-02 DXNew= 1.2000D+00 4.2812D-02
 Trust test= 1.01D+00 RLast= 1.43D-02 DXMaxT set to 7.14D-01
 The second derivative matrix:
                          R1        R2        R3        R4        A1
           R1           0.19798
           R2          -0.09178   0.19798
           R3           0.01381   0.01381   0.20900
           R4           0.01381   0.01381  -0.08076   0.20900
           A1          -0.00136  -0.00136  -0.00071  -0.00071   0.13542
           A2           0.00120   0.00120   0.00024   0.00024  -0.02383
           A3          -0.00136  -0.00136  -0.00071  -0.00071  -0.02458
           A4           0.00120   0.00120   0.00024   0.00024  -0.02383
           A5           0.01200   0.01200  -0.01179  -0.01179  -0.00670
           A6           0.00439   0.00439   0.00395   0.00395  -0.00073
           A7           0.00021   0.00021   0.01796   0.01796  -0.00147
           D1           0.00104   0.00104  -0.00820  -0.00820   0.00101
           D2          -0.00104  -0.00104   0.00820   0.00820  -0.00101
                          A2        A3        A4        A5        A6
           A2           0.13736
           A3          -0.02383   0.13542
           A4          -0.02264  -0.02383   0.13736
           A5          -0.00290  -0.00670  -0.00290   0.06091
           A6          -0.00005  -0.00073  -0.00005   0.00081   0.01029
           A7          -0.00249  -0.00147  -0.00249  -0.02675   0.00138
           D1           0.00167   0.00101   0.00167   0.01434  -0.00043
           D2          -0.00167  -0.00101  -0.00167  -0.01434   0.00043
                          A7        D1        D2
           A7           0.03777
           D1          -0.01460   0.01643
           D2           0.01460  -0.00746   0.01643
 ITU=  1  1  1  1  1  1  1  1 -1  0  1  0
     Eigenvalues ---    0.01620   0.01849   0.05725   0.08446   0.11386
     Eigenvalues ---    0.15607   0.16000   0.28975   0.28975
 En-DIIS/RFO-DIIS IScMMF=        0 using points:    12   11   10    9
 RFO step:  Lambda= 0.00000000D+00.
 DidBck=F Rises=F RFO-DIIS coefs:    1.01806   -0.06920    0.03433    0.01681
 Iteration  1 RMS(Cart)=  0.00005240 RMS(Int)=  0.00000073
 Iteration  2 RMS(Cart)=  0.00000000 RMS(Int)=  0.00000073
 ClnCor:  largest displacement from symmetrization is 1.08D-06 for atom     5.
 Variable       Old X    -DE/DX   Delta X   Delta X   Delta X     New X
                                  (DIIS)     (GDIIS)  (Total)
    R1        2.76283  -0.00000  -0.00005  -0.00001  -0.00005   2.76278
    R2        2.76283  -0.00000  -0.00005  -0.00001  -0.00005   2.76278
    R3        2.76282  -0.00001  -0.00004   0.00000  -0.00004   2.76278
    R4        2.76282  -0.00001  -0.00004   0.00000  -0.00004   2.76278
    A1        1.54565   0.00000   0.00002   0.00000   0.00002   1.54567
    A2        1.54565   0.00000   0.00002   0.00000   0.00002   1.54567
    A3        1.54565   0.00000   0.00002   0.00000   0.00002   1.54567
    A4        1.54565   0.00000   0.00002   0.00000   0.00002   1.54567
    A5        2.82308   0.00001   0.00016  -0.00000   0.00015   2.82324
    A6        3.09130   0.00000   0.00003   0.00000   0.00004   3.09134
    A7        2.82713  -0.00000   0.00006   0.00000   0.00007   2.82720
    D1       -1.41356   0.00000  -0.00003  -0.00000  -0.00003  -1.41360
    D2        1.41356  -0.00000   0.00003   0.00000   0.00003   1.41360
         Item               Value     Threshold  Converged?
 Maximum Force            0.000006     0.000450     YES
 RMS     Force            0.000004     0.000300     YES
 Maximum Displacement     0.000129     0.001800     YES
 RMS     Displacement     0.000052     0.001200     YES
 Predicted change in Energy=-8.776077D-10
 Optimization completed.
    -- Stationary point found.
                           ----------------------------
                           !   Optimized Parameters   !
                           ! (Angstroms and Degrees)  !
 --------------------------                            --------------------------
 ! Name  Definition              Value          Derivative Info.                !
 --------------------------------------------------------------------------------
 ! R1    R(1,2)                  1.462          -DE/DX =    0.0                 !
 ! R2    R(1,3)                  1.462          -DE/DX =    0.0                 !
 ! R3    R(1,4)                  1.462          -DE/DX =    0.0                 !
 ! R4    R(1,5)                  1.462          -DE/DX =    0.0                 !
 ! A1    A(2,1,4)               88.5593         -DE/DX =    0.0                 !
 ! A2    A(2,1,5)               88.5593         -DE/DX =    0.0                 !
 ! A3    A(3,1,4)               88.5593         -DE/DX =    0.0                 !
 ! A4    A(3,1,5)               88.5593         -DE/DX =    0.0                 !
 ! A5    A(4,1,5)              161.7507         -DE/DX =    0.0                 !
 ! A6    L(2,1,3,4,-1)         177.1186         -DE/DX =    0.0                 !
 ! A7    L(2,1,3,4,-2)         161.9826         -DE/DX =    0.0                 !
 ! D1    D(2,1,5,4)            -80.9913         -DE/DX =    0.0                 !
 ! D2    D(3,1,5,4)             80.9913         -DE/DX =    0.0                 !
 --------------------------------------------------------------------------------
 GradGradGradGradGradGradGradGradGradGradGradGradGradGradGradGradGradGrad

                          Input orientation:                          
 ---------------------------------------------------------------------
 Center     Atomic      Atomic             Coordinates (Angstroms)
 Number     Number       Type             X           Y           Z
 ---------------------------------------------------------------------
      1         16           0        1.146296    0.011560    0.584952
      2          1           0        0.914504    0.011560   -0.858582
      3          1           0        0.914504    0.011560    2.028487
      4          1           0        0.914444    1.455081    0.584952
      5          1           0        0.914444   -1.431960    0.584952
 ---------------------------------------------------------------------
                    Distance matrix (angstroms):
                    1          2          3          4          5
     1  S    0.000000
     2  H    1.462026   0.000000
     3  H    1.462026   2.887069   0.000000
     4  H    1.462021   2.041456   2.041456   0.000000
     5  H    1.462021   2.041456   2.041456   2.887041   0.000000
 Stoichiometry    H4S
 Framework group  C2V[C2(S),SGV(H2),SGV'(H2)]
 Deg. of freedom     4
 Full point group                 C2V     NOp   4
 Largest Abelian subgroup         C2V     NOp   4
 Largest concise Abelian subgroup C2V     NOp   4
                         Standard orientation:                         
 ---------------------------------------------------------------------
 Center     Atomic      Atomic             Coordinates (Angstroms)
 Number     Number       Type             X           Y           Z
 ---------------------------------------------------------------------
      1         16           0        0.000000    0.000000    0.046364
      2          1           0       -0.000000    1.443535   -0.185428
      3          1           0       -0.000000   -1.443535   -0.185428
      4          1           0       -1.443521    0.000000   -0.185487
      5          1           0        1.443521   -0.000000   -0.185487
 ---------------------------------------------------------------------
 Rotational constants (GHZ):    115.0549048    115.0527556     60.1619501

 **********************************************************************

            Population analysis using the SCF density.

 **********************************************************************

 Orbital symmetries:
       Occupied  (A1) (A1) (B1) (B2) (A1) (A1) (B1) (B2) (A1) (A1)
       Virtual   (A1) (B1) (B2) (A1) (A1) (B1) (B2) (A1) (B1) (B2)
                 (A1)
 The electronic state is 1-A1.
 Alpha  occ. eigenvalues --  -91.42223  -9.01211  -6.68928  -6.68928  -6.68525
 Alpha  occ. eigenvalues --   -1.04385  -0.64910  -0.64910  -0.44934  -0.30280
 Alpha virt. eigenvalues --    0.07521   0.26445   0.26445   0.66126   0.71217
 Alpha virt. eigenvalues --    0.75575   0.75576   1.11535   1.18832   1.18832
 Alpha virt. eigenvalues --    1.22522
          Condensed to atoms (all electrons):
              1          2          3          4          5
     1  S   15.128532   0.236135   0.236135   0.236143   0.236143
     2  H    0.236135   0.987917   0.026855  -0.134586  -0.134586
     3  H    0.236135   0.026855   0.987917  -0.134586  -0.134586
     4  H    0.236143  -0.134586  -0.134586   0.987895   0.026855
     5  H    0.236143  -0.134586  -0.134586   0.026855   0.987895
 Mulliken atomic charges:
              1
     1  S   -0.073089
     2  H    0.018265
     3  H    0.018265
     4  H    0.018279
     5  H    0.018279
 Sum of Mulliken atomic charges =   0.00000
 Mulliken charges with hydrogens summed into heavy atoms:
              1
     1  S    0.000000
 Sum of Mulliken charges with hydrogens summed into heavy atoms =   0.00000
 Electronic spatial extent (au):  <R**2>=             70.2468
 Charge=              0.0000 electrons
 Dipole moment (field-independent basis, Debye):
    X=             -0.0000    Y=             -0.0000    Z=             -0.5230  Tot=              0.5230
 Quadrupole moment (field-independent basis, Debye-Ang):
   XX=            -17.5304   YY=            -17.5308   ZZ=            -18.5620
   XY=             -0.0000   XZ=              0.0000   YZ=              0.0000
 Traceless Quadrupole moment (field-independent basis, Debye-Ang):
   XX=              0.3440   YY=              0.3436   ZZ=             -0.6876
   XY=             -0.0000   XZ=              0.0000   YZ=              0.0000
 Octapole moment (field-independent basis, Debye-Ang**2):
  XXX=             -0.0000  YYY=             -0.0000  ZZZ=             -0.1159  XYY=             -0.0000
  XXY=             -0.0000  XXZ=              0.3556  XZZ=             -0.0000  YZZ=              0.0000
  YYZ=              0.3557  XYZ=             -0.0000
 Hexadecapole moment (field-independent basis, Debye-Ang**3):
 XXXX=            -51.7928 YYYY=            -51.7952 ZZZZ=            -24.5611 XXXY=              0.0000
 XXXZ=              0.0000 YYYX=              0.0000 YYYZ=              0.0000 ZZZX=              0.0000
 ZZZY=             -0.0000 XXYY=            -14.7056 XXZZ=            -12.0707 YYZZ=            -12.0710
 XXYZ=              0.0000 YYXZ=              0.0000 ZZXY=              0.0000
 N-N= 2.456815029365D+01 E-N=-9.944675877826D+02  KE= 3.972681690671D+02
 Symmetry A1   KE= 3.226639906143D+02
 Symmetry A2   KE= 0.000000000000D+00
 Symmetry B1   KE= 3.730209328186D+01
 Symmetry B2   KE= 3.730208517091D+01
 1\1\GINC-SRU02\FOpt\RMP2-FC\3-21G\H4S1\CENT\23-Jun-2024\0\\# opt freq=
 hpmodes mp2/3-21g geom=connectivity\\Title Card Required\\0,1\S,1.1462
 958117,0.01156046,0.58495219\H,0.9145039047,0.01156046,-0.8585824143\H
 ,0.9145039047,0.01156046,2.0284867943\H,0.9144444879,1.4550809641,0.58
 495219\H,0.9144444879,-1.4319600441,0.58495219\\Version=AM64L-G09RevC.
 01\State=1-A1\HF=-397.6239244\MP2=-397.7175703\RMSD=4.277e-10\RMSF=3.3
 60e-06\Dipole=-0.2152639,0.,0.\PG=C02V [C2(S1),SGV(H2),SGV'(H2)]\\@


 Happiness is a conscious choice, not an automatic response.
 -- Mildred Barthel
 Job cpu time:  0 days  0 hours  0 minutes  7.7 seconds.
 File lengths (MBytes):  RWF=      5 Int=      0 D2E=      0 Chk=      2 Scr=      1
 Normal termination of Gaussian 09 at Sun Jun 23 21:04:32 2024.
 Link1:  Proceeding to internal job step number  2.
 -------------------------------------------------------------------
 #N Geom=AllCheck Guess=TCheck SCRF=Check GenChk RMP2(FC)/3-21G Freq
 -------------------------------------------------------------------
 1/10=4,29=7,30=1,38=1,40=1/1,3;
 2/12=2,40=1/2;
 3/5=5,11=1,14=-4,16=1,25=1,30=1,70=2,71=2,116=1/1,2,3;
 4/5=101/1;
 5/5=2,98=1/2;
 8/6=3,8=1,10=1,19=11,30=-1/1;
 9/15=3,16=-3/6;
 11/6=1,8=1,15=11,17=12,24=-1,27=1,28=-2,29=300,32=6,42=3/1,2,10;
 10/6=2,21=1/2;
 8/6=4,8=1,10=1,19=11,30=-1/11,4;
 10/5=1,20=4/2;
 11/12=2,14=11,16=1,17=2,28=-2,42=3/2,10,12;
 6/7=2,8=2,9=2,10=2/1;
 7/8=11,10=1,12=2,25=1,44=2/1,2,3,16;
 1/10=4,30=1/3;
 99//99;
 Structure from the checkpoint file:  sh4.chk
 -------------------
 Title Card Required
 -------------------
 Charge =  0 Multiplicity = 1
 Redundant internal coordinates found in file.
 S,0,1.1462958117,0.01156046,0.58495219
 H,0,0.9145039047,0.01156046,-0.8585824143
 H,0,0.9145039047,0.01156046,2.0284867943
 H,0,0.9144444879,1.4550809641,0.58495219
 H,0,0.9144444879,-1.4319600441,0.58495219
 Recover connectivity data from disk.

 GradGradGradGradGradGradGradGradGradGradGradGradGradGradGradGradGradGrad
 Berny optimization.
 Initialization pass.
                           ----------------------------
                           !    Initial Parameters    !
                           ! (Angstroms and Degrees)  !
 --------------------------                            --------------------------
 ! Name  Definition              Value          Derivative Info.                !
 --------------------------------------------------------------------------------
 ! R1    R(1,2)                  1.462          calculate D2E/DX2 analytically  !
 ! R2    R(1,3)                  1.462          calculate D2E/DX2 analytically  !
 ! R3    R(1,4)                  1.462          calculate D2E/DX2 analytically  !
 ! R4    R(1,5)                  1.462          calculate D2E/DX2 analytically  !
 ! A1    A(2,1,4)               88.5593         calculate D2E/DX2 analytically  !
 ! A2    A(2,1,5)               88.5593         calculate D2E/DX2 analytically  !
 ! A3    A(3,1,4)               88.5593         calculate D2E/DX2 analytically  !
 ! A4    A(3,1,5)               88.5593         calculate D2E/DX2 analytically  !
 ! A5    A(4,1,5)              161.7507         calculate D2E/DX2 analytically  !
 ! A6    L(2,1,3,4,-1)         177.1186         calculate D2E/DX2 analytically  !
 ! A7    L(2,1,3,4,-2)         161.9826         calculate D2E/DX2 analytically  !
 ! D1    D(2,1,5,4)            -80.9913         calculate D2E/DX2 analytically  !
 ! D2    D(3,1,5,4)             80.9913         calculate D2E/DX2 analytically  !
 --------------------------------------------------------------------------------
 Trust Radius=3.00D-01 FncErr=1.00D-07 GrdErr=1.00D-07
 Number of steps in this run=      2 maximum allowed number of steps=      2.
 GradGradGradGradGradGradGradGradGradGradGradGradGradGradGradGradGradGrad

                          Input orientation:                          
 ---------------------------------------------------------------------
 Center     Atomic      Atomic             Coordinates (Angstroms)
 Number     Number       Type             X           Y           Z
 ---------------------------------------------------------------------
      1         16           0        1.146296    0.011560    0.584952
      2          1           0        0.914504    0.011560   -0.858582
      3          1           0        0.914504    0.011560    2.028487
      4          1           0        0.914444    1.455081    0.584952
      5          1           0        0.914444   -1.431960    0.584952
 ---------------------------------------------------------------------
                    Distance matrix (angstroms):
                    1          2          3          4          5
     1  S    0.000000
     2  H    1.462026   0.000000
     3  H    1.462026   2.887069   0.000000
     4  H    1.462021   2.041456   2.041456   0.000000
     5  H    1.462021   2.041456   2.041456   2.887041   0.000000
 Stoichiometry    H4S
 Framework group  C2V[C2(S),SGV(H2),SGV'(H2)]
 Deg. of freedom     4
 Full point group                 C2V     NOp   4
 Largest Abelian subgroup         C2V     NOp   4
 Largest concise Abelian subgroup C2V     NOp   4
                         Standard orientation:                         
 ---------------------------------------------------------------------
 Center     Atomic      Atomic             Coordinates (Angstroms)
 Number     Number       Type             X           Y           Z
 ---------------------------------------------------------------------
      1         16           0        0.000000   -0.000000    0.046364
      2          1           0        0.000000    1.443535   -0.185428
      3          1           0       -0.000000   -1.443535   -0.185428
      4          1           0       -1.443521    0.000000   -0.185487
      5          1           0        1.443521   -0.000000   -0.185487
 ---------------------------------------------------------------------
 Rotational constants (GHZ):    115.0549048    115.0527556     60.1619501
 Standard basis: 3-21G (6D, 7F)
 There are    11 symmetry adapted basis functions of A1  symmetry.
 There are     0 symmetry adapted basis functions of A2  symmetry.
 There are     5 symmetry adapted basis functions of B1  symmetry.
 There are     5 symmetry adapted basis functions of B2  symmetry.
 Integral buffers will be    131072 words long.
 Raffenetti 1 integral format.
 Two-electron integral symmetry is turned on.
    21 basis functions,    39 primitive gaussians,    21 cartesian basis functions
    10 alpha electrons       10 beta electrons
       nuclear repulsion energy        24.5681502936 Hartrees.



 Warning!  S  atom    1 may be hypervalent but has no d functions.



 NAtoms=    5 NActive=    5 NUniq=    3 SFac= 2.78D+00 NAtFMM=   60 NAOKFM=F Big=F
 One-electron integrals computed using PRISM.
 NBasis=    21 RedAO= T  NBF=    11     0     5     5
 NBsUse=    21 1.00D-06 NBFU=    11     0     5     5
 Initial guess read from the checkpoint file:  sh4.chk
 B after Tr=    -0.000000   -0.000000    0.000000
         Rot=    1.000000   -0.000000   -0.000000    0.000000 Ang=   0.00 deg.
 Initial guess orbital symmetries:
       Occupied  (A1) (A1) (B1) (B2) (A1) (A1) (B1) (B2) (A1) (A1)
       Virtual   (A1) (B1) (B2) (A1) (A1) (B1) (B2) (A1) (B1) (B2)
                 (A1)
 Requested convergence on RMS density matrix=1.00D-08 within 128 cycles.
 Requested convergence on MAX density matrix=1.00D-06.
 Requested convergence on             energy=1.00D-06.
 No special actions if energy rises.
 Keep R1 ints in memory in canonical form, NReq=846673.
 SCF Done:  E(RHF) =  -397.623924424     A.U. after    1 cycles
             Convg  =    0.3742D-10             -V/T =  2.0009
 ExpMin= 1.42D-01 ExpMax= 1.21D+03 ExpMxC= 1.21D+03 IAcc=3 IRadAn=         5 AccDes= 0.00D+00
 HarFok:  IExCor=  205 AccDes= 0.00D+00 IRadAn=         5 IDoV=-2
 ScaDFX=  1.000000  1.000000  1.000000  1.000000
 Range of M.O.s used for correlation:     6    21
 NBasis=    21 NAE=    10 NBE=    10 NFC=     5 NFV=     0
 NROrb=     16 NOA=     5 NOB=     5 NVA=    11 NVB=    11
 Disk-based method using ON**2 memory for  5 occupieds at a time.
 Permanent disk used for amplitudes=       14575 words.
 Estimated scratch disk usage=      819373 words.
 Actual    scratch disk usage=      819373 words.
 JobTyp=1 Pass  1:  I=   6 to  10 NPSUse=  1 ParTrn=F ParDer=F DoDerP=T.
 (rs|ai) integrals will be sorted in core.
 Spin components of T(2) and E(2):
     alpha-alpha T2 =       0.2428077242D-02 E2=     -0.5486753972D-02
     alpha-beta  T2 =       0.4443383265D-01 E2=     -0.8267240925D-01
     beta-beta   T2 =       0.2428077242D-02 E2=     -0.5486753972D-02
 ANorm=    0.1024348567D+01
 E2 =    -0.9364591720D-01 EUMP2 =    -0.39771757034120D+03
 G2DrvN: will do     6 centers at a time, making    1 passes doing MaxLOS=1.
 Calling FoFCou, ICntrl=  3107 FMM=F I1Cent=   0 AccDes= 0.00D+00.
 FoFDir/FoFCou used for L=0 through L=1.
 End of G2Drv Frequency-dependent properties file   721 does not exist.
 End of G2Drv Frequency-dependent properties file   722 does not exist.
          IDoAtm=11111
          Differentiating once with respect to electric field.
                with respect to dipole field.
          Differentiating once with respect to nuclear coordinates.
          Keep R1 ints in memory in canonical form, NReq=827430.
          There are    18 degrees of freedom in the 1st order CPHF.  IDoFFX=5.
     15 vectors produced by pass  0 Test12= 6.11D-16 5.56D-09 XBig12= 1.16D+01 2.96D+00.
 AX will form    15 AO Fock derivatives at one time.
     15 vectors produced by pass  1 Test12= 6.11D-16 5.56D-09 XBig12= 2.73D-02 1.11D-01.
     15 vectors produced by pass  2 Test12= 6.11D-16 5.56D-09 XBig12= 7.04D-05 4.26D-03.
     15 vectors produced by pass  3 Test12= 6.11D-16 5.56D-09 XBig12= 2.32D-07 1.81D-04.
     15 vectors produced by pass  4 Test12= 6.11D-16 5.56D-09 XBig12= 3.85D-10 1.29D-05.
      9 vectors produced by pass  5 Test12= 6.11D-16 5.56D-09 XBig12= 1.51D-13 2.34D-07.
      1 vectors produced by pass  6 Test12= 6.11D-16 5.56D-09 XBig12= 2.80D-16 9.90D-09.
 Inverted reduced A of dimension    85 with in-core refinement.
 End of Minotr Frequency-dependent properties file   721 does not exist.
 End of Minotr Frequency-dependent properties file   722 does not exist.
 MDV=    33554432.
 Form MO integral derivatives with frozen-active canonical formalism.
 Discarding MO integrals.
 Reordered first order wavefunction length =        24200
 In DefCFB: NBatch=  1 ICI= 10 ICA= 11 LFMax= 11
            Large arrays: LIAPS=      194040 LIARS=      210210 words.
 Semi-Direct transformation.
 ModeAB=           4 MOrb=            10 LenV=      33440050
 LASXX=        26610 LTotXX=       26610 LenRXX=       58675
 LTotAB=       32065 MaxLAS=       37170 LenRXY=           0
 NonZer=       85285 LenScr=      785920 LnRSAI=       37170
 LnScr1=      785920 LExtra=           0 Total=      1667685
 MaxDsk=          -1 SrtSym=           T ITran=            4
 JobTyp=0 Pass  1:  I=   1 to  10.
 (rs|ai) integrals will be sorted in core.
 Spin components of T(2) and E(2):
     alpha-alpha T2 =       0.2428077242D-02 E2=     -0.5486753972D-02
     alpha-beta  T2 =       0.4443383265D-01 E2=     -0.8267240925D-01
     beta-beta   T2 =       0.2428077242D-02 E2=     -0.5486753972D-02
 ANorm=    0.1448647636D+01
 E2 =    -0.9364591720D-01 EUMP2 =    -0.39771757034120D+03
          IDoAtm=11111
          Differentiating once with respect to electric field.
                with respect to dipole field.
          Differentiating once with respect to nuclear coordinates.
          There are     1 degrees of freedom in the 1st order CPHF.  IDoFFX=0.
 LinEq1:  Iter=  0 NonCon=     1 RMS=3.70D-03 Max=2.65D-02
 LinEq1:  Iter=  1 NonCon=     1 RMS=5.13D-04 Max=4.31D-03
 LinEq1:  Iter=  2 NonCon=     1 RMS=1.33D-04 Max=6.61D-04
 LinEq1:  Iter=  3 NonCon=     1 RMS=1.57D-05 Max=1.16D-04
 LinEq1:  Iter=  4 NonCon=     1 RMS=2.06D-06 Max=1.20D-05
 LinEq1:  Iter=  5 NonCon=     1 RMS=2.79D-07 Max=1.10D-06
 LinEq1:  Iter=  6 NonCon=     1 RMS=1.41D-08 Max=7.15D-08
 LinEq1:  Iter=  7 NonCon=     1 RMS=5.10D-10 Max=2.24D-09
 LinEq1:  Iter=  8 NonCon=     0 RMS=3.19D-11 Max=1.24D-10
 Linear equations converged to 1.000D-10 1.000D-09 after     8 iterations.
 End of Minotr Frequency-dependent properties file   721 does not exist.
 End of Minotr Frequency-dependent properties file   722 does not exist.
 Symmetrizing basis deriv contribution to polar:
 IMax=3 JMax=2 DiffMx= 0.00D+00
 G2DrvN: will do     6 centers at a time, making    1 passes doing MaxLOS=1.
 Calling FoFCou, ICntrl=  3107 FMM=F I1Cent=   0 AccDes= 0.00D+00.
 FoFDir/FoFCou used for L=0 through L=1.
 End of G2Drv Frequency-dependent properties file   721 does not exist.
 End of G2Drv Frequency-dependent properties file   722 does not exist.
 R2 and R3 integrals will be kept in memory, NReq=      853592.
 DD1Dir will call FoFMem   1 times, MxPair=       110
 NAB=    55 NAA=     0 NBB=     0.
 Discarding MO integrals.

 **********************************************************************

            Population analysis using the SCF density.

 **********************************************************************

 Orbital symmetries:
       Occupied  (A1) (A1) (B1) (B2) (A1) (A1) (B1) (B2) (A1) (A1)
       Virtual   (A1) (B1) (B2) (A1) (A1) (B1) (B2) (A1) (B1) (B2)
                 (A1)
 The electronic state is 1-A1.
 Alpha  occ. eigenvalues --  -91.42223  -9.01211  -6.68928  -6.68928  -6.68525
 Alpha  occ. eigenvalues --   -1.04385  -0.64910  -0.64910  -0.44934  -0.30280
 Alpha virt. eigenvalues --    0.07521   0.26445   0.26445   0.66126   0.71217
 Alpha virt. eigenvalues --    0.75575   0.75576   1.11535   1.18832   1.18832
 Alpha virt. eigenvalues --    1.22522
          Condensed to atoms (all electrons):
              1          2          3          4          5
     1  S   15.128532   0.236135   0.236135   0.236143   0.236143
     2  H    0.236135   0.987917   0.026855  -0.134586  -0.134586
     3  H    0.236135   0.026855   0.987917  -0.134586  -0.134586
     4  H    0.236143  -0.134586  -0.134586   0.987895   0.026855
     5  H    0.236143  -0.134586  -0.134586   0.026855   0.987895
 Mulliken atomic charges:
              1
     1  S   -0.073089
     2  H    0.018265
     3  H    0.018265
     4  H    0.018279
     5  H    0.018279
 Sum of Mulliken atomic charges =  -0.00000
 Mulliken charges with hydrogens summed into heavy atoms:
              1
     1  S   -0.000000
 Sum of Mulliken charges with hydrogens summed into heavy atoms =  -0.00000
 APT atomic charges:
              1
     1  S    0.937087
     2  H   -0.234284
     3  H   -0.234284
     4  H   -0.234259
     5  H   -0.234259
 Sum of APT charges=   0.00000
 APT Atomic charges with hydrogens summed into heavy atoms:
              1
     1  S    0.000000
     2  H    0.000000
     3  H    0.000000
     4  H    0.000000
     5  H    0.000000
 Sum of APT charges=   0.00000
 Electronic spatial extent (au):  <R**2>=             70.2468
 Charge=             -0.0000 electrons
 Dipole moment (field-independent basis, Debye):
    X=             -0.0000    Y=             -0.0000    Z=             -0.5230  Tot=              0.5230
 Quadrupole moment (field-independent basis, Debye-Ang):
   XX=            -17.5304   YY=            -17.5308   ZZ=            -18.5620
   XY=             -0.0000   XZ=              0.0000   YZ=              0.0000
 Traceless Quadrupole moment (field-independent basis, Debye-Ang):
   XX=              0.3440   YY=              0.3436   ZZ=             -0.6876
   XY=             -0.0000   XZ=              0.0000   YZ=              0.0000
 Octapole moment (field-independent basis, Debye-Ang**2):
  XXX=             -0.0000  YYY=             -0.0000  ZZZ=             -0.1159  XYY=             -0.0000
  XXY=              0.0000  XXZ=              0.3556  XZZ=             -0.0000  YZZ=             -0.0000
  YYZ=              0.3557  XYZ=              0.0000
 Hexadecapole moment (field-independent basis, Debye-Ang**3):
 XXXX=            -51.7928 YYYY=            -51.7952 ZZZZ=            -24.5611 XXXY=              0.0000
 XXXZ=              0.0000 YYYX=             -0.0000 YYYZ=              0.0000 ZZZX=              0.0000
 ZZZY=              0.0000 XXYY=            -14.7056 XXZZ=            -12.0707 YYZZ=            -12.0710
 XXYZ=             -0.0000 YYXZ=              0.0000 ZZXY=              0.0000
 N-N= 2.456815029365D+01 E-N=-9.944675877833D+02  KE= 3.972681690675D+02
 Symmetry A1   KE= 3.226639906156D+02
 Symmetry A2   KE= 0.000000000000D+00
 Symmetry B1   KE= 3.730209328103D+01
 Symmetry B2   KE= 3.730208517088D+01
  Exact polarizability:  31.275  -0.000  31.276   0.000  -0.000   6.965
 Approx polarizability:  28.369  -0.000  28.371  -0.000  -0.000   5.529
 Calling FoFJK, ICntrl=    100127 FMM=F ISym2X=1 I1Cent= 0 IOpClX= 0 NMat=1 NMatS=1 NMatT=0.
 Full mass-weighted force constant matrix:
 Low frequencies ---    0.0002    0.0046    0.0055    7.0530    7.1747    7.5511
 Low frequencies ---  453.7557  843.6640 1408.1964
 Harmonic frequencies (cm**-1), IR intensities (KM/Mole), Raman scattering
 activities (A**4/AMU), depolarization ratios for plane and unpolarized
 incident light, reduced masses (AMU), force constants (mDyne/A),
 and normal coordinates:
                           1         2         3         4         5
                          A1        A1        B2        B1        A1
       Frequencies ---   453.7557  843.6640 1408.1964 1408.1966 1584.8218
    Reduced masses ---     1.1293    1.0078    1.1160    1.1160    1.0078
   Force constants ---     0.1370    0.4226    1.3039    1.3038    1.4914
    IR Intensities ---    15.4260    0.0000  507.6876  507.6217    0.0000
 Coord Atom Element:
   1     1    16         -0.00000  -0.00000  -0.00000   0.05910  -0.00000
   2     1    16         -0.00000  -0.00000   0.05910   0.00000   0.00000
   3     1    16          0.06264  -0.00001   0.00000   0.00000  -0.00000
   1     2     1         -0.00000   0.00000   0.00000  -0.60332   0.00000
   2     2     1         -0.04704   0.21596  -0.33410  -0.00000   0.45096
   3     2     1         -0.49674   0.45101   0.15054   0.00000  -0.21595
   1     3     1         -0.00000  -0.00000   0.00000  -0.60332  -0.00000
   2     3     1          0.04704  -0.21596  -0.33410  -0.00000  -0.45096
   3     3     1         -0.49674   0.45101  -0.15054  -0.00000  -0.21595
   1     4     1          0.04713   0.21596  -0.00000  -0.33407   0.45095
   2     4     1          0.00000   0.00000  -0.60330  -0.00000  -0.00000
   3     4     1         -0.49684  -0.45090  -0.00000  -0.15053   0.21598
   1     5     1         -0.04713  -0.21596   0.00000  -0.33407  -0.45095
   2     5     1          0.00000   0.00000  -0.60330  -0.00000  -0.00000
   3     5     1         -0.49684  -0.45090  -0.00000   0.15053   0.21598
                           6         7         8         9
                          B2        B1        A2        A1
       Frequencies ---  1634.9281 1634.9491 1759.4468 1976.6103
    Reduced masses ---     1.0147    1.0147    1.0078    1.0087
   Force constants ---     1.5980    1.5981    1.8382    2.3219
    IR Intensities ---   287.1936  287.1672    0.0000    0.5056
 Coord Atom Element:
   1     1    16         -0.00000   0.01492   0.00000   0.00000
   2     1    16         -0.01491  -0.00000   0.00000   0.00000
   3     1    16         -0.00000   0.00000   0.00000  -0.00529
   1     2     1         -0.00000   0.36671  -0.50000  -0.00000
   2     2     1          0.60328   0.00000   0.00000  -0.49823
   3     2     1         -0.03797  -0.00000  -0.00000   0.04193
   1     3     1         -0.00000   0.36671   0.50000   0.00000
   2     3     1          0.60328   0.00000  -0.00000   0.49823
   3     3     1          0.03797   0.00000  -0.00000   0.04193
   1     4     1         -0.00000  -0.60330  -0.00000   0.49823
   2     4     1         -0.36674  -0.00000   0.50000   0.00000
   3     4     1          0.00000  -0.03801   0.00000   0.04194
   1     5     1          0.00000  -0.60330  -0.00000  -0.49823
   2     5     1         -0.36674  -0.00000  -0.50000   0.00000
   3     5     1          0.00000   0.03801   0.00000   0.04194
 Harmonic frequencies (cm**-1), IR intensities (KM/Mole), Raman scattering
 activities (A**4/AMU), depolarization ratios for plane and unpolarized
 incident light, reduced masses (AMU), force constants (mDyne/A),
 and normal coordinates:
                     1                      2                      3
                    A1                     A1                     B2
 Frequencies --   453.7557               843.6640              1408.1964
 Red. masses --     1.1293                 1.0078                 1.1160
 Frc consts  --     0.1370                 0.4226                 1.3039
 IR Inten    --    15.4260                 0.0000               507.6876
  Atom  AN      X      Y      Z        X      Y      Z        X      Y      Z
     1  16    -0.00  -0.00   0.06    -0.00  -0.00  -0.00    -0.00   0.06   0.00
     2   1    -0.00  -0.05  -0.50     0.00   0.22   0.45     0.00  -0.33   0.15
     3   1    -0.00   0.05  -0.50    -0.00  -0.22   0.45     0.00  -0.33  -0.15
     4   1     0.05   0.00  -0.50     0.22   0.00  -0.45    -0.00  -0.60  -0.00
     5   1    -0.05   0.00  -0.50    -0.22   0.00  -0.45     0.00  -0.60  -0.00
                     4                      5                      6
                    B1                     A1                     B2
 Frequencies --  1408.1966              1584.8218              1634.9281
 Red. masses --     1.1160                 1.0078                 1.0147
 Frc consts  --     1.3038                 1.4914                 1.5980
 IR Inten    --   507.6217                 0.0000               287.1936
  Atom  AN      X      Y      Z        X      Y      Z        X      Y      Z
     1  16     0.06   0.00   0.00    -0.00   0.00  -0.00    -0.00  -0.01  -0.00
     2   1    -0.60  -0.00   0.00     0.00   0.45  -0.22    -0.00   0.60  -0.04
     3   1    -0.60  -0.00  -0.00    -0.00  -0.45  -0.22    -0.00   0.60   0.04
     4   1    -0.33  -0.00  -0.15     0.45  -0.00   0.22    -0.00  -0.37   0.00
     5   1    -0.33  -0.00   0.15    -0.45  -0.00   0.22     0.00  -0.37   0.00
                     7                      8                      9
                    B1                     A2                     A1
 Frequencies --  1634.9491              1759.4468              1976.6103
 Red. masses --     1.0147                 1.0078                 1.0087
 Frc consts  --     1.5981                 1.8382                 2.3219
 IR Inten    --   287.1672                 0.0000                 0.5056
  Atom  AN      X      Y      Z        X      Y      Z        X      Y      Z
     1  16     0.01  -0.00   0.00     0.00   0.00   0.00     0.00   0.00  -0.01
     2   1     0.37   0.00  -0.00    -0.50   0.00  -0.00    -0.00  -0.50   0.04
     3   1     0.37   0.00   0.00     0.50  -0.00  -0.00     0.00   0.50   0.04
     4   1    -0.60  -0.00  -0.04    -0.00   0.50   0.00     0.50   0.00   0.04
     5   1    -0.60  -0.00   0.04    -0.00  -0.50   0.00    -0.50   0.00   0.04

 -------------------
 - Thermochemistry -
 -------------------
 Temperature   298.150 Kelvin.  Pressure   1.00000 Atm.
 Atom     1 has atomic number 16 and mass  31.97207
 Atom     2 has atomic number  1 and mass   1.00783
 Atom     3 has atomic number  1 and mass   1.00783
 Atom     4 has atomic number  1 and mass   1.00783
 Atom     5 has atomic number  1 and mass   1.00783
 Molecular mass:    36.00337 amu.
 Principal axes and moments of inertia in atomic units:
                           1         2         3
     Eigenvalues --    15.68591  15.68621  29.99805
           X            0.00000   1.00000   0.00000
           Y            1.00000   0.00000   0.00000
           Z            0.00000   0.00000   1.00000
 This molecule is an asymmetric top.
 Rotational symmetry number  2.
 Rotational temperatures (Kelvin)      5.52176     5.52165     2.88731
 Rotational constants (GHZ):         115.05490   115.05276    60.16195
 Zero-point vibrational energy      75990.2 (Joules/Mol)
                                   18.16209 (Kcal/Mol)
 Warning -- explicit consideration of   1 degrees of freedom as
           vibrations may cause significant error
 Vibrational temperatures:    652.85  1213.84  2026.08  2026.08  2280.20
          (Kelvin)           2352.29  2352.32  2531.45  2843.90
 
 Zero-point correction=                           0.028943 (Hartree/Particle)
 Thermal correction to Energy=                    0.032129
 Thermal correction to Enthalpy=                  0.033073
 Thermal correction to Gibbs Free Energy=         0.007906
 Sum of electronic and zero-point Energies=           -397.688627
 Sum of electronic and thermal Energies=              -397.685442
 Sum of electronic and thermal Enthalpies=            -397.684497
 Sum of electronic and thermal Free Energies=         -397.709665
 
                     E (Thermal)             CV                S
                      KCal/Mol        Cal/Mol-Kelvin    Cal/Mol-Kelvin
 Total                   20.161              8.292             52.969
 Electronic               0.000              0.000              0.000
 Translational            0.889              2.981             36.673
 Rotational               0.889              2.981             15.275
 Vibrational             18.384              2.331              1.021
 Vibration     1          0.812              1.353              0.784
                       Q            Log10(Q)             Ln(Q)
 Total Bot       0.231003D-03         -3.636383         -8.373082
 Total V=0       0.474796D+10          9.676507         22.280982
 Vib (Bot)       0.559461D-13        -13.252230        -30.514387
 Vib (Bot)    1  0.376774D+00         -0.423919         -0.976108
 Vib (V=0)       0.114990D+01          0.060661          0.139676
 Vib (V=0)    1  0.112607D+01          0.051564          0.118730
 Electronic      0.100000D+01          0.000000          0.000000
 Translational   0.849122D+07          6.928970         15.954543
 Rotational      0.486269D+03          2.686877          6.186762
 ***** Axes restored to original set *****
 -------------------------------------------------------------------
 Center     Atomic                   Forces (Hartrees/Bohr)
 Number     Number              X              Y              Z
 -------------------------------------------------------------------
      1       16          -0.000005637    0.000000000    0.000000000
      2        1          -0.000000477   -0.000000000    0.000004960
      3        1          -0.000000477   -0.000000000   -0.000004960
      4        1           0.000003296   -0.000005751    0.000000000
      5        1           0.000003296    0.000005751   -0.000000000
 -------------------------------------------------------------------
 Cartesian Forces:  Max     0.000005751 RMS     0.000003360

 GradGradGradGradGradGradGradGradGradGradGradGradGradGradGradGradGradGrad
 Berny optimization.
 Internal  Forces:  Max     0.000006250 RMS     0.000003637
 Search for a local minimum.
 Step number   1 out of a maximum of    2
 All quantities printed in internal units (Hartrees-Bohrs-Radians)
 Second derivative matrix not updated -- analytic derivatives used.
 The second derivative matrix:
                          R1        R2        R3        R4        A1
           R1           0.10479
           R2           0.01438   0.10479
           R3           0.01445   0.01445   0.10479
           R4           0.01445   0.01445   0.01438   0.10479
           A1           0.00082   0.00029   0.00582  -0.00465   0.07256
           A2           0.00272   0.00115  -0.00489   0.00626  -0.07592
           A3           0.00029   0.00082   0.00582  -0.00465  -0.03742
           A4           0.00115   0.00272  -0.00489   0.00626   0.03909
           A5           0.01958   0.01958  -0.00700  -0.00375  -0.00441
           A6           0.00110   0.00110   0.01164  -0.00930   0.03513
           A7          -0.00394  -0.00394   0.01123   0.01566  -0.00661
           D1          -0.00109   0.00546  -0.00731  -0.00610  -0.00339
           D2          -0.00546   0.00109   0.00731   0.00610   0.00142
                          A2        A3        A4        A5        A6
           A2           0.08130
           A3           0.03909   0.07256
           A4          -0.04043  -0.07592   0.08130
           A5           0.01122  -0.00441   0.01122   0.07374
           A6          -0.03683   0.03513  -0.03683  -0.00882   0.07026
           A7           0.00752  -0.00661   0.00752  -0.02920  -0.01321
           D1           0.00121  -0.00142   0.00360   0.01708  -0.00481
           D2          -0.00360   0.00339  -0.00121  -0.01708   0.00481
                          A7        D1        D2
           A7           0.03760
           D1          -0.01656   0.01590
           D2           0.01656  -0.00219   0.01590
 ITU=  0
     Eigenvalues ---    0.01381   0.02009   0.06281   0.08336   0.09099
     Eigenvalues ---    0.12849   0.15009   0.15960   0.23102
 Angle between quadratic step and forces=  44.33 degrees.
 Linear search not attempted -- first point.
 Iteration  1 RMS(Cart)=  0.00004922 RMS(Int)=  0.00000000
 Iteration  2 RMS(Cart)=  0.00000000 RMS(Int)=  0.00000000
 ClnCor:  largest displacement from symmetrization is 2.24D-09 for atom     5.
 Variable       Old X    -DE/DX   Delta X   Delta X   Delta X     New X
                                 (Linear)    (Quad)   (Total)
    R1        2.76283  -0.00000   0.00000  -0.00005  -0.00005   2.76278
    R2        2.76283  -0.00000   0.00000  -0.00005  -0.00005   2.76278
    R3        2.76282  -0.00001   0.00000  -0.00004  -0.00004   2.76278
    R4        2.76282  -0.00001   0.00000  -0.00004  -0.00004   2.76278
    A1        1.54565   0.00000   0.00000   0.00002   0.00002   1.54567
    A2        1.54565   0.00000   0.00000   0.00002   0.00002   1.54567
    A3        1.54565   0.00000   0.00000   0.00002   0.00002   1.54567
    A4        1.54565   0.00000   0.00000   0.00002   0.00002   1.54567
    A5        2.82308   0.00001   0.00000   0.00014   0.00014   2.82322
    A6        3.09130   0.00000   0.00000   0.00003   0.00003   3.09133
    A7        2.82713  -0.00000   0.00000   0.00005   0.00005   2.82718
    D1       -1.41356   0.00000   0.00000  -0.00003  -0.00003  -1.41359
    D2        1.41356  -0.00000   0.00000   0.00003   0.00003   1.41359
         Item               Value     Threshold  Converged?
 Maximum Force            0.000006     0.000450     YES
 RMS     Force            0.000004     0.000300     YES
 Maximum Displacement     0.000112     0.001800     YES
 RMS     Displacement     0.000049     0.001200     YES
 Predicted change in Energy=-8.640379D-10
 Optimization completed.
    -- Stationary point found.
                           ----------------------------
                           !   Optimized Parameters   !
                           ! (Angstroms and Degrees)  !
 --------------------------                            --------------------------
 ! Name  Definition              Value          Derivative Info.                !
 --------------------------------------------------------------------------------
 ! R1    R(1,2)                  1.462          -DE/DX =    0.0                 !
 ! R2    R(1,3)                  1.462          -DE/DX =    0.0                 !
 ! R3    R(1,4)                  1.462          -DE/DX =    0.0                 !
 ! R4    R(1,5)                  1.462          -DE/DX =    0.0                 !
 ! A1    A(2,1,4)               88.5593         -DE/DX =    0.0                 !
 ! A2    A(2,1,5)               88.5593         -DE/DX =    0.0                 !
 ! A3    A(3,1,4)               88.5593         -DE/DX =    0.0                 !
 ! A4    A(3,1,5)               88.5593         -DE/DX =    0.0                 !
 ! A5    A(4,1,5)              161.7507         -DE/DX =    0.0                 !
 ! A6    L(2,1,3,4,-1)         177.1186         -DE/DX =    0.0                 !
 ! A7    L(2,1,3,4,-2)         161.9826         -DE/DX =    0.0                 !
 ! D1    D(2,1,5,4)            -80.9913         -DE/DX =    0.0                 !
 ! D2    D(3,1,5,4)             80.9913         -DE/DX =    0.0                 !
 --------------------------------------------------------------------------------
 GradGradGradGradGradGradGradGradGradGradGradGradGradGradGradGradGradGrad

 1\1\GINC-SRU02\Freq\RMP2-FC\3-21G\H4S1\CENT\23-Jun-2024\0\\#N Geom=All
 Check Guess=TCheck SCRF=Check GenChk RMP2(FC)/3-21G Freq\\Title Card R
 equired\\0,1\S,1.1462958117,0.01156046,0.58495219\H,0.9145039047,0.011
 56046,-0.8585824143\H,0.9145039047,0.01156046,2.0284867943\H,0.9144444
 879,1.4550809641,0.58495219\H,0.9144444879,-1.4319600441,0.58495219\\V
 ersion=AM64L-G09RevC.01\State=1-A1\HF=-397.6239244\MP2=-397.7175703\RM
 SD=3.742e-11\RMSF=3.360e-06\ZeroPoint=0.0289431\Thermal=0.0321287\Dipo
 le=-0.2152639,0.,0.\DipoleDeriv=-0.2408956,0.,0.,0.,1.5260418,0.,0.,0.
 ,1.5261147,0.0602147,0.,-0.1619909,0.,-0.2108302,0.,0.0057901,0.,-0.55
 22376,0.0602147,0.,0.1619909,0.,-0.2108302,0.,-0.0057901,0.,-0.5522376
 ,0.0602331,0.1620006,0.,-0.0057484,-0.5521907,0.,0.,0.,-0.2108198,0.06
 02331,-0.1620006,0.,0.0057484,-0.5521907,0.,0.,0.,-0.2108198\Polar=6.9
 649831,0.,31.2750071,0.,0.,31.2760672\PG=C02V [C2(S1),SGV(H2),SGV'(H2)
 ]\NImag=0\\0.03186188,0.,0.26273861,0.,0.,0.26273657,-0.00796614,0.,-0
 .02109555,0.01367483,0.,-0.05968625,0.,0.,0.06799547,-0.01178285,0.,-0
 .07168165,0.01538571,0.,0.10219638,-0.00796614,0.,0.02109555,0.0102852
 5,0.,0.00387615,0.01367483,0.,-0.05968625,0.,0.,0.00896167,0.,0.,0.067
 99547,0.01178285,0.,-0.07168165,-0.00387615,0.,-0.01324449,-0.01538571
 ,0.,0.10219638,-0.00796479,0.02109642,0.,-0.00799697,-0.00479176,-0.00
 373951,-0.00799697,-0.00479176,0.00373951,0.01367442,0.01179020,-0.071
 68305,0.,0.00373822,-0.00863544,-0.01622674,0.00373822,-0.00863544,0.0
 1622674,-0.01538977,0.10219709,0.,0.,-0.05968664,0.00479299,-0.0295162
 8,-0.00863512,-0.00479299,0.02951628,-0.00863512,0.,0.,0.06799606,-0.0
 0796479,-0.02109642,0.,-0.00799697,0.00479176,-0.00373951,-0.00799697,
 0.00479176,0.00373951,0.01028430,-0.00387688,0.,0.01367442,-0.01179020
 ,-0.07168305,0.,-0.00373822,-0.00863544,0.01622674,-0.00373822,-0.0086
 3544,-0.01622674,0.00387688,-0.01324316,0.,0.01538977,0.10219709,0.,0.
 ,-0.05968664,0.00479299,0.02951628,-0.00863512,-0.00479299,-0.02951628
 ,-0.00863512,0.,0.,0.00896081,0.,0.,0.06799606\\0.00000564,0.,0.,0.000
 00048,0.,-0.00000496,0.00000048,0.,0.00000496,-0.00000330,0.00000575,0
 .,-0.00000330,-0.00000575,0.\\\@


 JUST WHEN YOU THINK YOU'VE GOT THE WORLD ON A STRING,
 YOU FIND OUT IT'S YOUR LEASH.
 Job cpu time:  0 days  0 hours  0 minutes  1.8 seconds.
 File lengths (MBytes):  RWF=     20 Int=      0 D2E=      0 Chk=      2 Scr=      1
 Normal termination of Gaussian 09 at Sun Jun 23 21:04:35 2024.
