 Entering Gaussian System, Link 0=g09
 Input=SnO2.gjf
 Output=SnO2.log
 Initial command:
 /usr/local/g09/l1.exe /scratch/james/Gau-22280.inp -scrdir=/scratch/james/
 Entering Link 1 = /usr/local/g09/l1.exe PID=     22283.
  
 Copyright (c) 1988,1990,1992,1993,1995,1998,2003,2009,2011,
            Gaussian, Inc.  All Rights Reserved.
  
 This is part of the Gaussian(R) 09 program.  It is based on
 the Gaussian(R) 03 system (copyright 2003, Gaussian, Inc.),
 the Gaussian(R) 98 system (copyright 1998, Gaussian, Inc.),
 the Gaussian(R) 94 system (copyright 1995, Gaussian, Inc.),
 the Gaussian 92(TM) system (copyright 1992, Gaussian, Inc.),
 the Gaussian 90(TM) system (copyright 1990, Gaussian, Inc.),
 the Gaussian 88(TM) system (copyright 1988, Gaussian, Inc.),
 the Gaussian 86(TM) system (copyright 1986, Carnegie Mellon
 University), and the Gaussian 82(TM) system (copyright 1983,
 Carnegie Mellon University). Gaussian is a federally registered
 trademark of Gaussian, Inc.
  
 This software contains proprietary and confidential information,
 including trade secrets, belonging to Gaussian, Inc.
  
 This software is provided under written license and may be
 used, copied, transmitted, or stored only in accord with that
 written license.
  
 The following legend is applicable only to US Government
 contracts under FAR:
  
                    RESTRICTED RIGHTS LEGEND
  
 Use, reproduction and disclosure by the US Government is
 subject to restrictions as set forth in subparagraphs (a)
 and (c) of the Commercial Computer Software - Restricted
 Rights clause in FAR 52.227-19.
  
 Gaussian, Inc.
 340 Quinnipiac St., Bldg. 40, Wallingford CT 06492
  
  
 ---------------------------------------------------------------
 Warning -- This program may not be used in any manner that
 competes with the business of Gaussian, Inc. or will provide
 assistance to any competitor of Gaussian, Inc.  The licensee
 of this program is prohibited from giving any competitor of
 Gaussian, Inc. access to this program.  By using this program,
 the user acknowledges that Gaussian, Inc. is engaged in the
 business of creating and licensing software in the field of
 computational chemistry and represents and warrants to the
 licensee that it is not a competitor of Gaussian, Inc. and that
 it will not use this program in any manner prohibited above.
 ---------------------------------------------------------------
  

 Cite this work as:
 Gaussian 09, Revision C.01,
 M. J. Frisch, G. W. Trucks, H. B. Schlegel, G. E. Scuseria, 
 M. A. Robb, J. R. Cheeseman, G. Scalmani, V. Barone, B. Mennucci, 
 G. A. Petersson, H. Nakatsuji, M. Caricato, X. Li, H. P. Hratchian, 
 A. F. Izmaylov, J. Bloino, G. Zheng, J. L. Sonnenberg, M. Hada, 
 M. Ehara, K. Toyota, R. Fukuda, J. Hasegawa, M. Ishida, T. Nakajima, 
 Y. Honda, O. Kitao, H. Nakai, T. Vreven, J. A. Montgomery, Jr., 
 J. E. Peralta, F. Ogliaro, M. Bearpark, J. J. Heyd, E. Brothers, 
 K. N. Kudin, V. N. Staroverov, T. Keith, R. Kobayashi, J. Normand, 
 K. Raghavachari, A. Rendell, J. C. Burant, S. S. Iyengar, J. Tomasi, 
 M. Cossi, N. Rega, J. M. Millam, M. Klene, J. E. Knox, J. B. Cross, 
 V. Bakken, C. Adamo, J. Jaramillo, R. Gomperts, R. E. Stratmann, 
 O. Yazyev, A. J. Austin, R. Cammi, C. Pomelli, J. W. Ochterski, 
 R. L. Martin, K. Morokuma, V. G. Zakrzewski, G. A. Voth, 
 P. Salvador, J. J. Dannenberg, S. Dapprich, A. D. Daniels, 
 O. Farkas, J. B. Foresman, J. V. Ortiz, J. Cioslowski, 
 and D. J. Fox, Gaussian, Inc., Wallingford CT, 2010.
 
 ******************************************
 Gaussian 09:  AM64L-G09RevC.01 23-Sep-2011
                 5-Sep-2023 
 ******************************************
 %chk=SnO2.chk
 ----------------------------------------------
 # opt freq=hpmodes mp2/3-21g geom=connectivity
 ----------------------------------------------
 1/18=20,19=15,38=1,57=2/1,3;
 2/9=110,12=2,17=6,18=5,40=1/2;
 3/5=5,11=9,16=1,25=1,30=1,71=1/1,2,3;
 4//1;
 5/5=2,38=5/2;
 8/6=4,10=1/1;
 9/15=2,16=-3/6;
 10/5=1/2;
 6/7=2,8=2,9=2,10=2/1;
 7/12=2/1,2,3,16;
 1/18=20,19=15/3(2);
 2/9=110/2;
 99//99;
 2/9=110/2;
 3/5=5,11=9,16=1,25=1,30=1,71=1/1,2,3;
 4/5=5,16=3/1;
 5/5=2,38=5/2;
 8/6=4,10=1/1;
 9/15=2,16=-3/6;
 10/5=1/2;
 7/12=2/1,2,3,16;
 1/18=20,19=15/3(-8);
 2/9=110/2;
 6/7=2,8=2,9=2,10=2/1;
 99//99;
 -------------------
 Title Card Required
 -------------------
 Charge =  0 Multiplicity = 1
 Symbolic Z-Matrix:
 Sn                    0.        0.        0. 
 O                     0.        0.        1.85978 
 O                     0.        0.       -1.85978 
 

 GradGradGradGradGradGradGradGradGradGradGradGradGradGradGradGradGradGrad
 Berny optimization.
 Initialization pass.
                           ----------------------------
                           !    Initial Parameters    !
                           ! (Angstroms and Degrees)  !
 --------------------------                            --------------------------
 ! Name  Definition              Value          Derivative Info.                !
 --------------------------------------------------------------------------------
 ! R1    R(1,2)                  1.8598         estimate D2E/DX2                !
 ! R2    R(1,3)                  1.8598         estimate D2E/DX2                !
 ! A1    L(2,1,3,-1,-1)        180.0            estimate D2E/DX2                !
 ! A2    L(2,1,3,-2,-2)        180.0            estimate D2E/DX2                !
 --------------------------------------------------------------------------------
 Trust Radius=3.00D-01 FncErr=1.00D-07 GrdErr=1.00D-07
 Number of steps in this run=     20 maximum allowed number of steps=    100.
 GradGradGradGradGradGradGradGradGradGradGradGradGradGradGradGradGradGrad

                          Input orientation:                          
 ---------------------------------------------------------------------
 Center     Atomic      Atomic             Coordinates (Angstroms)
 Number     Number       Type             X           Y           Z
 ---------------------------------------------------------------------
      1         50           0        0.000000    0.000000    0.000000
      2          8           0        0.000000    0.000000    1.859780
      3          8           0        0.000000    0.000000   -1.859780
 ---------------------------------------------------------------------
                    Distance matrix (angstroms):
                    1          2          3
     1  Sn   0.000000
     2  O    1.859780   0.000000
     3  O    1.859780   3.719560   0.000000
 Stoichiometry    O2Sn
 Framework group  D*H[O(Sn),C*(O.O)]
 Deg. of freedom     1
 Full point group                 D*H     NOp   8
 Largest Abelian subgroup         D2H     NOp   8
 Largest concise Abelian subgroup C2      NOp   2
                         Standard orientation:                         
 ---------------------------------------------------------------------
 Center     Atomic      Atomic             Coordinates (Angstroms)
 Number     Number       Type             X           Y           Z
 ---------------------------------------------------------------------
      1         50           0        0.000000    0.000000    0.000000
      2          8           0        0.000000    0.000000    1.859780
      3          8           0        0.000000    0.000000   -1.859780
 ---------------------------------------------------------------------
 Rotational constants (GHZ):      0.0000000      4.5675376      4.5675376
 Standard basis: 3-21G (6D, 7F)
 There are    17 symmetry adapted basis functions of AG  symmetry.
 There are     2 symmetry adapted basis functions of B1G symmetry.
 There are     4 symmetry adapted basis functions of B2G symmetry.
 There are     4 symmetry adapted basis functions of B3G symmetry.
 There are     0 symmetry adapted basis functions of AU  symmetry.
 There are    10 symmetry adapted basis functions of B1U symmetry.
 There are     7 symmetry adapted basis functions of B2U symmetry.
 There are     7 symmetry adapted basis functions of B3U symmetry.
 Integral buffers will be    131072 words long.
 Raffenetti 1 integral format.
 Two-electron integral symmetry is turned on.
    51 basis functions,   117 primitive gaussians,    51 cartesian basis functions
    33 alpha electrons       33 beta electrons
       nuclear repulsion energy       236.7352254282 Hartrees.
 NAtoms=    3 NActive=    3 NUniq=    2 SFac= 2.25D+00 NAtFMM=   60 NAOKFM=F Big=F
 One-electron integrals computed using PRISM.
 NBasis=    51 RedAO= T  NBF=    17     2     4     4     0    10     7     7
 NBsUse=    51 1.00D-06 NBFU=    17     2     4     4     0    10     7     7
 Harris functional with IExCor=  205 diagonalized for initial guess.
 ExpMin= 7.06D-02 ExpMax= 1.27D+04 ExpMxC= 1.27D+04 IAcc=2 IRadAn=         4 AccDes= 0.00D+00
 HarFok:  IExCor=  205 AccDes= 0.00D+00 IRadAn=         4 IDoV= 1
 ScaDFX=  1.000000  1.000000  1.000000  1.000000
 Defaulting to unpruned grid for atomic number  50.
 FoFCou: FMM=F IPFlag=           0 FMFlag=      100000 FMFlg1=           0
         NFxFlg=           0 DoJE=T BraDBF=F KetDBF=T FulRan=T
         Omega=  0.000000  0.000000  1.000000  0.000000  0.000000 ICntrl=     500 IOpCl=  0
         NMat0=    1 NMatS0=    1 NMatT0=    0 NMatD0=    1 NMtDS0=    0 NMtDT0=    0
         I1Cent=           4 NGrid=           0.
 Petite list used in FoFCou.
 Initial guess orbital symmetries:
       Occupied  (SGG) (SGG) (SGU) (PIU) (PIU) (SGG) (SGU) (PIU)
                 (PIU) (SGU) (SGG) (SGG) (PIG) (PIG) (DLTG) (DLTG)
                 (SGG) (SGU) (PIU) (PIU) (SGG) (SGU) (PIG) (PIG)
                 (DLTG) (DLTG) (SGG) (SGG) (SGU) (PIU) (PIU) (PIG)
                 (PIG)
       Virtual   (SGG) (PIU) (PIU) (SGU) (SGG) (PIU) (PIU) (SGU)
                 (PIG) (PIG) (PIU) (PIU) (SGG) (SGU) (SGG) (SGU)
                 (SGG) (SGG)
 The electronic state of the initial guess is 1-SGG.
 Requested convergence on RMS density matrix=1.00D-08 within 128 cycles.
 Requested convergence on MAX density matrix=1.00D-06.
 Requested convergence on             energy=1.00D-06.
 No special actions if energy rises.
 Keep R1 ints in memory in canonical form, NReq=1726596.
 SCF Done:  E(RHF) =  -6145.42800532     A.U. after   12 cycles
             Convg  =    0.3621D-08             -V/T =  2.0030
 ExpMin= 7.06D-02 ExpMax= 1.27D+04 ExpMxC= 1.27D+04 IAcc=3 IRadAn=         5 AccDes= 0.00D+00
 HarFok:  IExCor=  205 AccDes= 0.00D+00 IRadAn=         5 IDoV=-2
 ScaDFX=  1.000000  1.000000  1.000000  1.000000
 Defaulting to unpruned grid for atomic number  50.
 Range of M.O.s used for correlation:    21    51
 NBasis=    51 NAE=    33 NBE=    33 NFC=    20 NFV=     0
 NROrb=     31 NOA=    13 NOB=    13 NVA=    18 NVB=    18

 **** Warning!!: The largest alpha MO coefficient is  0.21240303D+02

 Fully direct method using O(ONN) memory.
 JobTyp=1 Pass  1:  I=  21 to  33 NPSUse=  1 ParTrn=F ParDer=F DoDerP=T.
 Spin components of T(2) and E(2):
     alpha-alpha T2 =       0.2769412884D-01 E2=     -0.5119276375D-01
     alpha-beta  T2 =       0.1309043686D+00 E2=     -0.2551735577D+00
     beta-beta   T2 =       0.2769412884D-01 E2=     -0.5119276375D-01
 ANorm=    0.1089170614D+01
 E2 =    -0.3575590852D+00 EUMP2 =    -0.61457855644074D+04
          IDoAtm=111
          Differentiating once with respect to electric field.
                with respect to dipole field.
          Differentiating once with respect to nuclear coordinates.
          Keep R1 ints in memory in canonical form, NReq=1700857.
          There are     1 degrees of freedom in the 1st order CPHF.  IDoFFX=0.
 LinEq1:  Iter=  0 NonCon=     1 RMS=3.06D-02 Max=4.77D-01
 AX will form     1 AO Fock derivatives at one time.
 LinEq1:  Iter=  1 NonCon=     1 RMS=9.68D-03 Max=1.37D-01
 LinEq1:  Iter=  2 NonCon=     1 RMS=4.00D-03 Max=4.96D-02
 LinEq1:  Iter=  3 NonCon=     1 RMS=9.71D-04 Max=1.26D-02
 LinEq1:  Iter=  4 NonCon=     1 RMS=9.61D-05 Max=1.04D-03
 LinEq1:  Iter=  5 NonCon=     1 RMS=7.09D-06 Max=6.30D-05
 LinEq1:  Iter=  6 NonCon=     1 RMS=3.31D-07 Max=3.38D-06
 LinEq1:  Iter=  7 NonCon=     1 RMS=4.09D-08 Max=5.31D-07
 LinEq1:  Iter=  8 NonCon=     1 RMS=3.51D-09 Max=2.81D-08
 LinEq1:  Iter=  9 NonCon=     1 RMS=2.90D-10 Max=3.00D-09
 LinEq1:  Iter= 10 NonCon=     0 RMS=1.99D-11 Max=1.55D-10
 Linear equations converged to 1.000D-10 1.000D-09 after    10 iterations.
 End of Minotr Frequency-dependent properties file   721 does not exist.
 End of Minotr Frequency-dependent properties file   722 does not exist.

 **********************************************************************

            Population analysis using the SCF density.

 **********************************************************************

 Orbital symmetries:
       Occupied  (SGG) (SGG) (PIU) (PIU) (SGU) (SGG) (PIU) (PIU)
                 (SGU) (SGU) (SGG) (DLTG) (DLTG) (PIG) (PIG) (SGG)
                 (SGG) (PIU) (PIU) (SGU) (SGG) (DLTG) (DLTG) (PIG)
                 (PIG) (SGU) (SGG) (SGG) (PIU) (PIU) (SGU) (PIG)
                 (PIG)
       Virtual   (SGG) (PIU) (PIU) (SGU) (PIU) (PIU) (SGG) (SGU)
                 (PIG) (PIG) (PIU) (PIU) (SGG) (SGU) (SGG) (SGG)
                 (SGU) (SGG)
 The electronic state is 1-SGG.
 Alpha  occ. eigenvalues -- **********-156.30165-145.45074-145.45074-145.44944
 Alpha  occ. eigenvalues --  -31.59286 -26.97163 -26.97163 -26.96479 -20.41214
 Alpha  occ. eigenvalues --  -20.41140 -19.13794 -19.13794 -19.13235 -19.13235
 Alpha  occ. eigenvalues --  -19.13134  -5.60083  -3.98658  -3.98658  -3.97675
 Alpha  occ. eigenvalues --   -1.49237  -1.47378  -1.47378  -1.46212  -1.46212
 Alpha  occ. eigenvalues --   -1.18739  -1.16199  -0.53775  -0.45508  -0.45508
 Alpha  occ. eigenvalues --   -0.40247  -0.40157  -0.40157
 Alpha virt. eigenvalues --    0.03827   0.03857   0.03857   0.23169   0.34250
 Alpha virt. eigenvalues --    0.34250   0.35306   0.63245   1.82038   1.82038
 Alpha virt. eigenvalues --    1.88867   1.88867   1.99057   2.09167   2.75862
 Alpha virt. eigenvalues --    2.95683   3.14670 210.78953
          Condensed to atoms (all electrons):
              1          2          3
     1  Sn  48.035046   0.296593   0.296593
     2  O    0.296593   8.389491  -0.000200
     3  O    0.296593  -0.000200   8.389491
 Mulliken atomic charges:
              1
     1  Sn   1.371768
     2  O   -0.685884
     3  O   -0.685884
 Sum of Mulliken atomic charges =  -0.00000
 Mulliken charges with hydrogens summed into heavy atoms:
              1
     1  Sn   1.371768
     2  O   -0.685884
     3  O   -0.685884
 Sum of Mulliken charges with hydrogens summed into heavy atoms =  -0.00000
 Electronic spatial extent (au):  <R**2>=            284.5671
 Charge=             -0.0000 electrons
 Dipole moment (field-independent basis, Debye):
    X=             -0.0000    Y=             -0.0000    Z=              0.0000  Tot=              0.0000
 Quadrupole moment (field-independent basis, Debye-Ang):
   XX=            -30.7054   YY=            -30.7054   ZZ=            -55.5299
   XY=             -0.0000   XZ=              0.0000   YZ=              0.0000
 Traceless Quadrupole moment (field-independent basis, Debye-Ang):
   XX=              8.2749   YY=              8.2749   ZZ=            -16.5497
   XY=             -0.0000   XZ=              0.0000   YZ=              0.0000
 Octapole moment (field-independent basis, Debye-Ang**2):
  XXX=             -0.0000  YYY=              0.0000  ZZZ=              0.0000  XYY=             -0.0000
  XXY=              0.0000  XXZ=             -0.0000  XZZ=             -0.0000  YZZ=              0.0000
  YYZ=              0.0000  XYZ=              0.0000
 Hexadecapole moment (field-independent basis, Debye-Ang**3):
 XXXX=            -27.7089 YYYY=            -27.7089 ZZZZ=           -336.2457 XXXY=             -0.0000
 XXXZ=              0.0000 YYYX=             -0.0000 YYYZ=              0.0000 ZZZX=              0.0000
 ZZZY=              0.0000 XXYY=             -9.2363 XXZZ=            -51.1572 YYZZ=            -51.1572
 XXYZ=              0.0000 YYXZ=              0.0000 ZZXY=             -0.0000
 N-N= 2.367352254282D+02 E-N=-1.507792101874D+04  KE= 6.127206915786D+03
 Symmetry AG   KE= 3.470241873339D+03
 Symmetry B1G  KE= 1.586344820427D+02
 Symmetry B2G  KE= 1.631878579596D+02
 Symmetry B3G  KE= 1.631878579596D+02
 Symmetry AU   KE= 0.000000000000D+00
 Symmetry B1U  KE= 7.672696037033D+02
 Symmetry B2U  KE= 7.023426203911D+02
 Symmetry B3U  KE= 7.023426203911D+02
 Calling FoFJK, ICntrl=      2127 FMM=F ISym2X=1 I1Cent= 0 IOpClX= 0 NMat=1 NMatS=1 NMatT=0.
 ***** Axes restored to original set *****
 -------------------------------------------------------------------
 Center     Atomic                   Forces (Hartrees/Bohr)
 Number     Number              X              Y              Z
 -------------------------------------------------------------------
      1       50           0.000000000    0.000000000   -0.000000000
      2        8          -0.000000000   -0.000000000    0.000014972
      3        8          -0.000000000   -0.000000000   -0.000014972
 -------------------------------------------------------------------
 Cartesian Forces:  Max     0.000014972 RMS     0.000007058

 GradGradGradGradGradGradGradGradGradGradGradGradGradGradGradGradGradGrad
 Berny optimization.
 Internal  Forces:  Max     0.000014972 RMS     0.000010587
 Search for a local minimum.
 Step number   1 out of a maximum of   20
 All quantities printed in internal units (Hartrees-Bohrs-Radians)
 Mixed Optimization -- En-DIIS/RFO-DIIS
 Second derivative matrix not updated -- first step.
 The second derivative matrix:
                          R1        R2        A1        A2
           R1           0.26965
           R2           0.00000   0.26965
           A1           0.00000   0.00000   0.00230
           A2           0.00000   0.00000   0.00000   0.00230
 ITU=  0
     Eigenvalues ---    0.00230   0.00230   0.26965   0.26965
 RFO step:  Lambda= 0.00000000D+00 EMin= 2.30000000D-03
 Linear search not attempted -- first point.
 Iteration  1 RMS(Cart)=  0.00003926 RMS(Int)=  0.00000000
 Iteration  2 RMS(Cart)=  0.00000000 RMS(Int)=  0.00000000
 ClnCor:  largest displacement from symmetrization is 2.34D-11 for atom     1.
 Variable       Old X    -DE/DX   Delta X   Delta X   Delta X     New X
                                 (Linear)    (Quad)   (Total)
    R1        3.51447   0.00001   0.00000   0.00006   0.00006   3.51453
    R2        3.51447   0.00001   0.00000   0.00006   0.00006   3.51453
    A1        3.14159   0.00000   0.00000   0.00000   0.00000   3.14159
    A2        3.14159  -0.00000   0.00000  -0.00000   0.00000   3.14159
         Item               Value     Threshold  Converged?
 Maximum Force            0.000015     0.000450     YES
 RMS     Force            0.000011     0.000300     YES
 Maximum Displacement     0.000056     0.001800     YES
 RMS     Displacement     0.000039     0.001200     YES
 Predicted change in Energy=-8.312412D-10
 Optimization completed.
    -- Stationary point found.
                           ----------------------------
                           !   Optimized Parameters   !
                           ! (Angstroms and Degrees)  !
 --------------------------                            --------------------------
 ! Name  Definition              Value          Derivative Info.                !
 --------------------------------------------------------------------------------
 ! R1    R(1,2)                  1.8598         -DE/DX =    0.0                 !
 ! R2    R(1,3)                  1.8598         -DE/DX =    0.0                 !
 ! A1    L(2,1,3,-1,-1)        180.0            -DE/DX =    0.0                 !
 ! A2    L(2,1,3,-2,-2)        180.0            -DE/DX =    0.0                 !
 --------------------------------------------------------------------------------
 GradGradGradGradGradGradGradGradGradGradGradGradGradGradGradGradGradGrad

                          Input orientation:                          
 ---------------------------------------------------------------------
 Center     Atomic      Atomic             Coordinates (Angstroms)
 Number     Number       Type             X           Y           Z
 ---------------------------------------------------------------------
      1         50           0        0.000000    0.000000    0.000000
      2          8           0        0.000000    0.000000    1.859780
      3          8           0        0.000000    0.000000   -1.859780
 ---------------------------------------------------------------------
                    Distance matrix (angstroms):
                    1          2          3
     1  Sn   0.000000
     2  O    1.859780   0.000000
     3  O    1.859780   3.719560   0.000000
 Stoichiometry    O2Sn
 Framework group  D*H[O(Sn),C*(O.O)]
 Deg. of freedom     1
 Full point group                 D*H     NOp   8
 Largest Abelian subgroup         D2H     NOp   8
 Largest concise Abelian subgroup C2      NOp   2
                         Standard orientation:                         
 ---------------------------------------------------------------------
 Center     Atomic      Atomic             Coordinates (Angstroms)
 Number     Number       Type             X           Y           Z
 ---------------------------------------------------------------------
      1         50           0        0.000000    0.000000    0.000000
      2          8           0        0.000000    0.000000    1.859780
      3          8           0        0.000000    0.000000   -1.859780
 ---------------------------------------------------------------------
 Rotational constants (GHZ):      0.0000000      4.5675376      4.5675376
 1\1\GINC-SRU01\FOpt\RMP2-FC\3-21G\O2Sn1\JAMES\05-Sep-2023\0\\# opt fre
 q=hpmodes mp2/3-21g geom=connectivity\\Title Card Required\\0,1\Sn,0.,
 0.,0.\O,0.,0.,1.85978\O,0.,0.,-1.85978\\Version=AM64L-G09RevC.01\State
 =1-SGG\HF=-6145.4280053\MP2=-6145.7855644\RMSD=3.621e-09\RMSF=7.058e-0
 6\Dipole=0.,0.,0.\PG=D*H [O(Sn1),C*(O1.O1)]\\@


  ON THE CHOICE OF THE CORRECT LANGUAGE -
 I SPEAK SPANISH TO GOD, ITALIAN TO WOMEN,
 FRENCH TO MEN, AND GERMAN TO MY HORSE.
          -- CHARLES V
 Job cpu time:  0 days  0 hours  0 minutes  2.3 seconds.
 File lengths (MBytes):  RWF=      5 Int=      0 D2E=      0 Chk=      2 Scr=      1
 Normal termination of Gaussian 09 at Tue Sep  5 09:44:51 2023.
 Link1:  Proceeding to internal job step number  2.
 -------------------------------------------------------------------
 #N Geom=AllCheck Guess=TCheck SCRF=Check GenChk RMP2(FC)/3-21G Freq
 -------------------------------------------------------------------
 1/10=4,29=7,30=1,38=1,40=1/1,3;
 2/12=2,40=1/2;
 3/5=5,11=1,14=-4,16=1,25=1,30=1,70=2,71=2,116=1/1,2,3;
 4/5=101/1;
 5/5=2,98=1/2;
 8/6=3,8=1,10=1,19=11,30=-1/1;
 9/15=3,16=-3/6;
 11/6=1,8=1,15=11,17=12,24=-1,27=1,28=-2,29=300,32=6,42=3/1,2,10;
 10/6=2,21=1/2;
 8/6=4,8=1,10=1,19=11,30=-1/11,4;
 10/5=1,20=4/2;
 11/12=2,14=11,16=1,17=2,28=-2,42=3/2,10,12;
 6/7=2,8=2,9=2,10=2/1;
 7/8=11,10=1,12=2,25=1,44=2/1,2,3,16;
 1/10=4,30=1/3;
 99//99;
 Structure from the checkpoint file:  SnO2.chk
 -------------------
 Title Card Required
 -------------------
 Charge =  0 Multiplicity = 1
 Redundant internal coordinates found in file.
 Sn,0,0.,0.,0.
 O,0,0.,0.,1.85978
 O,0,0.,0.,-1.85978
 Recover connectivity data from disk.

 GradGradGradGradGradGradGradGradGradGradGradGradGradGradGradGradGradGrad
 Berny optimization.
 Initialization pass.
                           ----------------------------
                           !    Initial Parameters    !
                           ! (Angstroms and Degrees)  !
 --------------------------                            --------------------------
 ! Name  Definition              Value          Derivative Info.                !
 --------------------------------------------------------------------------------
 ! R1    R(1,2)                  1.8598         calculate D2E/DX2 analytically  !
 ! R2    R(1,3)                  1.8598         calculate D2E/DX2 analytically  !
 ! A1    L(2,1,3,-1,-1)        180.0            calculate D2E/DX2 analytically  !
 ! A2    L(2,1,3,-2,-2)        180.0            calculate D2E/DX2 analytically  !
 --------------------------------------------------------------------------------
 Trust Radius=3.00D-01 FncErr=1.00D-07 GrdErr=1.00D-07
 Number of steps in this run=      2 maximum allowed number of steps=      2.
 GradGradGradGradGradGradGradGradGradGradGradGradGradGradGradGradGradGrad

                          Input orientation:                          
 ---------------------------------------------------------------------
 Center     Atomic      Atomic             Coordinates (Angstroms)
 Number     Number       Type             X           Y           Z
 ---------------------------------------------------------------------
      1         50           0        0.000000    0.000000    0.000000
      2          8           0        0.000000    0.000000    1.859780
      3          8           0        0.000000    0.000000   -1.859780
 ---------------------------------------------------------------------
                    Distance matrix (angstroms):
                    1          2          3
     1  Sn   0.000000
     2  O    1.859780   0.000000
     3  O    1.859780   3.719560   0.000000
 Stoichiometry    O2Sn
 Framework group  D*H[O(Sn),C*(O.O)]
 Deg. of freedom     1
 Full point group                 D*H     NOp   8
 Largest Abelian subgroup         D2H     NOp   8
 Largest concise Abelian subgroup C2      NOp   2
                         Standard orientation:                         
 ---------------------------------------------------------------------
 Center     Atomic      Atomic             Coordinates (Angstroms)
 Number     Number       Type             X           Y           Z
 ---------------------------------------------------------------------
      1         50           0        0.000000    0.000000    0.000000
      2          8           0        0.000000    0.000000    1.859780
      3          8           0        0.000000    0.000000   -1.859780
 ---------------------------------------------------------------------
 Rotational constants (GHZ):      0.0000000      4.5675376      4.5675376
 Standard basis: 3-21G (6D, 7F)
 There are    17 symmetry adapted basis functions of AG  symmetry.
 There are     2 symmetry adapted basis functions of B1G symmetry.
 There are     4 symmetry adapted basis functions of B2G symmetry.
 There are     4 symmetry adapted basis functions of B3G symmetry.
 There are     0 symmetry adapted basis functions of AU  symmetry.
 There are    10 symmetry adapted basis functions of B1U symmetry.
 There are     7 symmetry adapted basis functions of B2U symmetry.
 There are     7 symmetry adapted basis functions of B3U symmetry.
 Integral buffers will be    131072 words long.
 Raffenetti 1 integral format.
 Two-electron integral symmetry is turned on.
    51 basis functions,   117 primitive gaussians,    51 cartesian basis functions
    33 alpha electrons       33 beta electrons
       nuclear repulsion energy       236.7352254282 Hartrees.
 NAtoms=    3 NActive=    3 NUniq=    2 SFac= 2.25D+00 NAtFMM=   60 NAOKFM=F Big=F
 One-electron integrals computed using PRISM.
 NBasis=    51 RedAO= T  NBF=    17     2     4     4     0    10     7     7
 NBsUse=    51 1.00D-06 NBFU=    17     2     4     4     0    10     7     7
 Initial guess read from the checkpoint file:  SnO2.chk
 B after Tr=     0.000000    0.000000    0.000000
         Rot=    1.000000    0.000000    0.000000    0.000000 Ang=   0.00 deg.
 Initial guess orbital symmetries:
       Occupied  (SGG) (SGG) (PIU) (PIU) (SGU) (SGG) (PIU) (PIU)
                 (SGU) (SGU) (SGG) (DLTG) (DLTG) (PIG) (PIG) (SGG)
                 (SGG) (PIU) (PIU) (SGU) (SGG) (DLTG) (DLTG) (PIG)
                 (PIG) (SGU) (SGG) (SGG) (PIU) (PIU) (SGU) (PIG)
                 (PIG)
       Virtual   (SGG) (PIU) (PIU) (SGU) (PIU) (PIU) (SGG) (SGU)
                 (PIG) (PIG) (PIU) (PIU) (SGG) (SGU) (SGG) (SGG)
                 (SGU) (SGG)
 Requested convergence on RMS density matrix=1.00D-08 within 128 cycles.
 Requested convergence on MAX density matrix=1.00D-06.
 Requested convergence on             energy=1.00D-06.
 No special actions if energy rises.
 Keep R1 ints in memory in canonical form, NReq=1726596.
 SCF Done:  E(RHF) =  -6145.42800532     A.U. after    1 cycles
             Convg  =    0.2056D-09             -V/T =  2.0030
 ExpMin= 7.06D-02 ExpMax= 1.27D+04 ExpMxC= 1.27D+04 IAcc=3 IRadAn=         5 AccDes= 0.00D+00
 HarFok:  IExCor=  205 AccDes= 0.00D+00 IRadAn=         5 IDoV=-2
 ScaDFX=  1.000000  1.000000  1.000000  1.000000
 Defaulting to unpruned grid for atomic number  50.
 Range of M.O.s used for correlation:    21    51
 NBasis=    51 NAE=    33 NBE=    33 NFC=    20 NFV=     0
 NROrb=     31 NOA=    13 NOB=    13 NVA=    18 NVB=    18

 **** Warning!!: The largest alpha MO coefficient is  0.21240303D+02

 Disk-based method using ON**2 memory for 13 occupieds at a time.
 Permanent disk used for amplitudes=      433620 words.
 Estimated scratch disk usage=     2867240 words.
 Actual    scratch disk usage=     2867240 words.
 JobTyp=1 Pass  1:  I=  21 to  33 NPSUse=  1 ParTrn=F ParDer=F DoDerP=T.
 (rs|ai) integrals will be sorted in core.
 Spin components of T(2) and E(2):
     alpha-alpha T2 =       0.2769412914D-01 E2=     -0.5119276393D-01
     alpha-beta  T2 =       0.1309043698D+00 E2=     -0.2551735584D+00
     beta-beta   T2 =       0.2769412914D-01 E2=     -0.5119276393D-01
 ANorm=    0.1089170615D+01
 E2 =    -0.3575590862D+00 EUMP2 =    -0.61457855644084D+04
 G2DrvN: will do     4 centers at a time, making    1 passes doing MaxLOS=2.
 Calling FoFCou, ICntrl=  3107 FMM=F I1Cent=   0 AccDes= 0.00D+00.
 FoFDir/FoFCou used for L=0 through L=2.
 End of G2Drv Frequency-dependent properties file   721 does not exist.
 End of G2Drv Frequency-dependent properties file   722 does not exist.
          IDoAtm=111
          Differentiating once with respect to electric field.
                with respect to dipole field.
          Differentiating once with respect to nuclear coordinates.
          Keep R1 ints in memory in canonical form, NReq=1700857.
          There are    12 degrees of freedom in the 1st order CPHF.  IDoFFX=5.
      9 vectors produced by pass  0 Test12= 4.95D-15 8.33D-09 XBig12= 4.10D+01 4.38D+00.
 AX will form     9 AO Fock derivatives at one time.
      9 vectors produced by pass  1 Test12= 4.95D-15 8.33D-09 XBig12= 5.25D+00 8.12D-01.
      9 vectors produced by pass  2 Test12= 4.95D-15 8.33D-09 XBig12= 1.98D-01 2.05D-01.
      9 vectors produced by pass  3 Test12= 4.95D-15 8.33D-09 XBig12= 5.09D-04 7.77D-03.
      9 vectors produced by pass  4 Test12= 4.95D-15 8.33D-09 XBig12= 1.40D-06 5.13D-04.
      9 vectors produced by pass  5 Test12= 4.95D-15 8.33D-09 XBig12= 6.16D-09 3.05D-05.
      7 vectors produced by pass  6 Test12= 4.95D-15 8.33D-09 XBig12= 2.11D-11 2.14D-06.
      6 vectors produced by pass  7 Test12= 4.95D-15 8.33D-09 XBig12= 6.80D-14 9.22D-08.
 Inverted reduced A of dimension    67 with in-core refinement.
 End of Minotr Frequency-dependent properties file   721 does not exist.
 End of Minotr Frequency-dependent properties file   722 does not exist.
 MDV=    33554432.
 Form MO integral derivatives with frozen-active canonical formalism.
 Discarding MO integrals.
 Reordered first order wavefunction length =       705672
 In DefCFB: NBatch=  1 ICI= 33 ICA= 18 LFMax= 18
            Large arrays: LIAPS=     6179976 LIARS=     6997914 words.
 Semi-Direct transformation.
 ModeAB=           4 MOrb=            33 LenV=      33360126
 LASXX=       977790 LTotXX=      977790 LenRXX=     2176086
 LTotAB=     1198296 MaxLAS=     1703196 LenRXY=           0
 NonZer=     3153876 LenScr=     5501440 LnRSAI=     1703196
 LnScr1=     3192320 LExtra=           0 Total=     12573042
 MaxDsk=          -1 SrtSym=           T ITran=            4
 JobTyp=0 Pass  1:  I=   1 to  33.
 (rs|ai) integrals will be sorted in core.
 Spin components of T(2) and E(2):
     alpha-alpha T2 =       0.2769412914D-01 E2=     -0.5119276393D-01
     alpha-beta  T2 =       0.1309043698D+00 E2=     -0.2551735584D+00
     beta-beta   T2 =       0.2769412914D-01 E2=     -0.5119276393D-01
 ANorm=    0.1540319855D+01
 E2 =    -0.3575590862D+00 EUMP2 =    -0.61457855644084D+04
          IDoAtm=111
          Differentiating once with respect to electric field.
                with respect to dipole field.
          Differentiating once with respect to nuclear coordinates.
          There are     1 degrees of freedom in the 1st order CPHF.  IDoFFX=0.
 LinEq1:  Iter=  0 NonCon=     1 RMS=3.06D-02 Max=4.77D-01
 LinEq1:  Iter=  1 NonCon=     1 RMS=9.68D-03 Max=1.37D-01
 LinEq1:  Iter=  2 NonCon=     1 RMS=4.00D-03 Max=4.96D-02
 LinEq1:  Iter=  3 NonCon=     1 RMS=9.71D-04 Max=1.26D-02
 LinEq1:  Iter=  4 NonCon=     1 RMS=9.61D-05 Max=1.04D-03
 LinEq1:  Iter=  5 NonCon=     1 RMS=7.09D-06 Max=6.30D-05
 LinEq1:  Iter=  6 NonCon=     1 RMS=3.31D-07 Max=3.38D-06
 LinEq1:  Iter=  7 NonCon=     1 RMS=4.09D-08 Max=5.31D-07
 LinEq1:  Iter=  8 NonCon=     1 RMS=3.51D-09 Max=2.81D-08
 LinEq1:  Iter=  9 NonCon=     1 RMS=2.90D-10 Max=3.00D-09
 LinEq1:  Iter= 10 NonCon=     0 RMS=1.99D-11 Max=1.55D-10
 Linear equations converged to 1.000D-10 1.000D-09 after    10 iterations.
 End of Minotr Frequency-dependent properties file   721 does not exist.
 End of Minotr Frequency-dependent properties file   722 does not exist.
 Symmetrizing basis deriv contribution to polar:
 IMax=3 JMax=2 DiffMx= 0.00D+00
 G2DrvN: will do     4 centers at a time, making    1 passes doing MaxLOS=2.
 Calling FoFCou, ICntrl=  3107 FMM=F I1Cent=   0 AccDes= 0.00D+00.
 FoFDir/FoFCou used for L=0 through L=2.
 End of G2Drv Frequency-dependent properties file   721 does not exist.
 End of G2Drv Frequency-dependent properties file   722 does not exist.
 R2 and R3 integrals will be kept in memory, NReq=     2579602.
 DD1Dir will call FoFMem   1 times, MxPair=      1122
 NAB=   561 NAA=     0 NBB=     0.
 Discarding MO integrals.

 **********************************************************************

            Population analysis using the SCF density.

 **********************************************************************

 Orbital symmetries:
       Occupied  (SGG) (SGG) (PIU) (PIU) (SGU) (SGG) (PIU) (PIU)
                 (SGU) (SGU) (SGG) (DLTG) (DLTG) (PIG) (PIG) (SGG)
                 (SGG) (PIU) (PIU) (SGU) (SGG) (DLTG) (DLTG) (PIG)
                 (PIG) (SGU) (SGG) (SGG) (PIU) (PIU) (SGU) (PIG)
                 (PIG)
       Virtual   (SGG) (PIU) (PIU) (SGU) (PIU) (PIU) (SGG) (SGU)
                 (PIG) (PIG) (PIU) (PIU) (SGG) (SGU) (SGG) (SGG)
                 (SGU) (SGG)
 The electronic state is 1-SGG.
 Alpha  occ. eigenvalues -- **********-156.30165-145.45074-145.45074-145.44944
 Alpha  occ. eigenvalues --  -31.59286 -26.97163 -26.97163 -26.96479 -20.41214
 Alpha  occ. eigenvalues --  -20.41140 -19.13794 -19.13794 -19.13235 -19.13235
 Alpha  occ. eigenvalues --  -19.13134  -5.60083  -3.98658  -3.98658  -3.97675
 Alpha  occ. eigenvalues --   -1.49237  -1.47378  -1.47378  -1.46212  -1.46212
 Alpha  occ. eigenvalues --   -1.18739  -1.16199  -0.53775  -0.45508  -0.45508
 Alpha  occ. eigenvalues --   -0.40247  -0.40157  -0.40157
 Alpha virt. eigenvalues --    0.03827   0.03857   0.03857   0.23169   0.34250
 Alpha virt. eigenvalues --    0.34250   0.35306   0.63245   1.82038   1.82038
 Alpha virt. eigenvalues --    1.88867   1.88867   1.99057   2.09167   2.75862
 Alpha virt. eigenvalues --    2.95683   3.14670 210.78953
          Condensed to atoms (all electrons):
              1          2          3
     1  Sn  48.035046   0.296593   0.296593
     2  O    0.296593   8.389491  -0.000200
     3  O    0.296593  -0.000200   8.389491
 Mulliken atomic charges:
              1
     1  Sn   1.371768
     2  O   -0.685884
     3  O   -0.685884
 Sum of Mulliken atomic charges =  -0.00000
 Mulliken charges with hydrogens summed into heavy atoms:
              1
     1  Sn   1.371768
     2  O   -0.685884
     3  O   -0.685884
 Sum of Mulliken charges with hydrogens summed into heavy atoms =  -0.00000
 APT atomic charges:
              1
     1  Sn   1.487749
     2  O   -0.743874
     3  O   -0.743874
 Sum of APT charges=   0.00000
 APT Atomic charges with hydrogens summed into heavy atoms:
              1
     1  Sn   1.487749
     2  O   -0.743874
     3  O   -0.743874
 Sum of APT charges=   0.00000
 Electronic spatial extent (au):  <R**2>=            284.5671
 Charge=             -0.0000 electrons
 Dipole moment (field-independent basis, Debye):
    X=             -0.0000    Y=              0.0000    Z=              0.0000  Tot=              0.0000
 Quadrupole moment (field-independent basis, Debye-Ang):
   XX=            -30.7054   YY=            -30.7054   ZZ=            -55.5299
   XY=             -0.0000   XZ=              0.0000   YZ=              0.0000
 Traceless Quadrupole moment (field-independent basis, Debye-Ang):
   XX=              8.2749   YY=              8.2749   ZZ=            -16.5497
   XY=             -0.0000   XZ=              0.0000   YZ=              0.0000
 Octapole moment (field-independent basis, Debye-Ang**2):
  XXX=             -0.0000  YYY=              0.0000  ZZZ=              0.0000  XYY=             -0.0000
  XXY=              0.0000  XXZ=              0.0000  XZZ=             -0.0000  YZZ=             -0.0000
  YYZ=              0.0000  XYZ=              0.0000
 Hexadecapole moment (field-independent basis, Debye-Ang**3):
 XXXX=            -27.7089 YYYY=            -27.7089 ZZZZ=           -336.2457 XXXY=             -0.0000
 XXXZ=              0.0000 YYYX=             -0.0000 YYYZ=              0.0000 ZZZX=              0.0000
 ZZZY=              0.0000 XXYY=             -9.2363 XXZZ=            -51.1572 YYZZ=            -51.1572
 XXYZ=              0.0000 YYXZ=              0.0000 ZZXY=             -0.0000
 N-N= 2.367352254282D+02 E-N=-1.507792101876D+04  KE= 6.127206915753D+03
 Symmetry AG   KE= 3.470241873343D+03
 Symmetry B1G  KE= 1.586344820427D+02
 Symmetry B2G  KE= 1.631878579536D+02
 Symmetry B3G  KE= 1.631878579536D+02
 Symmetry AU   KE= 0.000000000000D+00
 Symmetry B1U  KE= 7.672696036928D+02
 Symmetry B2U  KE= 7.023426203838D+02
 Symmetry B3U  KE= 7.023426203838D+02
  Exact polarizability:  26.308  -0.000  26.308  -0.000  -0.000  41.330
 Approx polarizability:  13.285   0.000  13.285  -0.000   0.000  76.103
 Calling FoFJK, ICntrl=    100127 FMM=F ISym2X=1 I1Cent= 0 IOpClX= 0 NMat=1 NMatS=1 NMatT=0.
 Full mass-weighted force constant matrix:
 Low frequencies ---   -4.0941   -4.0940   -2.6474   -2.6474    0.0238    0.0238
 Low frequencies ---    0.0316  858.3411 1096.8998
 ******    2 imaginary frequencies (negative Signs) ****** 
 Harmonic frequencies (cm**-1), IR intensities (KM/Mole), Raman scattering
 activities (A**4/AMU), depolarization ratios for plane and unpolarized
 incident light, reduced masses (AMU), force constants (mDyne/A),
 and normal coordinates:
                           1         2         3         4
                          PIU       PIU       SGG       SGU
       Frequencies ---    -4.0941   -4.0940  858.3411 1096.8998
    Reduced masses ---    19.6128   19.6128   15.9949   19.6128
   Force constants ---     0.0002    0.0002    6.9431   13.9035
    IR Intensities ---     9.8026    9.8026    0.0000  463.0787
 Coord Atom Element:
   1     1    50          0.18842  -0.00000   0.00000   0.00000
   2     1    50          0.00000   0.18842  -0.00000   0.00000
   3     1    50         -0.00000  -0.00000   0.00000   0.18842
   1     2     8         -0.69444   0.00000  -0.00000  -0.00000
   2     2     8         -0.00000  -0.69444   0.00000  -0.00000
   3     2     8         -0.00000   0.00000   0.70711  -0.69444
   1     3     8         -0.69444   0.00000  -0.00000  -0.00000
   2     3     8         -0.00000  -0.69444   0.00000  -0.00000
   3     3     8          0.00000  -0.00000  -0.70711  -0.69444
 Harmonic frequencies (cm**-1), IR intensities (KM/Mole), Raman scattering
 activities (A**4/AMU), depolarization ratios for plane and unpolarized
 incident light, reduced masses (AMU), force constants (mDyne/A),
 and normal coordinates:
                     1                      2                      3
                    PIU                    PIU                    SGG
 Frequencies --    -4.0941                -4.0940               858.3411
 Red. masses --    19.6128                19.6128                15.9949
 Frc consts  --     0.0002                 0.0002                 6.9431
 IR Inten    --     9.8026                 9.8026                 0.0000
  Atom  AN      X      Y      Z        X      Y      Z        X      Y      Z
     1  50     0.19   0.00  -0.00    -0.00   0.19  -0.00     0.00  -0.00   0.00
     2   8    -0.69  -0.00  -0.00     0.00  -0.69   0.00    -0.00   0.00   0.71
     3   8    -0.69  -0.00   0.00     0.00  -0.69  -0.00    -0.00   0.00  -0.71
                     4
                    SGU
 Frequencies --  1096.8998
 Red. masses --    19.6128
 Frc consts  --    13.9035
 IR Inten    --   463.0787
  Atom  AN      X      Y      Z
     1  50     0.00   0.00   0.19
     2   8    -0.00  -0.00  -0.69
     3   8    -0.00  -0.00  -0.69

 -------------------
 - Thermochemistry -
 -------------------
 Temperature   298.150 Kelvin.  Pressure   1.00000 Atm.
 Atom     1 has atomic number 50 and mass 117.90180
 Atom     2 has atomic number  8 and mass  15.99491
 Atom     3 has atomic number  8 and mass  15.99491
 Molecular mass:   149.89163 amu.
 Principal axes and moments of inertia in atomic units:
                           1         2         3
     Eigenvalues --     0.00000 395.12345 395.12345
           X           -0.00000   1.00000   0.00000
           Y            0.00000   0.00000   1.00000
           Z            1.00000   0.00000   0.00000
 This molecule is a prolate symmetric top.
 Rotational symmetry number  2.
 Rotational temperature (Kelvin)      0.21921
 Rotational constant (GHZ):           4.567538
    2 imaginary frequencies ignored.
 Zero-point vibrational energy      11694.9 (Joules/Mol)
                                    2.79516 (Kcal/Mol)
 Vibrational temperatures:   1234.96  1578.19
          (Kelvin)
 
 Zero-point correction=                           0.004454 (Hartree/Particle)
 Thermal correction to Energy=                    0.006903
 Thermal correction to Enthalpy=                  0.007847
 Thermal correction to Gibbs Free Energy=        -0.018808
 Sum of electronic and zero-point Energies=          -6145.781110
 Sum of electronic and thermal Energies=             -6145.778661
 Sum of electronic and thermal Enthalpies=           -6145.777717
 Sum of electronic and thermal Free Energies=        -6145.804372
 
                     E (Thermal)             CV                S
                      KCal/Mol        Cal/Mol-Kelvin    Cal/Mol-Kelvin
 Total                    4.332              5.810             56.101
 Electronic               0.000              0.000              0.000
 Translational            0.889              2.981             40.925
 Rotational               0.592              1.987             14.948
 Vibrational              2.851              0.842              0.228
                       Q            Log10(Q)             Ln(Q)
 Total Bot       0.447666D+09          8.650954         19.919557
 Total V=0       0.500975D+11         10.699816         24.637237
 Vib (Bot)       0.912604D-02         -2.039718         -4.696624
 Vib (V=0)       0.102128D+01          0.009144          0.021055
 Electronic      0.100000D+01          0.000000          0.000000
 Translational   0.721309D+08          7.858121         18.093993
 Rotational      0.680065D+03          2.832550          6.522188
 ***** Axes restored to original set *****
 -------------------------------------------------------------------
 Center     Atomic                   Forces (Hartrees/Bohr)
 Number     Number              X              Y              Z
 -------------------------------------------------------------------
      1       50           0.000000000    0.000000000   -0.000000000
      2        8           0.000000000   -0.000000000    0.000014972
      3        8          -0.000000000   -0.000000000   -0.000014972
 -------------------------------------------------------------------
 Cartesian Forces:  Max     0.000014972 RMS     0.000007058

 GradGradGradGradGradGradGradGradGradGradGradGradGradGradGradGradGradGrad
 Berny optimization.
 Internal  Forces:  Max     0.000014972 RMS     0.000010587
 Search for a local minimum.
 Step number   1 out of a maximum of    2
 All quantities printed in internal units (Hartrees-Bohrs-Radians)
 Second derivative matrix not updated -- analytic derivatives used.
 The second derivative matrix:
                          R1        R2        A1        A2
           R1           0.50941
           R2          -0.06345   0.50941
           A1          -0.00000   0.00000  -0.00002
           A2           0.00000  -0.00000  -0.00000  -0.00002
 ITU=  0
     Eigenvalues ---   -0.00002  -0.00002   0.44596   0.57286
 Eigenvalue     1 is  -2.30D-05 should be greater than     0.000000 Eigenvector:
                          A2        R2        R1        A1
   1                    1.00000   0.00000  -0.00000  -0.00000
 Eigenvalue     2 is  -2.30D-05 should be greater than     0.000000 Eigenvector:
                          A1        R1        R2        A2
   1                    1.00000   0.00000   0.00000   0.00000
 Angle between quadratic step and forces=   0.00 degrees.
 Linear search not attempted -- first point.
 Iteration  1 RMS(Cart)=  0.00002374 RMS(Int)=  0.00000000
 Iteration  2 RMS(Cart)=  0.00000000 RMS(Int)=  0.00000000
 ClnCor:  largest displacement from symmetrization is 9.85D-10 for atom     1.
 Variable       Old X    -DE/DX   Delta X   Delta X   Delta X     New X
                                 (Linear)    (Quad)   (Total)
    R1        3.51447   0.00001   0.00000   0.00003   0.00003   3.51451
    R2        3.51447   0.00001   0.00000   0.00003   0.00003   3.51451
    A1        3.14159   0.00000   0.00000   0.00000   0.00000   3.14159
    A2        3.14159  -0.00000   0.00000  -0.00000   0.00000   3.14159
         Item               Value     Threshold  Converged?
 Maximum Force            0.000015     0.000450     YES
 RMS     Force            0.000011     0.000300     YES
 Maximum Displacement     0.000034     0.001800     YES
 RMS     Displacement     0.000024     0.001200     YES
 Predicted change in Energy=-5.026799D-10
 Optimization completed.
    -- Stationary point found.
                           ----------------------------
                           !   Optimized Parameters   !
                           ! (Angstroms and Degrees)  !
 --------------------------                            --------------------------
 ! Name  Definition              Value          Derivative Info.                !
 --------------------------------------------------------------------------------
 ! R1    R(1,2)                  1.8598         -DE/DX =    0.0                 !
 ! R2    R(1,3)                  1.8598         -DE/DX =    0.0                 !
 ! A1    L(2,1,3,-1,-1)        180.0            -DE/DX =    0.0                 !
 ! A2    L(2,1,3,-2,-2)        180.0            -DE/DX =    0.0                 !
 --------------------------------------------------------------------------------
 GradGradGradGradGradGradGradGradGradGradGradGradGradGradGradGradGradGrad

 1\1\GINC-SRU01\Freq\RMP2-FC\3-21G\O2Sn1\JAMES\05-Sep-2023\0\\#N Geom=A
 llCheck Guess=TCheck SCRF=Check GenChk RMP2(FC)/3-21G Freq\\Title Card
  Required\\0,1\Sn,0.,0.,0.\O,0.,0.,1.85978\O,0.,0.,-1.85978\\Version=A
 M64L-G09RevC.01\State=1-SGG\HF=-6145.4280053\MP2=-6145.7855644\RMSD=2.
 056e-10\RMSF=7.058e-06\ZeroPoint=0.0044544\Thermal=0.0069032\Dipole=0.
 ,0.,0.\DipoleDeriv=0.5030046,0.,0.,0.,0.5030046,0.,0.,0.,3.4572376,-0.
 2515023,0.,0.,0.,-0.2515023,0.,0.,0.,-1.7286188,-0.2515023,0.,0.,0.,-0
 .2515023,0.,0.,0.,-1.7286188\Polar=26.3078311,0.,26.3078311,0.,0.,41.3
 302645\PG=D*H [O(Sn1),C*(O1.O1)]\NImag=2\\-0.00001596,0.,-0.00001596,0
 .,0.,1.14572497,0.00000798,0.,0.,-0.00000611,0.,0.00000798,0.,0.,-0.00
 000611,0.,0.,-0.57286248,0.,0.,0.50940986,0.00000798,0.,0.,-0.00000187
 ,0.,0.,-0.00000611,0.,0.00000798,0.,0.,-0.00000187,0.,0.,-0.00000611,0
 .,0.,-0.57286248,0.,0.,0.06345262,0.,0.,0.50940986\\0.,0.,0.,0.,0.,-0.
 00001497,0.,0.,0.00001497\\\@


 IN THE WOODS WE RETURN TO REASON AND FAITH.

                                 -- EMERSON
 Job cpu time:  0 days  0 hours  0 minutes 11.6 seconds.
 File lengths (MBytes):  RWF=    118 Int=      0 D2E=      0 Chk=      2 Scr=      1
 Normal termination of Gaussian 09 at Tue Sep  5 09:45:07 2023.
