 Entering Gaussian System, Link 0=g16
 Input=TeH2.gjf
 Output=TeH2.log
 Initial command:
 /opt/g16/g16/l1.exe "/home/pnatt/scratch/Gau-1501725.inp" -scrdir="/home/pnatt/scratch/"
 Entering Link 1 = /opt/g16/g16/l1.exe PID=   1501733.
  
 Copyright (c) 1988-2019, Gaussian, Inc.  All Rights Reserved.
  
 This is part of the Gaussian(R) 16 program.  It is based on
 the Gaussian(R) 09 system (copyright 2009, Gaussian, Inc.),
 the Gaussian(R) 03 system (copyright 2003, Gaussian, Inc.),
 the Gaussian(R) 98 system (copyright 1998, Gaussian, Inc.),
 the Gaussian(R) 94 system (copyright 1995, Gaussian, Inc.),
 the Gaussian 92(TM) system (copyright 1992, Gaussian, Inc.),
 the Gaussian 90(TM) system (copyright 1990, Gaussian, Inc.),
 the Gaussian 88(TM) system (copyright 1988, Gaussian, Inc.),
 the Gaussian 86(TM) system (copyright 1986, Carnegie Mellon
 University), and the Gaussian 82(TM) system (copyright 1983,
 Carnegie Mellon University). Gaussian is a federally registered
 trademark of Gaussian, Inc.
  
 This software contains proprietary and confidential information,
 including trade secrets, belonging to Gaussian, Inc.
  
 This software is provided under written license and may be
 used, copied, transmitted, or stored only in accord with that
 written license.
  
 The following legend is applicable only to US Government
 contracts under FAR:
  
                    RESTRICTED RIGHTS LEGEND
  
 Use, reproduction and disclosure by the US Government is
 subject to restrictions as set forth in subparagraphs (a)
 and (c) of the Commercial Computer Software - Restricted
 Rights clause in FAR 52.227-19.
  
 Gaussian, Inc.
 340 Quinnipiac St., Bldg. 40, Wallingford CT 06492
  
  
 ---------------------------------------------------------------
 Warning -- This program may not be used in any manner that
 competes with the business of Gaussian, Inc. or will provide
 assistance to any competitor of Gaussian, Inc.  The licensee
 of this program is prohibited from giving any competitor of
 Gaussian, Inc. access to this program.  By using this program,
 the user acknowledges that Gaussian, Inc. is engaged in the
 business of creating and licensing software in the field of
 computational chemistry and represents and warrants to the
 licensee that it is not a competitor of Gaussian, Inc. and that
 it will not use this program in any manner prohibited above.
 ---------------------------------------------------------------
  

 Cite this work as:
 Gaussian 16, Revision C.01,
 M. J. Frisch, G. W. Trucks, H. B. Schlegel, G. E. Scuseria, 
 M. A. Robb, J. R. Cheeseman, G. Scalmani, V. Barone, 
 G. A. Petersson, H. Nakatsuji, X. Li, M. Caricato, A. V. Marenich, 
 J. Bloino, B. G. Janesko, R. Gomperts, B. Mennucci, H. P. Hratchian, 
 J. V. Ortiz, A. F. Izmaylov, J. L. Sonnenberg, D. Williams-Young, 
 F. Ding, F. Lipparini, F. Egidi, J. Goings, B. Peng, A. Petrone, 
 T. Henderson, D. Ranasinghe, V. G. Zakrzewski, J. Gao, N. Rega, 
 G. Zheng, W. Liang, M. Hada, M. Ehara, K. Toyota, R. Fukuda, 
 J. Hasegawa, M. Ishida, T. Nakajima, Y. Honda, O. Kitao, H. Nakai, 
 T. Vreven, K. Throssell, J. A. Montgomery, Jr., J. E. Peralta, 
 F. Ogliaro, M. J. Bearpark, J. J. Heyd, E. N. Brothers, K. N. Kudin, 
 V. N. Staroverov, T. A. Keith, R. Kobayashi, J. Normand, 
 K. Raghavachari, A. P. Rendell, J. C. Burant, S. S. Iyengar, 
 J. Tomasi, M. Cossi, J. M. Millam, M. Klene, C. Adamo, R. Cammi, 
 J. W. Ochterski, R. L. Martin, K. Morokuma, O. Farkas, 
 J. B. Foresman, and D. J. Fox, Gaussian, Inc., Wallingford CT, 2019.
 
 ******************************************
 Gaussian 16:  ES64L-G16RevC.01  3-Jul-2019
                10-Aug-2026 
 ******************************************
 %chk=TeH2.chk
 ----------------------------------------------
 # opt freq=hpmodes mp2/3-21g geom=connectivity
 ----------------------------------------------
 1/18=20,19=15,38=1,57=2/1,3;
 2/9=110,12=2,17=6,18=5,40=1/2;
 3/5=5,11=9,25=1,30=1,71=1/1,2,3;
 4//1;
 5/5=2,38=5/2;
 8/6=4,10=1/1;
 9/15=2,16=-3/6;
 10/5=1/2;
 6/7=2,8=2,9=2,10=2/1;
 7/12=2/1,2,3,16;
 1/18=20,19=15/3(2);
 2/9=110/2;
 99//99;
 2/9=110/2;
 3/5=5,11=9,25=1,30=1,71=1/1,2,3;
 4/5=5,16=3,69=1/1;
 5/5=2,38=5/2;
 8/6=4,10=1/1;
 9/15=2,16=-3/6;
 10/5=1/2;
 7/12=2/1,2,3,16;
 1/18=20,19=15/3(-8);
 2/9=110/2;
 6/7=2,8=2,9=2,10=2/1;
 99/9=10/99;
 -------------------
 Title Card Required
 -------------------
 Symbolic Z-matrix:
 Charge =  0 Multiplicity = 1
 Te                    0.        0.       -0.03571 
 H                     0.       -1.36355   0.92846 
 H                     0.        1.36355   0.92846 
 

 GradGradGradGradGradGradGradGradGradGradGradGradGradGradGradGradGradGrad
 Berny optimization.
 Initialization pass.
                           ----------------------------
                           !    Initial Parameters    !
                           ! (Angstroms and Degrees)  !
 --------------------------                            --------------------------
 ! Name  Definition              Value          Derivative Info.                !
 --------------------------------------------------------------------------------
 ! R1    R(1,2)                  1.67           estimate D2E/DX2                !
 ! R2    R(1,3)                  1.67           estimate D2E/DX2                !
 ! A1    A(2,1,3)              109.4712         estimate D2E/DX2                !
 --------------------------------------------------------------------------------
 Trust Radius=3.00D-01 FncErr=1.00D-07 GrdErr=1.00D-07 EigMax=2.50D+02 EigMin=1.00D-04
 Number of steps in this run=     20 maximum allowed number of steps=    100.
 GradGradGradGradGradGradGradGradGradGradGradGradGradGradGradGradGradGrad

                          Input orientation:                          
 ---------------------------------------------------------------------
 Center     Atomic      Atomic             Coordinates (Angstroms)
 Number     Number       Type             X           Y           Z
 ---------------------------------------------------------------------
      1         52           0        0.000000    0.000000   -0.035710
      2          1           0        0.000000   -1.363549    0.928465
      3          1           0        0.000000    1.363549    0.928465
 ---------------------------------------------------------------------
                    Distance matrix (angstroms):
                    1          2          3
     1  Te   0.000000
     2  H    1.670000   0.000000
     3  H    1.670000   2.727099   0.000000
 Stoichiometry    H2Te
 Framework group  C2V[C2(Te),SGV(H2)]
 Deg. of freedom     2
 Full point group                 C2V     NOp   4
 Largest Abelian subgroup         C2V     NOp   4
 Largest concise Abelian subgroup C2      NOp   2
                         Standard orientation:                         
 ---------------------------------------------------------------------
 Center     Atomic      Atomic             Coordinates (Angstroms)
 Number     Number       Type             X           Y           Z
 ---------------------------------------------------------------------
      1         52           0        0.000000    0.000000    0.035710
      2          1           0       -0.000000    1.363549   -0.928465
      3          1           0       -0.000000   -1.363549   -0.928465
 ---------------------------------------------------------------------
 Rotational constants (GHZ):         273.8906467         134.8529271          90.3621678
 Standard basis: 3-21G (6D, 7F)
 There are    19 symmetry adapted cartesian basis functions of A1  symmetry.
 There are     2 symmetry adapted cartesian basis functions of A2  symmetry.
 There are     7 symmetry adapted cartesian basis functions of B1  symmetry.
 There are     9 symmetry adapted cartesian basis functions of B2  symmetry.
 There are    19 symmetry adapted basis functions of A1  symmetry.
 There are     2 symmetry adapted basis functions of A2  symmetry.
 There are     7 symmetry adapted basis functions of B1  symmetry.
 There are     9 symmetry adapted basis functions of B2  symmetry.
    37 basis functions,    93 primitive gaussians,    37 cartesian basis functions
    27 alpha electrons       27 beta electrons
       nuclear repulsion energy        33.1487924962 Hartrees.
 NAtoms=    3 NActive=    3 NUniq=    2 SFac= 2.25D+00 NAtFMM=   60 NAOKFM=F Big=F
 Integral buffers will be    131072 words long.
 Raffenetti 1 integral format.
 Two-electron integral symmetry is turned on.
 One-electron integrals computed using PRISM.
 NBasis=    37 RedAO= T EigKep=  1.28D-03  NBF=    19     2     7     9
 NBsUse=    37 1.00D-06 EigRej= -1.00D+00 NBFU=    19     2     7     9
 ExpMin= 9.67D-02 ExpMax= 1.38D+04 ExpMxC= 1.38D+04 IAcc=3 IRadAn=         5 AccDes= 0.00D+00
 Harris functional with IExCor=  205 and IRadAn=       5 diagonalized for initial guess.
 HarFok:  IExCor=  205 AccDes= 0.00D+00 IRadAn=         5 IDoV= 1 UseB2=F ITyADJ=14
 ICtDFT=  3500011 ScaDFX=  1.000000  1.000000  1.000000  1.000000
 Defaulting to unpruned grid for atomic number  52.
 FoFCou: FMM=F IPFlag=           0 FMFlag=      100000 FMFlg1=           0
         NFxFlg=           0 DoJE=T BraDBF=F KetDBF=T FulRan=T
         wScrn=  0.000000 ICntrl=       500 IOpCl=  0 I1Cent=   200000004 NGrid=           0
         NMat0=    1 NMatS0=      1 NMatT0=    0 NMatD0=    1 NMtDS0=    0 NMtDT0=    0
 Petite list used in FoFCou.
 Initial guess orbital symmetries:
       Occupied  (A1) (A1) (B2) (A1) (B1) (A1) (B2) (A1) (B1) (B2)
                 (A1) (A2) (A1) (B1) (A1) (B2) (A1) (B1) (B2) (A1)
                 (A2) (A1) (B1) (A1) (B2) (A1) (B1)
       Virtual   (A1) (B2) (A1) (B2) (A1) (B1) (A1) (B2) (A1) (A1)
 The electronic state of the initial guess is 1-A1.
 Keep R1 ints in memory in symmetry-blocked form, NReq=1078853.
 Requested convergence on RMS density matrix=1.00D-08 within 128 cycles.
 Requested convergence on MAX density matrix=1.00D-06.
 Requested convergence on             energy=1.00D-06.
 No special actions if energy rises.
 SCF Done:  E(RHF) =  -6584.31233770     A.U. after    9 cycles
            NFock=  9  Conv=0.51D-08     -V/T= 2.0029
 ExpMin= 9.67D-02 ExpMax= 1.38D+04 ExpMxC= 1.38D+04 IAcc=3 IRadAn=         5 AccDes= 0.00D+00
 HarFok:  IExCor=  205 AccDes= 0.00D+00 IRadAn=         5 IDoV=-2 UseB2=F ITyADJ=14
 ICtDFT= 12500011 ScaDFX=  1.000000  1.000000  1.000000  1.000000
 Defaulting to unpruned grid for atomic number  52.
 Range of M.O.s used for correlation:    19    37
 NBasis=    37 NAE=    27 NBE=    27 NFC=    18 NFV=     0
 NROrb=     19 NOA=     9 NOB=     9 NVA=    10 NVB=    10

 **** Warning!!: The largest alpha MO coefficient is  0.21083505D+02

 Fully direct method using O(ONN) memory.
 JobTyp=1 Pass  1:  I=  19 to  27 NPSUse=  1 ParTrn=F ParDer=F DoDerP=T.
 Spin components of T(2) and E(2):
     alpha-alpha T2 =       0.1279610519D-02 E2=     -0.2590409208D-02
     alpha-beta  T2 =       0.2486421825D-01 E2=     -0.4379643827D-01
     beta-beta   T2 =       0.1279610519D-02 E2=     -0.2590409208D-02
 ANorm=    0.1013618981D+01
 E2 =    -0.4897725668D-01 EUMP2 =    -0.65843613149590D+04
          IDoAtm=111
          Differentiating once with respect to electric field.
                with respect to dipole field.
          Differentiating once with respect to nuclear coordinates.
 Keep R1 ints in memory in symmetry-blocked form, NReq=1079529.
          There are     1 degrees of freedom in the 1st order CPHF.  IDoFFX=0 NUNeed=     1.
 LinEq1:  Iter=  0 NonCon=     1 RMS=2.57D-03 Max=2.16D-02 NDo=     1
 AX will form     1 AO Fock derivatives at one time.
 LinEq1:  Iter=  1 NonCon=     1 RMS=3.27D-04 Max=3.89D-03 NDo=     1
 LinEq1:  Iter=  2 NonCon=     1 RMS=5.52D-05 Max=4.89D-04 NDo=     1
 LinEq1:  Iter=  3 NonCon=     1 RMS=8.69D-06 Max=9.01D-05 NDo=     1
 LinEq1:  Iter=  4 NonCon=     1 RMS=6.17D-07 Max=5.49D-06 NDo=     1
 LinEq1:  Iter=  5 NonCon=     1 RMS=6.32D-08 Max=3.74D-07 NDo=     1
 LinEq1:  Iter=  6 NonCon=     1 RMS=3.85D-09 Max=3.31D-08 NDo=     1
 LinEq1:  Iter=  7 NonCon=     1 RMS=3.23D-10 Max=3.05D-09 NDo=     1
 LinEq1:  Iter=  8 NonCon=     0 RMS=2.08D-11 Max=1.27D-10 NDo=     1
 Linear equations converged to 1.000D-10 1.000D-09 after     8 iterations.
 End of Minotr F.D. properties file   721 does not exist.
 End of Minotr F.D. properties file   722 does not exist.
 End of Minotr F.D. properties file   788 does not exist.

 **********************************************************************

            Population analysis using the SCF Density.

 **********************************************************************

 Orbital symmetries:
       Occupied  (A1) (A1) (B2) (A1) (B1) (A1) (B2) (A1) (B1) (B2)
                 (A1) (A2) (B1) (A1) (A1) (B2) (A1) (B1) (B2) (A1)
                 (A2) (B1) (A1) (A1) (B2) (A1) (B1)
       Virtual   (A1) (B2) (A1) (B2) (A1) (B1) (A1) (B2) (A1) (A1)
 The electronic state is 1-A1.
 Alpha  occ. eigenvalues -- **********-171.92755-160.47986-160.47956-160.47902
 Alpha  occ. eigenvalues --  -35.66264 -30.73368 -30.73217 -30.72956 -22.40389
 Alpha  occ. eigenvalues --  -22.40385 -22.40113 -22.39977 -22.39930  -6.66685
 Alpha  occ. eigenvalues --   -4.89187  -4.88615  -4.87768  -2.07797  -2.07654
 Alpha  occ. eigenvalues --   -2.06622  -2.06058  -2.05939  -0.80605  -0.54047
 Alpha  occ. eigenvalues --   -0.40647  -0.32410
 Alpha virt. eigenvalues --    0.12678   0.13230   0.41563   0.44791   0.47848
 Alpha virt. eigenvalues --    0.48600   1.20077   1.23711   3.91243 224.02322
          Condensed to atoms (all electrons):
               1          2          3
     1  Te  51.258324   0.263909   0.263909
     2  H    0.263909   0.849713  -0.006694
     3  H    0.263909  -0.006694   0.849713
 Mulliken charges:
               1
     1  Te   0.213857
     2  H   -0.106928
     3  H   -0.106928
 Sum of Mulliken charges =   0.00000
 Mulliken charges with hydrogens summed into heavy atoms:
               1
     1  Te   0.000000
 Electronic spatial extent (au):  <R**2>=             87.5468
 Charge=              0.0000 electrons
 Dipole moment (field-independent basis, Debye):
    X=              0.0000    Y=             -0.0000    Z=             -1.1859  Tot=              1.1859
 Quadrupole moment (field-independent basis, Debye-Ang):
   XX=            -33.1041   YY=            -28.0478   ZZ=            -30.1410
   XY=             -0.0000   XZ=             -0.0000   YZ=              0.0000
 Traceless Quadrupole moment (field-independent basis, Debye-Ang):
   XX=             -2.6731   YY=              2.3832   ZZ=              0.2899
   XY=             -0.0000   XZ=             -0.0000   YZ=              0.0000
 Octapole moment (field-independent basis, Debye-Ang**2):
  XXX=              0.0000  YYY=             -0.0000  ZZZ=              1.1640  XYY=              0.0000
  XXY=             -0.0000  XXZ=             -0.2118  XZZ=              0.0000  YZZ=             -0.0000
  YYZ=              1.7513  XYZ=              0.0000
 Hexadecapole moment (field-independent basis, Debye-Ang**3):
 XXXX=            -52.6739 YYYY=            -57.6825 ZZZZ=            -52.7593 XXXY=             -0.0000
 XXXZ=             -0.0000 YYYX=             -0.0000 YYYZ=              0.0000 ZZZX=             -0.0000
 ZZZY=              0.0000 XXYY=            -18.3263 XXZZ=            -17.4693 YYZZ=            -19.1049
 XXYZ=              0.0000 YYXZ=             -0.0000 ZZXY=             -0.0000
 N-N= 3.314879249621D+01 E-N=-1.569757951149D+04  KE= 6.565328689617D+03
 Symmetry A1   KE= 4.482792594456D+03
 Symmetry A2   KE= 1.804864999536D+02
 Symmetry B1   KE= 9.517161651710D+02
 Symmetry B2   KE= 9.503334300359D+02
 Calling FoFJK, ICntrl=  10002127 FMM=F ISym2X=1 I1Cent= 0 IOpClX= 0 NMat=1 NMatS=1 NMatT=0.
 ***** Axes restored to original set *****
 -------------------------------------------------------------------
 Center     Atomic                   Forces (Hartrees/Bohr)
 Number     Number              X              Y              Z
 -------------------------------------------------------------------
      1       52          -0.000000000    0.000000000   -0.033987576
      2        1           0.000000000    0.002531826    0.016993788
      3        1           0.000000000   -0.002531826    0.016993788
 -------------------------------------------------------------------
 Cartesian Forces:  Max     0.033987576 RMS     0.013926606

 GradGradGradGradGradGradGradGradGradGradGradGradGradGradGradGradGradGrad
 Berny optimization.
 FormGI is forming the generalized inverse of G from B-inverse, IUseBI=4.
 Internal  Forces:  Max     0.048401537 RMS     0.028651074
 Search for a local minimum.
 Step number   1 out of a maximum of   20
 All quantities printed in internal units (Hartrees-Bohrs-Radians)
 Mixed Optimization -- RFO/linear search
 Second derivative matrix not updated -- first step.
 The second derivative matrix:
                          R1        R2        A1
           R1           0.13844
           R2           0.00000   0.13844
           A1           0.00000   0.00000   0.16000
 ITU=  0
     Eigenvalues ---    0.13844   0.13844   0.16000
 RFO step:  Lambda=-1.42315607D-02 EMin= 1.38442748D-01
 Linear search not attempted -- first point.
 Iteration  1 RMS(Cart)=  0.17261034 RMS(Int)=  0.05132801
 Iteration  2 RMS(Cart)=  0.09462068 RMS(Int)=  0.00249713
 Iteration  3 RMS(Cart)=  0.00192527 RMS(Int)=  0.00000017
 Iteration  4 RMS(Cart)=  0.00000032 RMS(Int)=  0.00000000
 ClnCor:  largest displacement from symmetrization is 1.70D-14 for atom     3.
 Variable       Old X    -DE/DX   Delta X   Delta X   Delta X     New X
                                 (Linear)    (Quad)   (Total)
    R1        3.15584   0.00774   0.00000   0.05072   0.05072   3.20657
    R2        3.15584   0.00774   0.00000   0.05072   0.05072   3.20657
    A1        1.91063  -0.04840   0.00000  -0.27780  -0.27780   1.63283
         Item               Value     Threshold  Converged?
 Maximum Force            0.048402     0.000450     NO 
 RMS     Force            0.028651     0.000300     NO 
 Maximum Displacement     0.249299     0.001800     NO 
 RMS     Displacement     0.263655     0.001200     NO 
 Predicted change in Energy=-7.701544D-03
 GradGradGradGradGradGradGradGradGradGradGradGradGradGradGradGradGradGrad

                          Input orientation:                          
 ---------------------------------------------------------------------
 Center     Atomic      Atomic             Coordinates (Angstroms)
 Number     Number       Type             X           Y           Z
 ---------------------------------------------------------------------
      1         52           0        0.000000   -0.000000   -0.167633
      2          1           0        0.000000   -1.236482    0.994426
      3          1           0       -0.000000    1.236482    0.994426
 ---------------------------------------------------------------------
                    Distance matrix (angstroms):
                    1          2          3
     1  Te   0.000000
     2  H    1.696842   0.000000
     3  H    1.696842   2.472965   0.000000
 Stoichiometry    H2Te
 Framework group  C2V[C2(Te),SGV(H2)]
 Deg. of freedom     2
 Full point group                 C2V     NOp   4
 Largest Abelian subgroup         C2V     NOp   4
 Largest concise Abelian subgroup C2      NOp   2
                         Standard orientation:                         
 ---------------------------------------------------------------------
 Center     Atomic      Atomic             Coordinates (Angstroms)
 Number     Number       Type             X           Y           Z
 ---------------------------------------------------------------------
      1         52           0       -0.000000    0.000000    0.043039
      2          1           0        0.000000    1.236482   -1.119020
      3          1           0       -0.000000   -1.236482   -1.119020
 ---------------------------------------------------------------------
 Rotational constants (GHZ):         188.5524085         163.9933098          87.7087196
 Standard basis: 3-21G (6D, 7F)
 There are    19 symmetry adapted cartesian basis functions of A1  symmetry.
 There are     2 symmetry adapted cartesian basis functions of A2  symmetry.
 There are     7 symmetry adapted cartesian basis functions of B1  symmetry.
 There are     9 symmetry adapted cartesian basis functions of B2  symmetry.
 There are    19 symmetry adapted basis functions of A1  symmetry.
 There are     2 symmetry adapted basis functions of A2  symmetry.
 There are     7 symmetry adapted basis functions of B1  symmetry.
 There are     9 symmetry adapted basis functions of B2  symmetry.
    37 basis functions,    93 primitive gaussians,    37 cartesian basis functions
    27 alpha electrons       27 beta electrons
       nuclear repulsion energy        32.6474365161 Hartrees.
 NAtoms=    3 NActive=    3 NUniq=    2 SFac= 2.25D+00 NAtFMM=   60 NAOKFM=F Big=F
 Integral buffers will be    131072 words long.
 Raffenetti 1 integral format.
 Two-electron integral symmetry is turned on.
 One-electron integrals computed using PRISM.
 NBasis=    37 RedAO= T EigKep=  1.28D-03  NBF=    19     2     7     9
 NBsUse=    37 1.00D-06 EigRej= -1.00D+00 NBFU=    19     2     7     9
 Initial guess from the checkpoint file:  "TeH2.chk"
 B after Tr=     0.000000   -0.000000   -0.000000
         Rot=    1.000000    0.000000   -0.000000    0.000000 Ang=   0.00 deg.
 Initial guess orbital symmetries:
       Occupied  (A1) (A1) (B2) (A1) (B1) (A1) (B2) (A1) (B1) (B2)
                 (A1) (A2) (B1) (A1) (A1) (B2) (A1) (B1) (B2) (A1)
                 (A2) (B1) (A1) (A1) (B2) (A1) (B1)
       Virtual   (A1) (B2) (A1) (B2) (A1) (B1) (A1) (B2) (A1) (A1)
 ExpMin= 9.67D-02 ExpMax= 1.38D+04 ExpMxC= 1.38D+04 IAcc=3 IRadAn=         5 AccDes= 0.00D+00
 Harris functional with IExCor=  205 and IRadAn=       5 diagonalized for initial guess.
 HarFok:  IExCor=  205 AccDes= 0.00D+00 IRadAn=         5 IDoV= 1 UseB2=F ITyADJ=14
 ICtDFT=  3500011 ScaDFX=  1.000000  1.000000  1.000000  1.000000
 Defaulting to unpruned grid for atomic number  52.
 FoFCou: FMM=F IPFlag=           0 FMFlag=      100000 FMFlg1=           0
         NFxFlg=           0 DoJE=T BraDBF=F KetDBF=T FulRan=T
         wScrn=  0.000000 ICntrl=       500 IOpCl=  0 I1Cent=   200000004 NGrid=           0
         NMat0=    1 NMatS0=      1 NMatT0=    0 NMatD0=    1 NMtDS0=    0 NMtDT0=    0
 Petite list used in FoFCou.
 Keep R1 ints in memory in symmetry-blocked form, NReq=1078853.
 Requested convergence on RMS density matrix=1.00D-08 within 128 cycles.
 Requested convergence on MAX density matrix=1.00D-06.
 Requested convergence on             energy=1.00D-06.
 No special actions if energy rises.
 SCF Done:  E(RHF) =  -6584.32009286     A.U. after    9 cycles
            NFock=  9  Conv=0.95D-08     -V/T= 2.0029
 ExpMin= 9.67D-02 ExpMax= 1.38D+04 ExpMxC= 1.38D+04 IAcc=3 IRadAn=         5 AccDes= 0.00D+00
 HarFok:  IExCor=  205 AccDes= 0.00D+00 IRadAn=         5 IDoV=-2 UseB2=F ITyADJ=14
 ICtDFT= 12500011 ScaDFX=  1.000000  1.000000  1.000000  1.000000
 Defaulting to unpruned grid for atomic number  52.
 Range of M.O.s used for correlation:    19    37
 NBasis=    37 NAE=    27 NBE=    27 NFC=    18 NFV=     0
 NROrb=     19 NOA=     9 NOB=     9 NVA=    10 NVB=    10

 **** Warning!!: The largest alpha MO coefficient is  0.21083435D+02

 Fully direct method using O(ONN) memory.
 JobTyp=1 Pass  1:  I=  19 to  27 NPSUse=  1 ParTrn=F ParDer=F DoDerP=T.
 Spin components of T(2) and E(2):
     alpha-alpha T2 =       0.1200113503D-02 E2=     -0.2480732201D-02
     alpha-beta  T2 =       0.2549581814D-01 E2=     -0.4427630234D-01
     beta-beta   T2 =       0.1200113503D-02 E2=     -0.2480732201D-02
 ANorm=    0.1013852082D+01
 E2 =    -0.4923776674D-01 EUMP2 =    -0.65843693306316D+04
          IDoAtm=111
          Differentiating once with respect to electric field.
                with respect to dipole field.
          Differentiating once with respect to nuclear coordinates.
 Keep R1 ints in memory in symmetry-blocked form, NReq=1079471.
          There are     1 degrees of freedom in the 1st order CPHF.  IDoFFX=0 NUNeed=     1.
 LinEq1:  Iter=  0 NonCon=     1 RMS=2.72D-03 Max=1.99D-02 NDo=     1
 AX will form     1 AO Fock derivatives at one time.
 LinEq1:  Iter=  1 NonCon=     1 RMS=3.78D-04 Max=5.02D-03 NDo=     1
 LinEq1:  Iter=  2 NonCon=     1 RMS=6.20D-05 Max=5.55D-04 NDo=     1
 LinEq1:  Iter=  3 NonCon=     1 RMS=9.83D-06 Max=8.76D-05 NDo=     1
 LinEq1:  Iter=  4 NonCon=     1 RMS=7.28D-07 Max=6.85D-06 NDo=     1
 LinEq1:  Iter=  5 NonCon=     1 RMS=7.40D-08 Max=4.97D-07 NDo=     1
 LinEq1:  Iter=  6 NonCon=     1 RMS=4.59D-09 Max=3.78D-08 NDo=     1
 LinEq1:  Iter=  7 NonCon=     1 RMS=3.25D-10 Max=3.07D-09 NDo=     1
 LinEq1:  Iter=  8 NonCon=     0 RMS=2.47D-11 Max=1.42D-10 NDo=     1
 Linear equations converged to 1.000D-10 1.000D-09 after     8 iterations.
 End of Minotr F.D. properties file   721 does not exist.
 End of Minotr F.D. properties file   722 does not exist.
 End of Minotr F.D. properties file   788 does not exist.
 Calling FoFJK, ICntrl=  10002127 FMM=F ISym2X=1 I1Cent= 0 IOpClX= 0 NMat=1 NMatS=1 NMatT=0.
 ***** Axes restored to original set *****
 -------------------------------------------------------------------
 Center     Atomic                   Forces (Hartrees/Bohr)
 Number     Number              X              Y              Z
 -------------------------------------------------------------------
      1       52          -0.000000000   -0.000000000   -0.002237624
      2        1           0.000000000    0.001863134    0.001118812
      3        1           0.000000000   -0.001863134    0.001118812
 -------------------------------------------------------------------
 Cartesian Forces:  Max     0.002237624 RMS     0.001267236

 GradGradGradGradGradGradGradGradGradGradGradGradGradGradGradGradGradGrad
 Berny optimization.
 Using GEDIIS/GDIIS optimizer.
 FormGI is forming the generalized inverse of G from B-inverse, IUseBI=4.
 Internal  Forces:  Max     0.006705627 RMS     0.003901498
 Search for a local minimum.
 Step number   2 out of a maximum of   20
 All quantities printed in internal units (Hartrees-Bohrs-Radians)
 Mixed Optimization -- RFO/linear search
 Update second derivatives using D2CorX and points    1    2
 DE= -8.02D-03 DEPred=-7.70D-03 R= 1.04D+00
 TightC=F SS=  1.41D+00  RLast= 2.87D-01 DXNew= 5.0454D-01 8.6074D-01
 Trust test= 1.04D+00 RLast= 2.87D-01 DXMaxT set to 5.05D-01
 The second derivative matrix:
                          R1        R2        A1
           R1           0.14026
           R2           0.00181   0.14026
           A1          -0.00406  -0.00406   0.14861
 ITU=  1  0
 Use linear search instead of GDIIS.
     Eigenvalues ---    0.13844   0.13873   0.15195
 RFO step:  Lambda=-4.95243575D-05 EMin= 1.38442748D-01
 Quartic linear search produced a step of  0.14517.
 Iteration  1 RMS(Cart)=  0.04977016 RMS(Int)=  0.00067840
 Iteration  2 RMS(Cart)=  0.00052220 RMS(Int)=  0.00000001
 Iteration  3 RMS(Cart)=  0.00000002 RMS(Int)=  0.00000000
 ClnCor:  largest displacement from symmetrization is 1.60D-15 for atom     3.
 Variable       Old X    -DE/DX   Delta X   Delta X   Delta X     New X
                                 (Linear)    (Quad)   (Total)
    R1        3.20657  -0.00059   0.00736  -0.01282  -0.00545   3.20111
    R2        3.20657  -0.00059   0.00736  -0.01282  -0.00545   3.20111
    A1        1.63283  -0.00671  -0.04033  -0.00512  -0.04545   1.58738
         Item               Value     Threshold  Converged?
 Maximum Force            0.006706     0.000450     NO 
 RMS     Force            0.003901     0.000300     NO 
 Maximum Displacement     0.054394     0.001800     NO 
 RMS     Displacement     0.049997     0.001200     NO 
 Predicted change in Energy=-1.555207D-04
 GradGradGradGradGradGradGradGradGradGradGradGradGradGradGradGradGradGrad

                          Input orientation:                          
 ---------------------------------------------------------------------
 Center     Atomic      Atomic             Coordinates (Angstroms)
 Number     Number       Type             X           Y           Z
 ---------------------------------------------------------------------
      1         52           0        0.000000   -0.000000   -0.184817
      2          1           0        0.000000   -1.207698    1.003018
      3          1           0       -0.000000    1.207698    1.003018
 ---------------------------------------------------------------------
                    Distance matrix (angstroms):
                    1          2          3
     1  Te   0.000000
     2  H    1.693956   0.000000
     3  H    1.693956   2.415397   0.000000
 Stoichiometry    H2Te
 Framework group  C2V[C2(Te),SGV(H2)]
 Deg. of freedom     2
 Full point group                 C2V     NOp   4
 Largest Abelian subgroup         C2V     NOp   4
 Largest concise Abelian subgroup C2      NOp   2
                         Standard orientation:                         
 ---------------------------------------------------------------------
 Center     Atomic      Atomic             Coordinates (Angstroms)
 Number     Number       Type             X           Y           Z
 ---------------------------------------------------------------------
      1         52           0       -0.000000    0.000000    0.043994
      2          1           0        0.000000    1.207698   -1.143841
      3          1           0       -0.000000   -1.207698   -1.143841
 ---------------------------------------------------------------------
 Rotational constants (GHZ):         180.4581599         171.9036510          88.0385319
 Standard basis: 3-21G (6D, 7F)
 There are    19 symmetry adapted cartesian basis functions of A1  symmetry.
 There are     2 symmetry adapted cartesian basis functions of A2  symmetry.
 There are     7 symmetry adapted cartesian basis functions of B1  symmetry.
 There are     9 symmetry adapted cartesian basis functions of B2  symmetry.
 There are    19 symmetry adapted basis functions of A1  symmetry.
 There are     2 symmetry adapted basis functions of A2  symmetry.
 There are     7 symmetry adapted basis functions of B1  symmetry.
 There are     9 symmetry adapted basis functions of B2  symmetry.
    37 basis functions,    93 primitive gaussians,    37 cartesian basis functions
    27 alpha electrons       27 beta electrons
       nuclear repulsion energy        32.7077812720 Hartrees.
 NAtoms=    3 NActive=    3 NUniq=    2 SFac= 2.25D+00 NAtFMM=   60 NAOKFM=F Big=F
 Integral buffers will be    131072 words long.
 Raffenetti 1 integral format.
 Two-electron integral symmetry is turned on.
 One-electron integrals computed using PRISM.
 NBasis=    37 RedAO= T EigKep=  1.28D-03  NBF=    19     2     7     9
 NBsUse=    37 1.00D-06 EigRej= -1.00D+00 NBFU=    19     2     7     9
 Initial guess from the checkpoint file:  "TeH2.chk"
 B after Tr=     0.000000    0.000000    0.000000
         Rot=    1.000000    0.000000    0.000000    0.000000 Ang=   0.00 deg.
 Initial guess orbital symmetries:
       Occupied  (A1) (A1) (B2) (A1) (B1) (A1) (B2) (A1) (B1) (B2)
                 (A1) (A2) (B1) (A1) (A1) (B2) (A1) (B1) (B2) (A1)
                 (A2) (B1) (A1) (A1) (B2) (A1) (B1)
       Virtual   (B2) (A1) (A1) (B2) (A1) (B1) (A1) (B2) (A1) (A1)
 ExpMin= 9.67D-02 ExpMax= 1.38D+04 ExpMxC= 1.38D+04 IAcc=3 IRadAn=         5 AccDes= 0.00D+00
 Harris functional with IExCor=  205 and IRadAn=       5 diagonalized for initial guess.
 HarFok:  IExCor=  205 AccDes= 0.00D+00 IRadAn=         5 IDoV= 1 UseB2=F ITyADJ=14
 ICtDFT=  3500011 ScaDFX=  1.000000  1.000000  1.000000  1.000000
 Defaulting to unpruned grid for atomic number  52.
 FoFCou: FMM=F IPFlag=           0 FMFlag=      100000 FMFlg1=           0
         NFxFlg=           0 DoJE=T BraDBF=F KetDBF=T FulRan=T
         wScrn=  0.000000 ICntrl=       500 IOpCl=  0 I1Cent=   200000004 NGrid=           0
         NMat0=    1 NMatS0=      1 NMatT0=    0 NMatD0=    1 NMtDS0=    0 NMtDT0=    0
 Petite list used in FoFCou.
 Keep R1 ints in memory in symmetry-blocked form, NReq=1078853.
 Requested convergence on RMS density matrix=1.00D-08 within 128 cycles.
 Requested convergence on MAX density matrix=1.00D-06.
 Requested convergence on             energy=1.00D-06.
 No special actions if energy rises.
 SCF Done:  E(RHF) =  -6584.32020929     A.U. after    7 cycles
            NFock=  7  Conv=0.68D-08     -V/T= 2.0029
 ExpMin= 9.67D-02 ExpMax= 1.38D+04 ExpMxC= 1.38D+04 IAcc=3 IRadAn=         5 AccDes= 0.00D+00
 HarFok:  IExCor=  205 AccDes= 0.00D+00 IRadAn=         5 IDoV=-2 UseB2=F ITyADJ=14
 ICtDFT= 12500011 ScaDFX=  1.000000  1.000000  1.000000  1.000000
 Defaulting to unpruned grid for atomic number  52.
 Range of M.O.s used for correlation:    19    37
 NBasis=    37 NAE=    27 NBE=    27 NFC=    18 NFV=     0
 NROrb=     19 NOA=     9 NOB=     9 NVA=    10 NVB=    10

 **** Warning!!: The largest alpha MO coefficient is  0.21083434D+02

 Fully direct method using O(ONN) memory.
 JobTyp=1 Pass  1:  I=  19 to  27 NPSUse=  1 ParTrn=F ParDer=F DoDerP=T.
 Spin components of T(2) and E(2):
     alpha-alpha T2 =       0.1191857373D-02 E2=     -0.2471695804D-02
     alpha-beta  T2 =       0.2551052391D-01 E2=     -0.4432275832D-01
     beta-beta   T2 =       0.1191857373D-02 E2=     -0.2471695804D-02
 ANorm=    0.1013851192D+01
 E2 =    -0.4926614993D-01 EUMP2 =    -0.65843694754370D+04
          IDoAtm=111
          Differentiating once with respect to electric field.
                with respect to dipole field.
          Differentiating once with respect to nuclear coordinates.
 Keep R1 ints in memory in symmetry-blocked form, NReq=1079499.
          There are     1 degrees of freedom in the 1st order CPHF.  IDoFFX=0 NUNeed=     1.
 LinEq1:  Iter=  0 NonCon=     1 RMS=2.73D-03 Max=1.95D-02 NDo=     1
 AX will form     1 AO Fock derivatives at one time.
 LinEq1:  Iter=  1 NonCon=     1 RMS=3.86D-04 Max=5.16D-03 NDo=     1
 LinEq1:  Iter=  2 NonCon=     1 RMS=6.35D-05 Max=5.82D-04 NDo=     1
 LinEq1:  Iter=  3 NonCon=     1 RMS=1.01D-05 Max=8.86D-05 NDo=     1
 LinEq1:  Iter=  4 NonCon=     1 RMS=7.60D-07 Max=7.13D-06 NDo=     1
 LinEq1:  Iter=  5 NonCon=     1 RMS=7.64D-08 Max=5.16D-07 NDo=     1
 LinEq1:  Iter=  6 NonCon=     1 RMS=4.75D-09 Max=3.94D-08 NDo=     1
 LinEq1:  Iter=  7 NonCon=     1 RMS=3.31D-10 Max=3.17D-09 NDo=     1
 LinEq1:  Iter=  8 NonCon=     0 RMS=2.56D-11 Max=1.47D-10 NDo=     1
 Linear equations converged to 1.000D-10 1.000D-09 after     8 iterations.
 End of Minotr F.D. properties file   721 does not exist.
 End of Minotr F.D. properties file   722 does not exist.
 End of Minotr F.D. properties file   788 does not exist.
 Calling FoFJK, ICntrl=  10002127 FMM=F ISym2X=1 I1Cent= 0 IOpClX= 0 NMat=1 NMatS=1 NMatT=0.
 ***** Axes restored to original set *****
 -------------------------------------------------------------------
 Center     Atomic                   Forces (Hartrees/Bohr)
 Number     Number              X              Y              Z
 -------------------------------------------------------------------
      1       52          -0.000000000    0.000000000   -0.000563591
      2        1           0.000000000   -0.000453085    0.000281795
      3        1           0.000000000    0.000453085    0.000281795
 -------------------------------------------------------------------
 Cartesian Forces:  Max     0.000563591 RMS     0.000313940

 GradGradGradGradGradGradGradGradGradGradGradGradGradGradGradGradGradGrad
 Berny optimization.
 Using GEDIIS/GDIIS optimizer.
 FormGI is forming the generalized inverse of G from B-inverse, IUseBI=4.
 Internal  Forces:  Max     0.000520625 RMS     0.000476764
 Search for a local minimum.
 Step number   3 out of a maximum of   20
 All quantities printed in internal units (Hartrees-Bohrs-Radians)
 Mixed Optimization -- En-DIIS/RFO-DIIS
 Update second derivatives using D2CorX and points    1    2    3
 DE= -1.45D-04 DEPred=-1.56D-04 R= 9.31D-01
 TightC=F SS=  1.41D+00  RLast= 4.61D-02 DXNew= 8.4853D-01 1.3831D-01
 Trust test= 9.31D-01 RLast= 4.61D-02 DXMaxT set to 5.05D-01
 The second derivative matrix:
                          R1        R2        A1
           R1           0.14213
           R2           0.00368   0.14213
           A1           0.00698   0.00698   0.15408
 ITU=  1  1  0
 Use linear search instead of GDIIS.
     Eigenvalues ---    0.13844   0.13925   0.16064
 RFO step:  Lambda=-2.86502668D-06 EMin= 1.38442748D-01
 Quartic linear search produced a step of -0.06731.
 Iteration  1 RMS(Cart)=  0.00392872 RMS(Int)=  0.00000175
 Iteration  2 RMS(Cart)=  0.00000274 RMS(Int)=  0.00000000
 Iteration  3 RMS(Cart)=  0.00000000 RMS(Int)=  0.00000000
 ClnCor:  largest displacement from symmetrization is 2.22D-16 for atom     3.
 Variable       Old X    -DE/DX   Delta X   Delta X   Delta X     New X
                                 (Linear)    (Quad)   (Total)
    R1        3.20111   0.00052   0.00037   0.00310   0.00347   3.20458
    R2        3.20111   0.00052   0.00037   0.00310   0.00347   3.20458
    A1        1.58738   0.00037   0.00306  -0.00097   0.00209   1.58947
         Item               Value     Threshold  Converged?
 Maximum Force            0.000521     0.000450     NO 
 RMS     Force            0.000477     0.000300     NO 
 Maximum Displacement     0.004814     0.001800     NO 
 RMS     Displacement     0.003931     0.001200     NO 
 Predicted change in Energy=-2.201252D-06
 GradGradGradGradGradGradGradGradGradGradGradGradGradGradGradGradGradGrad

                          Input orientation:                          
 ---------------------------------------------------------------------
 Center     Atomic      Atomic             Coordinates (Angstroms)
 Number     Number       Type             X           Y           Z
 ---------------------------------------------------------------------
      1         52           0        0.000000   -0.000000   -0.184834
      2          1           0        0.000000   -1.210246    1.003027
      3          1           0       -0.000000    1.210246    1.003027
 ---------------------------------------------------------------------
                    Distance matrix (angstroms):
                    1          2          3
     1  Te   0.000000
     2  H    1.695791   0.000000
     3  H    1.695791   2.420492   0.000000
 Stoichiometry    H2Te
 Framework group  C2V[C2(Te),SGV(H2)]
 Deg. of freedom     2
 Full point group                 C2V     NOp   4
 Largest Abelian subgroup         C2V     NOp   4
 Largest concise Abelian subgroup C2      NOp   2
                         Standard orientation:                         
 ---------------------------------------------------------------------
 Center     Atomic      Atomic             Coordinates (Angstroms)
 Number     Number       Type             X           Y           Z
 ---------------------------------------------------------------------
      1         52           0       -0.000000    0.000000    0.043995
      2          1           0        0.000000    1.210246   -1.143866
      3          1           0       -0.000000   -1.210246   -1.143866
 ---------------------------------------------------------------------
 Rotational constants (GHZ):         180.4505043         171.1807093          87.8467102
 Standard basis: 3-21G (6D, 7F)
 There are    19 symmetry adapted cartesian basis functions of A1  symmetry.
 There are     2 symmetry adapted cartesian basis functions of A2  symmetry.
 There are     7 symmetry adapted cartesian basis functions of B1  symmetry.
 There are     9 symmetry adapted cartesian basis functions of B2  symmetry.
 There are    19 symmetry adapted basis functions of A1  symmetry.
 There are     2 symmetry adapted basis functions of A2  symmetry.
 There are     7 symmetry adapted basis functions of B1  symmetry.
 There are     9 symmetry adapted basis functions of B2  symmetry.
    37 basis functions,    93 primitive gaussians,    37 cartesian basis functions
    27 alpha electrons       27 beta electrons
       nuclear repulsion energy        32.6721674597 Hartrees.
 NAtoms=    3 NActive=    3 NUniq=    2 SFac= 2.25D+00 NAtFMM=   60 NAOKFM=F Big=F
 Integral buffers will be    131072 words long.
 Raffenetti 1 integral format.
 Two-electron integral symmetry is turned on.
 One-electron integrals computed using PRISM.
 NBasis=    37 RedAO= T EigKep=  1.28D-03  NBF=    19     2     7     9
 NBsUse=    37 1.00D-06 EigRej= -1.00D+00 NBFU=    19     2     7     9
 Initial guess from the checkpoint file:  "TeH2.chk"
 B after Tr=    -0.000000   -0.000000   -0.000000
         Rot=    1.000000    0.000000   -0.000000   -0.000000 Ang=   0.00 deg.
 Initial guess orbital symmetries:
       Occupied  (A1) (A1) (B2) (A1) (B1) (A1) (B2) (A1) (B1) (B2)
                 (A1) (A2) (B1) (A1) (A1) (B2) (A1) (B1) (B2) (A1)
                 (A2) (B1) (A1) (A1) (B2) (A1) (B1)
       Virtual   (B2) (A1) (A1) (B2) (A1) (B1) (A1) (B2) (A1) (A1)
 Keep R1 ints in memory in symmetry-blocked form, NReq=1078853.
 Requested convergence on RMS density matrix=1.00D-08 within 128 cycles.
 Requested convergence on MAX density matrix=1.00D-06.
 Requested convergence on             energy=1.00D-06.
 No special actions if energy rises.
 SCF Done:  E(RHF) =  -6584.32017865     A.U. after    7 cycles
            NFock=  7  Conv=0.21D-08     -V/T= 2.0029
 ExpMin= 9.67D-02 ExpMax= 1.38D+04 ExpMxC= 1.38D+04 IAcc=3 IRadAn=         5 AccDes= 0.00D+00
 HarFok:  IExCor=  205 AccDes= 0.00D+00 IRadAn=         5 IDoV=-2 UseB2=F ITyADJ=14
 ICtDFT= 12500011 ScaDFX=  1.000000  1.000000  1.000000  1.000000
 Defaulting to unpruned grid for atomic number  52.
 Range of M.O.s used for correlation:    19    37
 NBasis=    37 NAE=    27 NBE=    27 NFC=    18 NFV=     0
 NROrb=     19 NOA=     9 NOB=     9 NVA=    10 NVB=    10

 **** Warning!!: The largest alpha MO coefficient is  0.21083431D+02

 Fully direct method using O(ONN) memory.
 JobTyp=1 Pass  1:  I=  19 to  27 NPSUse=  1 ParTrn=F ParDer=F DoDerP=T.
 Spin components of T(2) and E(2):
     alpha-alpha T2 =       0.1193421546D-02 E2=     -0.2472995891D-02
     alpha-beta  T2 =       0.2555736462D-01 E2=     -0.4435281902D-01
     beta-beta   T2 =       0.1193421546D-02 E2=     -0.2472995891D-02
 ANorm=    0.1013875834D+01
 E2 =    -0.4929881081D-01 EUMP2 =    -0.65843694774578D+04
          IDoAtm=111
          Differentiating once with respect to electric field.
                with respect to dipole field.
          Differentiating once with respect to nuclear coordinates.
 Keep R1 ints in memory in symmetry-blocked form, NReq=1079499.
          There are     1 degrees of freedom in the 1st order CPHF.  IDoFFX=0 NUNeed=     1.
 LinEq1:  Iter=  0 NonCon=     1 RMS=2.73D-03 Max=1.96D-02 NDo=     1
 AX will form     1 AO Fock derivatives at one time.
 LinEq1:  Iter=  1 NonCon=     1 RMS=3.86D-04 Max=5.17D-03 NDo=     1
 LinEq1:  Iter=  2 NonCon=     1 RMS=6.36D-05 Max=5.84D-04 NDo=     1
 LinEq1:  Iter=  3 NonCon=     1 RMS=1.02D-05 Max=8.89D-05 NDo=     1
 LinEq1:  Iter=  4 NonCon=     1 RMS=7.63D-07 Max=7.15D-06 NDo=     1
 LinEq1:  Iter=  5 NonCon=     1 RMS=7.67D-08 Max=5.19D-07 NDo=     1
 LinEq1:  Iter=  6 NonCon=     1 RMS=4.77D-09 Max=3.95D-08 NDo=     1
 LinEq1:  Iter=  7 NonCon=     1 RMS=3.32D-10 Max=3.18D-09 NDo=     1
 LinEq1:  Iter=  8 NonCon=     0 RMS=2.57D-11 Max=1.48D-10 NDo=     1
 Linear equations converged to 1.000D-10 1.000D-09 after     8 iterations.
 End of Minotr F.D. properties file   721 does not exist.
 End of Minotr F.D. properties file   722 does not exist.
 End of Minotr F.D. properties file   788 does not exist.
 Calling FoFJK, ICntrl=  10002127 FMM=F ISym2X=1 I1Cent= 0 IOpClX= 0 NMat=1 NMatS=1 NMatT=0.
 ***** Axes restored to original set *****
 -------------------------------------------------------------------
 Center     Atomic                   Forces (Hartrees/Bohr)
 Number     Number              X              Y              Z
 -------------------------------------------------------------------
      1       52          -0.000000000   -0.000000000    0.000076897
      2        1           0.000000000    0.000035239   -0.000038448
      3        1           0.000000000   -0.000035239   -0.000038448
 -------------------------------------------------------------------
 Cartesian Forces:  Max     0.000076897 RMS     0.000035517

 GradGradGradGradGradGradGradGradGradGradGradGradGradGradGradGradGradGrad
 Berny optimization.
 Using GEDIIS/GDIIS optimizer.
 FormGI is forming the generalized inverse of G from B-inverse, IUseBI=4.
 Internal  Forces:  Max     0.000052081 RMS     0.000042829
 Search for a local minimum.
 Step number   4 out of a maximum of   20
 All quantities printed in internal units (Hartrees-Bohrs-Radians)
 Mixed Optimization -- En-DIIS/RFO-DIIS
 Swapping is turned off.
 Update second derivatives using D2CorX and points    1    2    3    4
 DE= -2.02D-06 DEPred=-2.20D-06 R= 9.18D-01
 TightC=F SS=  1.41D+00  RLast= 5.33D-03 DXNew= 8.4853D-01 1.5986D-02
 Trust test= 9.18D-01 RLast= 5.33D-03 DXMaxT set to 5.05D-01
 The second derivative matrix:
                          R1        R2        A1
           R1           0.14987
           R2           0.01142   0.14987
           A1           0.00645   0.00645   0.15359
 ITU=  1  1  1  0
     Eigenvalues ---    0.13844   0.14754   0.16734
 En-DIIS/RFO-DIIS/Sim-DIIS IScMMF=       -3 using points:     4    3
 RFO step:  Lambda=-3.47379911D-08.
 DidBck=F Rises=F RFO-DIIS coefs:    0.92655    0.07345
 Iteration  1 RMS(Cart)=  0.00019022 RMS(Int)=  0.00000001
 Iteration  2 RMS(Cart)=  0.00000001 RMS(Int)=  0.00000000
 ClnCor:  largest displacement from symmetrization is 4.87D-15 for atom     3.
 Variable       Old X    -DE/DX   Delta X   Delta X   Delta X     New X
                                 (Linear)    (Quad)   (Total)
    R1        3.20458  -0.00005  -0.00025  -0.00007  -0.00033   3.20425
    R2        3.20458  -0.00005  -0.00025  -0.00007  -0.00033   3.20425
    A1        1.58947   0.00001  -0.00015   0.00024   0.00008   1.58955
         Item               Value     Threshold  Converged?
 Maximum Force            0.000052     0.000450     YES
 RMS     Force            0.000043     0.000300     YES
 Maximum Displacement     0.000217     0.001800     YES
 RMS     Displacement     0.000190     0.001200     YES
 Predicted change in Energy=-1.736900D-08
 Optimization completed.
    -- Stationary point found.
                           ----------------------------
                           !   Optimized Parameters   !
                           ! (Angstroms and Degrees)  !
 --------------------------                            --------------------------
 ! Name  Definition              Value          Derivative Info.                !
 --------------------------------------------------------------------------------
 ! R1    R(1,2)                  1.6958         -DE/DX =   -0.0001              !
 ! R2    R(1,3)                  1.6958         -DE/DX =   -0.0001              !
 ! A1    A(2,1,3)               91.0696         -DE/DX =    0.0                 !
 --------------------------------------------------------------------------------
 GradGradGradGradGradGradGradGradGradGradGradGradGradGradGradGradGradGrad

                          Input orientation:                          
 ---------------------------------------------------------------------
 Center     Atomic      Atomic             Coordinates (Angstroms)
 Number     Number       Type             X           Y           Z
 ---------------------------------------------------------------------
      1         52           0        0.000000   -0.000000   -0.184834
      2          1           0        0.000000   -1.210246    1.003027
      3          1           0       -0.000000    1.210246    1.003027
 ---------------------------------------------------------------------
                    Distance matrix (angstroms):
                    1          2          3
     1  Te   0.000000
     2  H    1.695791   0.000000
     3  H    1.695791   2.420492   0.000000
 Stoichiometry    H2Te
 Framework group  C2V[C2(Te),SGV(H2)]
 Deg. of freedom     2
 Full point group                 C2V     NOp   4
 Largest Abelian subgroup         C2V     NOp   4
 Largest concise Abelian subgroup C2      NOp   2
                         Standard orientation:                         
 ---------------------------------------------------------------------
 Center     Atomic      Atomic             Coordinates (Angstroms)
 Number     Number       Type             X           Y           Z
 ---------------------------------------------------------------------
      1         52           0        0.000000    0.000000    0.043995
      2          1           0        0.000000    1.210246   -1.143866
      3          1           0       -0.000000   -1.210246   -1.143866
 ---------------------------------------------------------------------
 Rotational constants (GHZ):         180.4505043         171.1807093          87.8467102

 **********************************************************************

            Population analysis using the SCF Density.

 **********************************************************************

 Orbital symmetries:
       Occupied  (A1) (A1) (B2) (A1) (B1) (A1) (B2) (A1) (B1) (B2)
                 (A1) (A2) (B1) (A1) (A1) (B2) (A1) (B1) (B2) (A1)
                 (A2) (B1) (A1) (A1) (B2) (A1) (B1)
       Virtual   (B2) (A1) (A1) (B2) (A1) (B1) (A1) (B2) (A1) (A1)
 The electronic state is 1-A1.
 Alpha  occ. eigenvalues -- **********-171.93027-160.48258-160.48229-160.48173
 Alpha  occ. eigenvalues --  -35.66513 -30.73610 -30.73470 -30.73194 -22.40647
 Alpha  occ. eigenvalues --  -22.40638 -22.40358 -22.40226 -22.40177  -6.66883
 Alpha  occ. eigenvalues --   -4.89321  -4.88879  -4.87948  -2.08018  -2.07802
 Alpha  occ. eigenvalues --   -2.06763  -2.06297  -2.06144  -0.80343  -0.50873
 Alpha  occ. eigenvalues --   -0.43078  -0.32536
 Alpha virt. eigenvalues --    0.09633   0.16536   0.43315   0.45515   0.46962
 Alpha virt. eigenvalues --    0.48511   1.20394   1.24594   3.91418 224.02171
          Condensed to atoms (all electrons):
               1          2          3
     1  Te  51.235211   0.271690   0.271690
     2  H    0.271690   0.853628  -0.014613
     3  H    0.271690  -0.014613   0.853628
 Mulliken charges:
               1
     1  Te   0.221409
     2  H   -0.110704
     3  H   -0.110704
 Sum of Mulliken charges =  -0.00000
 Mulliken charges with hydrogens summed into heavy atoms:
               1
     1  Te  -0.000000
 Electronic spatial extent (au):  <R**2>=             88.2055
 Charge=             -0.0000 electrons
 Dipole moment (field-independent basis, Debye):
    X=              0.0000    Y=             -0.0000    Z=             -0.6163  Tot=              0.6163
 Quadrupole moment (field-independent basis, Debye-Ang):
   XX=            -33.1307   YY=            -28.3538   ZZ=            -30.0318
   XY=             -0.0000   XZ=             -0.0000   YZ=             -0.0000
 Traceless Quadrupole moment (field-independent basis, Debye-Ang):
   XX=             -2.6252   YY=              2.1516   ZZ=              0.4736
   XY=             -0.0000   XZ=             -0.0000   YZ=             -0.0000
 Octapole moment (field-independent basis, Debye-Ang**2):
  XXX=              0.0000  YYY=             -0.0000  ZZZ=              3.3073  XYY=              0.0000
  XXY=             -0.0000  XXZ=              0.3384  XZZ=              0.0000  YZZ=              0.0000
  YYZ=              2.4341  XYZ=              0.0000
 Hexadecapole moment (field-independent basis, Debye-Ang**3):
 XXXX=            -52.6570 YYYY=            -54.3018 ZZZZ=            -58.1686 XXXY=             -0.0000
 XXXZ=             -0.0000 YYYX=             -0.0000 YYYZ=              0.0000 ZZZX=             -0.0000
 ZZZY=             -0.0000 XXYY=            -17.6734 XXZZ=            -18.3563 YYZZ=            -19.4206
 XXYZ=              0.0000 YYXZ=             -0.0000 ZZXY=             -0.0000
 N-N= 3.267216745970D+01 E-N=-1.569650230030D+04  KE= 6.565278296288D+03
 Symmetry A1   KE= 4.482790315275D+03
 Symmetry A2   KE= 1.804864999536D+02
 Symmetry B1   KE= 9.517239945957D+02
 Symmetry B2   KE= 9.502774864644D+02
 Unable to Open any file for archive entry.
 1\1\GINC-BS001\FOpt\RMP2-FC\3-21G\H2Te1\PNATT\10-Aug-2026\0\\# opt fre
 q=hpmodes mp2/3-21g geom=connectivity\\Title Card Required\\0,1\Te,0.,
 0.,-0.1848336656\H,0.,-1.210245899,1.0030267078\H,0.,1.210245899,1.003
 0267078\\Version=ES64L-G16RevC.01\State=1-A1\HF=-6584.3201786\MP2=-658
 4.3694775\RMSD=2.078e-09\RMSF=3.552e-05\Dipole=0.,0.,0.2535308\PG=C02V
  [C2(Te1),SGV(H2)]\\@
 The archive entry for this job was punched.


 THERE'S SMALL CHOICE IN A BOWL OF ROTTEN APPLES.
                     SHAKESPEARE
 Job cpu time:       0 days  0 hours  0 minutes  8.4 seconds.
 Elapsed time:       0 days  0 hours  0 minutes  8.0 seconds.
 File lengths (MBytes):  RWF=      6 Int=      0 D2E=      0 Chk=      1 Scr=      1
 Normal termination of Gaussian 16 at Mon Aug 10 17:01:10 2026.
 Link1:  Proceeding to internal job step number  2.
 -------------------------------------------------------------------
 #N Geom=AllCheck Guess=TCheck SCRF=Check GenChk RMP2(FC)/3-21G Freq
 -------------------------------------------------------------------
 1/10=4,29=7,30=1,38=1,40=1/1,3;
 2/12=2,40=1/2;
 3/5=5,11=1,14=-4,25=1,30=1,70=2,71=2,116=1,140=1/1,2,3;
 4/5=101/1;
 5/5=2,38=6,98=1/2;
 8/6=3,8=1,10=1,19=11,30=-1/1;
 9/15=3,16=-3/6;
 11/6=1,8=1,15=11,17=12,24=-1,27=1,28=-2,29=300,32=6,42=3/1,2,10;
 10/6=2,21=1/2;
 8/6=4,8=1,10=1,19=11,30=-1/11,4;
 10/5=1,20=4/2;
 11/12=2,14=11,16=1,17=2,28=-2,42=3,76=2/2,10,12;
 6/7=2,8=2,9=2,10=2/1;
 7/8=11,10=1,12=2,25=1,44=2/1,2,3,16;
 1/10=4,30=1/3;
 99//99;
 Structure from the checkpoint file:  "TeH2.chk"
 -------------------
 Title Card Required
 -------------------
 Charge =  0 Multiplicity = 1
 Redundant internal coordinates found in file.  (old form).
 Te,0,0.,0.,-0.1848336656
 H,0,0.,-1.210245899,1.0030267078
 H,0,0.,1.210245899,1.0030267078
 Recover connectivity data from disk.

 GradGradGradGradGradGradGradGradGradGradGradGradGradGradGradGradGradGrad
 Berny optimization.
 Initialization pass.
                           ----------------------------
                           !    Initial Parameters    !
                           ! (Angstroms and Degrees)  !
 --------------------------                            --------------------------
 ! Name  Definition              Value          Derivative Info.                !
 --------------------------------------------------------------------------------
 ! R1    R(1,2)                  1.6958         calculate D2E/DX2 analytically  !
 ! R2    R(1,3)                  1.6958         calculate D2E/DX2 analytically  !
 ! A1    A(2,1,3)               91.0696         calculate D2E/DX2 analytically  !
 --------------------------------------------------------------------------------
 Trust Radius=3.00D-01 FncErr=1.00D-07 GrdErr=1.00D-07 EigMax=2.50D+02 EigMin=1.00D-04
 Number of steps in this run=      2 maximum allowed number of steps=      2.
 GradGradGradGradGradGradGradGradGradGradGradGradGradGradGradGradGradGrad

                          Input orientation:                          
 ---------------------------------------------------------------------
 Center     Atomic      Atomic             Coordinates (Angstroms)
 Number     Number       Type             X           Y           Z
 ---------------------------------------------------------------------
      1         52           0        0.000000   -0.000000   -0.184834
      2          1           0        0.000000   -1.210246    1.003027
      3          1           0       -0.000000    1.210246    1.003027
 ---------------------------------------------------------------------
                    Distance matrix (angstroms):
                    1          2          3
     1  Te   0.000000
     2  H    1.695791   0.000000
     3  H    1.695791   2.420492   0.000000
 Stoichiometry    H2Te
 Framework group  C2V[C2(Te),SGV(H2)]
 Deg. of freedom     2
 Full point group                 C2V     NOp   4
 Largest Abelian subgroup         C2V     NOp   4
 Largest concise Abelian subgroup C2      NOp   2
                         Standard orientation:                         
 ---------------------------------------------------------------------
 Center     Atomic      Atomic             Coordinates (Angstroms)
 Number     Number       Type             X           Y           Z
 ---------------------------------------------------------------------
      1         52           0       -0.000000   -0.000000    0.043995
      2          1           0        0.000000    1.210246   -1.143866
      3          1           0       -0.000000   -1.210246   -1.143866
 ---------------------------------------------------------------------
 Rotational constants (GHZ):         180.4505043         171.1807093          87.8467102
 Standard basis: 3-21G (6D, 7F)
 There are    19 symmetry adapted cartesian basis functions of A1  symmetry.
 There are     2 symmetry adapted cartesian basis functions of A2  symmetry.
 There are     7 symmetry adapted cartesian basis functions of B1  symmetry.
 There are     9 symmetry adapted cartesian basis functions of B2  symmetry.
 There are    19 symmetry adapted basis functions of A1  symmetry.
 There are     2 symmetry adapted basis functions of A2  symmetry.
 There are     7 symmetry adapted basis functions of B1  symmetry.
 There are     9 symmetry adapted basis functions of B2  symmetry.
    37 basis functions,    93 primitive gaussians,    37 cartesian basis functions
    27 alpha electrons       27 beta electrons
       nuclear repulsion energy        32.6721674597 Hartrees.
 NAtoms=    3 NActive=    3 NUniq=    2 SFac= 2.25D+00 NAtFMM=   60 NAOKFM=F Big=F
 Integral buffers will be    131072 words long.
 Raffenetti 1 integral format.
 Two-electron integral symmetry is turned on.
 One-electron integrals computed using PRISM.
 NBasis=    37 RedAO= T EigKep=  1.28D-03  NBF=    19     2     7     9
 NBsUse=    37 1.00D-06 EigRej= -1.00D+00 NBFU=    19     2     7     9
 Initial guess from the checkpoint file:  "TeH2.chk"
 B after Tr=     0.000000    0.000000   -0.000000
         Rot=    1.000000   -0.000000    0.000000   -0.000000 Ang=   0.00 deg.
 Initial guess orbital symmetries:
       Occupied  (A1) (A1) (B2) (A1) (B1) (A1) (B2) (A1) (B1) (B2)
                 (A1) (A2) (B1) (A1) (A1) (B2) (A1) (B1) (B2) (A1)
                 (A2) (B1) (A1) (A1) (B2) (A1) (B1)
       Virtual   (B2) (A1) (A1) (B2) (A1) (B1) (A1) (B2) (A1) (A1)
 Keep R1 ints in memory in symmetry-blocked form, NReq=1078853.
 Requested convergence on RMS density matrix=1.00D-08 within 128 cycles.
 Requested convergence on MAX density matrix=1.00D-06.
 Requested convergence on             energy=1.00D-06.
 No special actions if energy rises.
 Skip diagonalization as Alpha Fock matrix is already diagonal.
 SCF Done:  E(RHF) =  -6584.32017865     A.U. after    1 cycles
            NFock=  1  Conv=0.00D+00     -V/T= 2.0029
 ExpMin= 9.67D-02 ExpMax= 1.38D+04 ExpMxC= 1.38D+04 IAcc=3 IRadAn=         5 AccDes= 0.00D+00
 HarFok:  IExCor=  205 AccDes= 0.00D+00 IRadAn=         5 IDoV=-2 UseB2=F ITyADJ=14
 ICtDFT= 12500011 ScaDFX=  1.000000  1.000000  1.000000  1.000000
 Defaulting to unpruned grid for atomic number  52.
 Range of M.O.s used for correlation:    19    37
 NBasis=    37 NAE=    27 NBE=    27 NFC=    18 NFV=     0
 NROrb=     19 NOA=     9 NOB=     9 NVA=    10 NVB=    10

 **** Warning!!: The largest alpha MO coefficient is  0.21083431D+02

 Disk-based method using ON**2 memory for  9 occupieds at a time.
 Permanent disk used for amplitudes=       88695 words.
 Estimated scratch disk usage=     1221817 words.
 Actual    scratch disk usage=     1221817 words.
 JobTyp=1 Pass  1:  I=  19 to  27 NPSUse=  1 ParTrn=F ParDer=F DoDerP=T.
 (rs|ai) integrals will be sorted in core.
 Spin components of T(2) and E(2):
     alpha-alpha T2 =       0.1193421546D-02 E2=     -0.2472995891D-02
     alpha-beta  T2 =       0.2555736464D-01 E2=     -0.4435281903D-01
     beta-beta   T2 =       0.1193421546D-02 E2=     -0.2472995891D-02
 ANorm=    0.1013875834D+01
 E2 =    -0.4929881081D-01 EUMP2 =    -0.65843694774578D+04
 G2DrvN: will do     4 centers at a time, making    1 passes.
 Calling FoFCou, ICntrl=  3107 FMM=F I1Cent=   0 AccDes= 0.00D+00.
 End of G2Drv F.D. properties file   721 does not exist.
 End of G2Drv F.D. properties file   722 does not exist.
 End of G2Drv F.D. properties file   788 does not exist.
          IDoAtm=111
          Differentiating once with respect to electric field.
                with respect to dipole field.
          Differentiating once with respect to nuclear coordinates.
 Keep R1 ints in memory in symmetry-blocked form, NReq=1079353.
          There are    12 degrees of freedom in the 1st order CPHF.  IDoFFX=6 NUNeed=    12.
      9 vectors produced by pass  0 Test12= 2.25D-15 8.33D-09 XBig12= 1.10D+01 2.67D+00.
 AX will form     9 AO Fock derivatives at one time.
      9 vectors produced by pass  1 Test12= 2.25D-15 8.33D-09 XBig12= 1.65D-01 2.46D-01.
      9 vectors produced by pass  2 Test12= 2.25D-15 8.33D-09 XBig12= 1.43D-03 2.18D-02.
      9 vectors produced by pass  3 Test12= 2.25D-15 8.33D-09 XBig12= 5.22D-06 1.13D-03.
      9 vectors produced by pass  4 Test12= 2.25D-15 8.33D-09 XBig12= 2.97D-08 7.81D-05.
      7 vectors produced by pass  5 Test12= 2.25D-15 8.33D-09 XBig12= 7.55D-11 4.11D-06.
      3 vectors produced by pass  6 Test12= 2.25D-15 8.33D-09 XBig12= 1.46D-13 1.58D-07.
 InvSVY:  IOpt=1 It=  1 EMax= 6.66D-16
 Solved reduced A of dimension    55 with     9 vectors.
 End of Minotr F.D. properties file   721 does not exist.
 End of Minotr F.D. properties file   722 does not exist.
 End of Minotr F.D. properties file   788 does not exist.
 MDV=   104857600.
 Form MO integral derivatives with frozen-active canonical formalism.
 Discarding MO integrals.
 Reordered first order wavefunction length =       145800
 In DefCFB: NBatch=  1 ICI= 27 ICA= 10 LFMax= 27
            Large arrays: LIAPS=     1478520 LIARS=     2307690 words.
 Semi-Direct transformation.
 ModeAB=           4 MOrb=            27 LenV=     104665790
 LASXX=       257391 LTotXX=      257391 LenRXX=      610875
 LTotAB=      353484 MaxLAS=      692307 LenRXY=           0
 NonZer=      868266 LenScr=     1952256 LnRSAI=      692307
 LnScr1=     1571840 LExtra=           0 Total=      4827278
 MaxDsk=          -1 SrtSym=           T ITran=            4
 JobTyp=0 Pass  1:  I=   1 to  27.
 (rs|ai) integrals will be sorted in core.
 Spin components of T(2) and E(2):
     alpha-alpha T2 =       0.1193421546D-02 E2=     -0.2472995891D-02
     alpha-beta  T2 =       0.2555736464D-01 E2=     -0.4435281903D-01
     beta-beta   T2 =       0.1193421546D-02 E2=     -0.2472995891D-02
 ANorm=    0.1433836956D+01
 E2 =    -0.4929881081D-01 EUMP2 =    -0.65843694774578D+04
          IDoAtm=111
          Differentiating once with respect to electric field.
                with respect to dipole field.
          Differentiating once with respect to nuclear coordinates.
          There are     1 degrees of freedom in the 1st order CPHF.  IDoFFX=0 NUNeed=     1.
 LinEq1:  Iter=  0 NonCon=     1 RMS=2.73D-03 Max=1.96D-02 NDo=     1
 LinEq1:  Iter=  1 NonCon=     1 RMS=3.86D-04 Max=5.17D-03 NDo=     1
 LinEq1:  Iter=  2 NonCon=     1 RMS=6.36D-05 Max=5.84D-04 NDo=     1
 LinEq1:  Iter=  3 NonCon=     1 RMS=1.02D-05 Max=8.89D-05 NDo=     1
 LinEq1:  Iter=  4 NonCon=     1 RMS=7.63D-07 Max=7.15D-06 NDo=     1
 LinEq1:  Iter=  5 NonCon=     1 RMS=7.67D-08 Max=5.19D-07 NDo=     1
 LinEq1:  Iter=  6 NonCon=     1 RMS=4.77D-09 Max=3.95D-08 NDo=     1
 LinEq1:  Iter=  7 NonCon=     1 RMS=3.32D-10 Max=3.18D-09 NDo=     1
 LinEq1:  Iter=  8 NonCon=     0 RMS=2.57D-11 Max=1.48D-10 NDo=     1
 Linear equations converged to 1.000D-10 1.000D-09 after     8 iterations.
 End of Minotr F.D. properties file   721 does not exist.
 End of Minotr F.D. properties file   722 does not exist.
 End of Minotr F.D. properties file   788 does not exist.
 Symmetrizing basis deriv contribution to polar:
 IMax=3 JMax=2 DiffMx= 0.00D+00
 G2DrvN: will do     4 centers at a time, making    1 passes.
 Calling FoFCou, ICntrl=  3107 FMM=F I1Cent=   0 AccDes= 0.00D+00.
 End of G2Drv F.D. properties file   721 does not exist.
 End of G2Drv F.D. properties file   722 does not exist.
 End of G2Drv F.D. properties file   788 does not exist.
 R2 and R3 integrals will be kept in memory, NReq=     1314912.
 DD1Dir will call FoFMem   1 times, MxPair=       756
 NAB=   378 NAA=     0 NBB=     0.
 Discarding MO integrals.

 **********************************************************************

            Population analysis using the SCF Density.

 **********************************************************************

 Orbital symmetries:
       Occupied  (A1) (A1) (B2) (A1) (B1) (A1) (B2) (A1) (B1) (B2)
                 (A1) (A2) (B1) (A1) (A1) (B2) (A1) (B1) (B2) (A1)
                 (A2) (B1) (A1) (A1) (B2) (A1) (B1)
       Virtual   (B2) (A1) (A1) (B2) (A1) (B1) (A1) (B2) (A1) (A1)
 The electronic state is 1-A1.
 Alpha  occ. eigenvalues -- **********-171.93027-160.48258-160.48229-160.48173
 Alpha  occ. eigenvalues --  -35.66513 -30.73610 -30.73470 -30.73194 -22.40647
 Alpha  occ. eigenvalues --  -22.40638 -22.40358 -22.40226 -22.40177  -6.66883
 Alpha  occ. eigenvalues --   -4.89321  -4.88879  -4.87948  -2.08018  -2.07802
 Alpha  occ. eigenvalues --   -2.06763  -2.06297  -2.06144  -0.80343  -0.50873
 Alpha  occ. eigenvalues --   -0.43078  -0.32536
 Alpha virt. eigenvalues --    0.09633   0.16536   0.43315   0.45515   0.46962
 Alpha virt. eigenvalues --    0.48511   1.20394   1.24594   3.91418 224.02171
          Condensed to atoms (all electrons):
               1          2          3
     1  Te  51.235211   0.271690   0.271690
     2  H    0.271690   0.853628  -0.014613
     3  H    0.271690  -0.014613   0.853628
 Mulliken charges:
               1
     1  Te   0.221409
     2  H   -0.110704
     3  H   -0.110704
 Sum of Mulliken charges =   0.00000
 Mulliken charges with hydrogens summed into heavy atoms:
               1
     1  Te   0.000000
 APT charges:
               1
     1  Te   0.232777
     2  H   -0.116389
     3  H   -0.116389
 Sum of APT charges =  -0.00000
 APT charges with hydrogens summed into heavy atoms:
               1
     1  Te  -0.000000
 Electronic spatial extent (au):  <R**2>=             88.2055
 Charge=              0.0000 electrons
 Dipole moment (field-independent basis, Debye):
    X=              0.0000    Y=              0.0000    Z=             -0.6163  Tot=              0.6163
 Quadrupole moment (field-independent basis, Debye-Ang):
   XX=            -33.1307   YY=            -28.3538   ZZ=            -30.0318
   XY=             -0.0000   XZ=             -0.0000   YZ=              0.0000
 Traceless Quadrupole moment (field-independent basis, Debye-Ang):
   XX=             -2.6252   YY=              2.1516   ZZ=              0.4736
   XY=             -0.0000   XZ=             -0.0000   YZ=              0.0000
 Octapole moment (field-independent basis, Debye-Ang**2):
  XXX=              0.0000  YYY=             -0.0000  ZZZ=              3.3073  XYY=              0.0000
  XXY=             -0.0000  XXZ=              0.3384  XZZ=              0.0000  YZZ=              0.0000
  YYZ=              2.4341  XYZ=              0.0000
 Hexadecapole moment (field-independent basis, Debye-Ang**3):
 XXXX=            -52.6570 YYYY=            -54.3018 ZZZZ=            -58.1686 XXXY=             -0.0000
 XXXZ=             -0.0000 YYYX=             -0.0000 YYYZ=              0.0000 ZZZX=             -0.0000
 ZZZY=              0.0000 XXYY=            -17.6734 XXZZ=            -18.3563 YYZZ=            -19.4206
 XXYZ=              0.0000 YYXZ=             -0.0000 ZZXY=             -0.0000
 N-N= 3.267216745970D+01 E-N=-1.569650230030D+04  KE= 6.565278296288D+03
 Symmetry A1   KE= 4.482790315275D+03
 Symmetry A2   KE= 1.804864999536D+02
 Symmetry B1   KE= 9.517239945957D+02
 Symmetry B2   KE= 9.502774864644D+02
  Exact polarizability:      15.066       0.000      29.381       0.000       0.000      25.473
 Approx polarizability:      11.016       0.000      25.725       0.000      -0.000      21.636
 Calling FoFJK, ICntrl=  10100127 FMM=F ISym2X=1 I1Cent= 0 IOpClX= 0 NMat=1 NMatS=1 NMatT=0.
 Full mass-weighted force constant matrix:
 Low frequencies ---   -0.0392   -0.0383   -0.0292   20.0998   20.7199   21.3556
 Low frequencies ---  892.9572 2062.3274 2070.5516
 Diagonal vibrational polarizability:
        0.0000000       0.6634282       2.3739660
 Harmonic frequencies (cm**-1), IR intensities (KM/Mole), Raman scattering
 activities (A**4/AMU), depolarization ratios for plane and unpolarized
 incident light, reduced masses (AMU), force constants (mDyne/A),
 and normal coordinates:
                           1         2         3
                          A1        A1        B2
       Frequencies ---   892.9572 2062.3274 2070.5516
    Reduced masses ---     1.0160    1.0150    1.0157
   Force constants ---     0.4773    2.5436    2.5657
    IR Intensities ---    53.4019   90.3482  105.6898
 Coord Atom Element:
   1     1    52         -0.00000   0.00000  -0.00000
   2     1    52         -0.00000   0.00000  -0.00783
   3     1    52         -0.00797   0.00748   0.00000
   1     2     1          0.00000   0.00000   0.00000
   2     2     1          0.48594   0.51736   0.50463
   3     2     1          0.51364  -0.48198  -0.49530
   1     3     1          0.00000  -0.00000   0.00000
   2     3     1         -0.48594  -0.51736   0.50463
   3     3     1          0.51364  -0.48198   0.49530
 Harmonic frequencies (cm**-1), IR intensities (KM/Mole), Raman scattering
 activities (A**4/AMU), depolarization ratios for plane and unpolarized
 incident light, reduced masses (AMU), force constants (mDyne/A),
 and normal coordinates:
                      1                      2                      3
                     A1                     A1                     B2
 Frequencies --    892.9572              2062.3274              2070.5516
 Red. masses --      1.0160                 1.0150                 1.0157
 Frc consts  --      0.4773                 2.5436                 2.5657
 IR Inten    --     53.4019                90.3482               105.6898
  Atom  AN      X      Y      Z        X      Y      Z        X      Y      Z
     1  52    -0.00  -0.00  -0.01     0.00   0.00   0.01    -0.00  -0.01   0.00
     2   1     0.00   0.49   0.51     0.00   0.52  -0.48     0.00   0.50  -0.50
     3   1     0.00  -0.49   0.51    -0.00  -0.52  -0.48     0.00   0.50   0.50

 -------------------
 - Thermochemistry -
 -------------------
 Temperature   298.150 Kelvin.  Pressure   1.00000 Atm.
 Atom     1 has atomic number 52 and mass 129.90670
 Atom     2 has atomic number  1 and mass   1.00783
 Atom     3 has atomic number  1 and mass   1.00783
 Molecular mass:   131.92235 amu.
 Principal axes and moments of inertia in atomic units:
                           1         2         3
     Eigenvalues --    10.00131  10.54290  20.54421
           X            0.00000   0.00000   1.00000
           Y            1.00000   0.00000  -0.00000
           Z            0.00000   1.00000   0.00000
 This molecule is an asymmetric top.
 Rotational symmetry number  2.
 Rotational temperatures (Kelvin)      8.66026     8.21538     4.21598
 Rotational constants (GHZ):         180.45050   171.18071    87.84671
 Zero-point vibrational energy      30061.2 (Joules/Mol)
                                    7.18479 (Kcal/Mol)
 Vibrational temperatures:   1284.77  2967.23  2979.06
          (Kelvin)
 
 Zero-point correction=                           0.011450 (Hartree/Particle)
 Thermal correction to Energy=                    0.014339
 Thermal correction to Enthalpy=                  0.015283
 Thermal correction to Gibbs Free Energy=        -0.010729
 Sum of electronic and zero-point Energies=          -6584.358028
 Sum of electronic and thermal Energies=             -6584.355139
 Sum of electronic and thermal Enthalpies=           -6584.354195
 Sum of electronic and thermal Free Energies=        -6584.380207
 
                     E (Thermal)             CV                S
                      KCal/Mol        Cal/Mol-Kelvin    Cal/Mol-Kelvin
 Total                    8.998              6.490             54.747
 Electronic               0.000              0.000              0.000
 Translational            0.889              2.981             40.544
 Rotational               0.889              2.981             14.057
 Vibrational              7.220              0.528              0.146
                       Q            Log10(Q)             Ln(Q)
 Total Bot       0.861052D+05          4.935029         11.363325
 Total V=0       0.159045D+11         10.201520         23.489867
 Vib (Bot)       0.548819D-05         -5.260571        -12.112913
 Vib (V=0)       0.101372D+01          0.005919          0.013630
 Electronic      0.100000D+01          0.000000          0.000000
 Translational   0.595568D+08          7.774931         17.902441
 Rotational      0.263432D+03          2.420669          5.573796
 ***** Axes restored to original set *****
 -------------------------------------------------------------------
 Center     Atomic                   Forces (Hartrees/Bohr)
 Number     Number              X              Y              Z
 -------------------------------------------------------------------
      1       52          -0.000000000    0.000000000    0.000076896
      2        1           0.000000000    0.000035239   -0.000038448
      3        1           0.000000000   -0.000035239   -0.000038448
 -------------------------------------------------------------------
 Cartesian Forces:  Max     0.000076896 RMS     0.000035517
 FormGI is forming the generalized inverse of G from B-inverse, IUseBI=4.

 GradGradGradGradGradGradGradGradGradGradGradGradGradGradGradGradGradGrad
 Berny optimization.
 Internal  Forces:  Max     0.000052081 RMS     0.000042829
 Search for a local minimum.
 Step number   1 out of a maximum of    2
 All quantities printed in internal units (Hartrees-Bohrs-Radians)
 Second derivative matrix not updated -- analytic derivatives used.
 The second derivative matrix:
                          R1        R2        A1
           R1           0.16159
           R2          -0.00064   0.16159
           A1           0.00583   0.00583   0.15531
 ITU=  0
     Eigenvalues ---    0.14942   0.16223   0.16685
 Angle between quadratic step and forces=   3.16 degrees.
 Linear search not attempted -- first point.
 Iteration  1 RMS(Cart)=  0.00019077 RMS(Int)=  0.00000001
 Iteration  2 RMS(Cart)=  0.00000001 RMS(Int)=  0.00000000
 ClnCor:  largest displacement from symmetrization is 1.11D-15 for atom     3.
 Variable       Old X    -DE/DX   Delta X   Delta X   Delta X     New X
                                 (Linear)    (Quad)   (Total)
    R1        3.20458  -0.00005   0.00000  -0.00033  -0.00033   3.20425
    R2        3.20458  -0.00005   0.00000  -0.00033  -0.00033   3.20425
    A1        1.58947   0.00001   0.00000   0.00008   0.00008   1.58955
         Item               Value     Threshold  Converged?
 Maximum Force            0.000052     0.000450     YES
 RMS     Force            0.000043     0.000300     YES
 Maximum Displacement     0.000215     0.001800     YES
 RMS     Displacement     0.000191     0.001200     YES
 Predicted change in Energy=-1.736503D-08
 Optimization completed.
    -- Stationary point found.
                           ----------------------------
                           !   Optimized Parameters   !
                           ! (Angstroms and Degrees)  !
 --------------------------                            --------------------------
 ! Name  Definition              Value          Derivative Info.                !
 --------------------------------------------------------------------------------
 ! R1    R(1,2)                  1.6958         -DE/DX =   -0.0001              !
 ! R2    R(1,3)                  1.6958         -DE/DX =   -0.0001              !
 ! A1    A(2,1,3)               91.0696         -DE/DX =    0.0                 !
 --------------------------------------------------------------------------------
 GradGradGradGradGradGradGradGradGradGradGradGradGradGradGradGradGradGrad


 ----------------------------------------------------------------------

 Electric dipole moment (input orientation):
 (Debye = 10**-18 statcoulomb cm , SI units = C m)
                  (au)            (Debye)         (10**-30 SI)
   Tot        0.253531D+00      0.644411D+00      0.214952D+01
   x          0.000000D+00      0.000000D+00      0.000000D+00
   y          0.000000D+00      0.000000D+00      0.000000D+00
   z          0.253531D+00      0.644411D+00      0.214952D+01

 Dipole polarizability, Alpha (input orientation).
 (esu units = cm**3 , SI units = C**2 m**2 J**-1)
 Alpha(0;0):
               (au)            (10**-24 esu)      (10**-40 SI)
   iso        0.233066D+02      0.345368D+01      0.384274D+01
   aniso      0.128155D+02      0.189906D+01      0.211299D+01
   xx         0.150663D+02      0.223259D+01      0.248409D+01
   yx         0.000000D+00      0.000000D+00      0.000000D+00
   yy         0.293809D+02      0.435380D+01      0.484426D+01
   zx         0.000000D+00      0.000000D+00      0.000000D+00
   zy         0.000000D+00      0.000000D+00      0.000000D+00
   zz         0.254725D+02      0.377464D+01      0.419985D+01

 ----------------------------------------------------------------------

 Dipole orientation:
    52         -0.00000000          0.00000000         -0.34928501
     1          0.00000000         -2.28703329          1.89544577
     1         -0.00000000          2.28703329          1.89544577

 Electric dipole moment (dipole orientation):
 (Debye = 10**-18 statcoulomb cm , SI units = C m)
                  (au)            (Debye)         (10**-30 SI)
   Tot        0.253531D+00      0.644411D+00      0.214952D+01
   x          0.000000D+00      0.000000D+00      0.000000D+00
   y          0.000000D+00      0.000000D+00      0.000000D+00
   z          0.253531D+00      0.644411D+00      0.214952D+01

 Dipole polarizability, Alpha (dipole orientation).
 (esu units = cm**3 , SI units = C**2 m**2 J**-1)
 Alpha(0;0):
               (au)            (10**-24 esu)      (10**-40 SI)
   iso        0.233066D+02      0.345368D+01      0.384274D+01
   aniso      0.128155D+02      0.189906D+01      0.211299D+01
   xx         0.150663D+02      0.223259D+01      0.248409D+01
   yx         0.000000D+00      0.000000D+00      0.000000D+00
   yy         0.293809D+02      0.435380D+01      0.484426D+01
   zx         0.000000D+00      0.000000D+00      0.000000D+00
   zy         0.000000D+00      0.000000D+00      0.000000D+00
   zz         0.254725D+02      0.377464D+01      0.419985D+01

 ----------------------------------------------------------------------
 Unable to Open any file for archive entry.
 1\1\GINC-BS001\Freq\RMP2-FC\3-21G\H2Te1\PNATT\10-Aug-2026\0\\#N Geom=A
 llCheck Guess=TCheck SCRF=Check GenChk RMP2(FC)/3-21G Freq\\Title Card
  Required\\0,1\Te,0.,0.,-0.1848336656\H,0.,-1.210245899,1.0030267078\H
 ,0.,1.210245899,1.0030267078\\Version=ES64L-G16RevC.01\State=1-A1\HF=-
 6584.3201786\MP2=-6584.3694775\RMSD=0.000e+00\RMSF=3.552e-05\ZeroPoint
 =0.0114497\Thermal=0.0143386\ETot=-6584.3551389\HTot=-6584.3541947\GTo
 t=-6584.3802065\Dipole=0.,0.,0.2535308\DipoleDeriv=-0.1129448,0.,0.,0.
 ,0.277324,0.,0.,0.,0.5339529,0.0564724,0.,0.,0.,-0.138662,0.0438362,0.
 ,0.1915251,-0.2669765,0.0564724,0.,0.,0.,-0.138662,-0.0438362,0.,-0.19
 15251,-0.2669765\Polar=15.0662765,0.,29.3809267,0.,0.,25.4725261\PG=C0
 2V [C2(Te1),SGV(H2)]\NImag=0\\0.00003425,0.,0.16527566,0.,0.,0.1814995
 7,-0.00001713,0.,0.,0.00001627,0.,-0.08263783,0.06526636,0.,0.09155338
 ,0.,0.08109250,-0.09074979,0.,-0.07317943,0.08517888,-0.00001713,0.,0.
 ,0.00000086,0.,0.,0.00001627,0.,-0.08263783,-0.06526636,0.,-0.00891555
 ,-0.00791307,0.,0.09155338,0.,-0.08109250,-0.09074979,0.,0.00791307,0.
 00557091,0.,0.07317943,0.08517888\\0.,0.,-0.00007690,0.,-0.00003524,0.
 00003845,0.,0.00003524,0.00003845\\\@
 The archive entry for this job was punched.


 THERE IS SOMETHING FASCINATING ABOUT SCIENCE.
 ONE GETS SUCH WHOLESALE CONJECTURE OUT OF SUCH TRIFLING INVESTMENTS.

                                                       -- MARK TWAIN
 Job cpu time:       0 days  0 hours  0 minutes  6.8 seconds.
 Elapsed time:       0 days  0 hours  0 minutes  6.6 seconds.
 File lengths (MBytes):  RWF=     45 Int=      0 D2E=      0 Chk=      1 Scr=      1
 Normal termination of Gaussian 16 at Mon Aug 10 17:01:17 2026.
