 Entering Gaussian System, Link 0=g16
 Input=XeOH4.com
 Output=XeOH4.log
 Initial command:
 /opt/g16/g16/l1.exe "/home/pnatt/scratch/Gau-1501931.inp" -scrdir="/home/pnatt/scratch/"
 Entering Link 1 = /opt/g16/g16/l1.exe PID=   1501933.
  
 Copyright (c) 1988-2019, Gaussian, Inc.  All Rights Reserved.
  
 This is part of the Gaussian(R) 16 program.  It is based on
 the Gaussian(R) 09 system (copyright 2009, Gaussian, Inc.),
 the Gaussian(R) 03 system (copyright 2003, Gaussian, Inc.),
 the Gaussian(R) 98 system (copyright 1998, Gaussian, Inc.),
 the Gaussian(R) 94 system (copyright 1995, Gaussian, Inc.),
 the Gaussian 92(TM) system (copyright 1992, Gaussian, Inc.),
 the Gaussian 90(TM) system (copyright 1990, Gaussian, Inc.),
 the Gaussian 88(TM) system (copyright 1988, Gaussian, Inc.),
 the Gaussian 86(TM) system (copyright 1986, Carnegie Mellon
 University), and the Gaussian 82(TM) system (copyright 1983,
 Carnegie Mellon University). Gaussian is a federally registered
 trademark of Gaussian, Inc.
  
 This software contains proprietary and confidential information,
 including trade secrets, belonging to Gaussian, Inc.
  
 This software is provided under written license and may be
 used, copied, transmitted, or stored only in accord with that
 written license.
  
 The following legend is applicable only to US Government
 contracts under FAR:
  
                    RESTRICTED RIGHTS LEGEND
  
 Use, reproduction and disclosure by the US Government is
 subject to restrictions as set forth in subparagraphs (a)
 and (c) of the Commercial Computer Software - Restricted
 Rights clause in FAR 52.227-19.
  
 Gaussian, Inc.
 340 Quinnipiac St., Bldg. 40, Wallingford CT 06492
  
  
 ---------------------------------------------------------------
 Warning -- This program may not be used in any manner that
 competes with the business of Gaussian, Inc. or will provide
 assistance to any competitor of Gaussian, Inc.  The licensee
 of this program is prohibited from giving any competitor of
 Gaussian, Inc. access to this program.  By using this program,
 the user acknowledges that Gaussian, Inc. is engaged in the
 business of creating and licensing software in the field of
 computational chemistry and represents and warrants to the
 licensee that it is not a competitor of Gaussian, Inc. and that
 it will not use this program in any manner prohibited above.
 ---------------------------------------------------------------
  

 Cite this work as:
 Gaussian 16, Revision C.01,
 M. J. Frisch, G. W. Trucks, H. B. Schlegel, G. E. Scuseria, 
 M. A. Robb, J. R. Cheeseman, G. Scalmani, V. Barone, 
 G. A. Petersson, H. Nakatsuji, X. Li, M. Caricato, A. V. Marenich, 
 J. Bloino, B. G. Janesko, R. Gomperts, B. Mennucci, H. P. Hratchian, 
 J. V. Ortiz, A. F. Izmaylov, J. L. Sonnenberg, D. Williams-Young, 
 F. Ding, F. Lipparini, F. Egidi, J. Goings, B. Peng, A. Petrone, 
 T. Henderson, D. Ranasinghe, V. G. Zakrzewski, J. Gao, N. Rega, 
 G. Zheng, W. Liang, M. Hada, M. Ehara, K. Toyota, R. Fukuda, 
 J. Hasegawa, M. Ishida, T. Nakajima, Y. Honda, O. Kitao, H. Nakai, 
 T. Vreven, K. Throssell, J. A. Montgomery, Jr., J. E. Peralta, 
 F. Ogliaro, M. J. Bearpark, J. J. Heyd, E. N. Brothers, K. N. Kudin, 
 V. N. Staroverov, T. A. Keith, R. Kobayashi, J. Normand, 
 K. Raghavachari, A. P. Rendell, J. C. Burant, S. S. Iyengar, 
 J. Tomasi, M. Cossi, J. M. Millam, M. Klene, C. Adamo, R. Cammi, 
 J. W. Ochterski, R. L. Martin, K. Morokuma, O. Farkas, 
 J. B. Foresman, and D. J. Fox, Gaussian, Inc., Wallingford CT, 2019.
 
 ******************************************
 Gaussian 16:  ES64L-G16RevC.01  3-Jul-2019
                10-Aug-2026 
 ******************************************
 %chk=XeOH4.chk
 ----------------------------------------------
 # opt freq=hpmodes hf/sto-3g geom=connectivity
 ----------------------------------------------
 1/18=20,19=15,38=1,57=2/1,3;
 2/9=110,12=2,17=6,18=5,40=1/2;
 3/6=3,11=9,25=1,30=1,71=1/1,2,3;
 4//1;
 5/5=2,38=5/2;
 6/7=2,8=2,9=2,10=2,28=1/1;
 7//1,2,3,16;
 1/18=20,19=15/3(2);
 2/9=110/2;
 99//99;
 2/9=110/2;
 3/6=3,11=9,25=1,30=1,71=1/1,2,3;
 4/5=5,16=3,69=1/1;
 5/5=2,38=5/2;
 7//1,2,3,16;
 1/18=20,19=15/3(-5);
 2/9=110/2;
 6/7=2,8=2,9=2,10=2,19=2,28=1/1;
 99/9=1/99;
 -------------------
 Title Card Required
 -------------------
 Symbolic Z-matrix:
 Charge =  0 Multiplicity = 1
 Xe                    0.4033   -1.07844  -1.77293 
 H                     2.7933   -1.07844  -1.77293 
 H                     0.4033   -1.07844   0.61707 
 H                    -1.9867   -1.07844  -1.77293 
 H                     0.4033   -1.07844  -4.16293 
 O                     0.4033    1.67156  -1.77293 
 

 GradGradGradGradGradGradGradGradGradGradGradGradGradGradGradGradGradGrad
 Berny optimization.
 Initialization pass.
                           ----------------------------
                           !    Initial Parameters    !
                           ! (Angstroms and Degrees)  !
 --------------------------                            --------------------------
 ! Name  Definition              Value          Derivative Info.                !
 --------------------------------------------------------------------------------
 ! R1    R(1,2)                  2.39           estimate D2E/DX2                !
 ! R2    R(1,3)                  2.39           estimate D2E/DX2                !
 ! R3    R(1,4)                  2.39           estimate D2E/DX2                !
 ! R4    R(1,5)                  2.39           estimate D2E/DX2                !
 ! R5    R(1,6)                  2.75           estimate D2E/DX2                !
 ! A1    A(2,1,3)               90.0            estimate D2E/DX2                !
 ! A2    A(2,1,5)               90.0            estimate D2E/DX2                !
 ! A3    A(2,1,6)               90.0            estimate D2E/DX2                !
 ! A4    A(3,1,4)               90.0            estimate D2E/DX2                !
 ! A5    A(3,1,6)               90.0            estimate D2E/DX2                !
 ! A6    A(4,1,5)               90.0            estimate D2E/DX2                !
 ! A7    A(4,1,6)               90.0            estimate D2E/DX2                !
 ! A8    A(5,1,6)               90.0            estimate D2E/DX2                !
 ! A9    L(2,1,4,3,-1)         180.0            estimate D2E/DX2                !
 ! A10   L(3,1,5,2,-1)         180.0            estimate D2E/DX2                !
 ! A11   L(2,1,4,3,-2)         180.0            estimate D2E/DX2                !
 ! A12   L(3,1,5,2,-2)         180.0            estimate D2E/DX2                !
 ! D1    D(2,1,6,3)            -90.0            estimate D2E/DX2                !
 ! D2    D(2,1,6,5)             90.0            estimate D2E/DX2                !
 ! D3    D(3,1,6,4)            -90.0            estimate D2E/DX2                !
 ! D4    D(4,1,6,5)            -90.0            estimate D2E/DX2                !
 --------------------------------------------------------------------------------
 Trust Radius=3.00D-01 FncErr=1.00D-07 GrdErr=1.00D-07 EigMax=2.50D+02 EigMin=1.00D-04
 Number of steps in this run=     31 maximum allowed number of steps=    100.
 GradGradGradGradGradGradGradGradGradGradGradGradGradGradGradGradGradGrad

                          Input orientation:                          
 ---------------------------------------------------------------------
 Center     Atomic      Atomic             Coordinates (Angstroms)
 Number     Number       Type             X           Y           Z
 ---------------------------------------------------------------------
      1         54           0        0.403301   -1.078441   -1.772927
      2          1           0        2.793301   -1.078441   -1.772927
      3          1           0        0.403301   -1.078441    0.617073
      4          1           0       -1.986699   -1.078441   -1.772927
      5          1           0        0.403301   -1.078441   -4.162927
      6          8           0        0.403301    1.671559   -1.772927
 ---------------------------------------------------------------------
                    Distance matrix (angstroms):
                    1          2          3          4          5
     1  Xe   0.000000
     2  H    2.390000   0.000000
     3  H    2.390000   3.379970   0.000000
     4  H    2.390000   4.780000   3.379970   0.000000
     5  H    2.390000   3.379970   4.780000   3.379970   0.000000
     6  O    2.750000   3.643432   3.643432   3.643432   3.643432
                    6
     6  O    0.000000
 Stoichiometry    H4OXe
 Framework group  C4V[C4(OXe),2SGV(H2)]
 Deg. of freedom     3
 Full point group                 C4V     NOp   8
 Largest Abelian subgroup         C2V     NOp   4
 Largest concise Abelian subgroup C2V     NOp   4
                         Standard orientation:                         
 ---------------------------------------------------------------------
 Center     Atomic      Atomic             Coordinates (Angstroms)
 Number     Number       Type             X           Y           Z
 ---------------------------------------------------------------------
      1         54           0        0.000000    0.000000    0.333333
      2          1           0        0.000000    2.390000    0.333333
      3          1           0       -2.390000    0.000000    0.333333
      4          1           0       -0.000000   -2.390000    0.333333
      5          1           0        2.390000   -0.000000    0.333333
      6          8           0        0.000000    0.000000   -2.416667
 ---------------------------------------------------------------------
 Rotational constants (GHZ):          21.9470556           4.2206167           4.2206167
 Standard basis: STO-3G (5D, 7F)
 There are    20 symmetry adapted cartesian basis functions of A1  symmetry.
 There are     2 symmetry adapted cartesian basis functions of A2  symmetry.
 There are     8 symmetry adapted cartesian basis functions of B1  symmetry.
 There are     8 symmetry adapted cartesian basis functions of B2  symmetry.
 There are    18 symmetry adapted basis functions of A1  symmetry.
 There are     2 symmetry adapted basis functions of A2  symmetry.
 There are     8 symmetry adapted basis functions of B1  symmetry.
 There are     8 symmetry adapted basis functions of B2  symmetry.
    36 basis functions,   114 primitive gaussians,    38 cartesian basis functions
    33 alpha electrons       33 beta electrons
       nuclear repulsion energy       136.4495382671 Hartrees.
 NAtoms=    6 NActive=    6 NUniq=    3 SFac= 4.00D+00 NAtFMM=   60 NAOKFM=F Big=F
 Integral buffers will be    131072 words long.
 Raffenetti 1 integral format.
 Two-electron integral symmetry is turned on.
 One-electron integrals computed using PRISM.
 NBasis=    36 RedAO= T EigKep=  3.21D-01  NBF=    18     2     8     8
 NBsUse=    36 1.00D-06 EigRej= -1.00D+00 NBFU=    18     2     8     8
 ExpMin= 1.69D-01 ExpMax= 6.26D+03 ExpMxC= 6.26D+03 IAcc=3 IRadAn=         5 AccDes= 0.00D+00
 Harris functional with IExCor=  205 and IRadAn=       5 diagonalized for initial guess.
 HarFok:  IExCor=  205 AccDes= 0.00D+00 IRadAn=         5 IDoV= 1 UseB2=F ITyADJ=14
 ICtDFT=  3500011 ScaDFX=  1.000000  1.000000  1.000000  1.000000
 Defaulting to unpruned grid for atomic number  54.
 FoFCou: FMM=F IPFlag=           0 FMFlag=      100000 FMFlg1=           0
         NFxFlg=           0 DoJE=T BraDBF=F KetDBF=T FulRan=T
         wScrn=  0.000000 ICntrl=       500 IOpCl=  0 I1Cent=   200000004 NGrid=           0
         NMat0=    1 NMatS0=      1 NMatT0=    0 NMatD0=    1 NMtDS0=    0 NMtDT0=    0
 Petite list used in FoFCou.
 Initial guess orbital symmetries:
       Occupied  (A1) (A1) (E) (E) (A1) (A1) (E) (E) (A1) (B2)
                 (B1) (E) (E) (A1) (A1) (A1) (E) (E) (A1) (B2)
                 (B1) (A1) (E) (E) (A1) (A1) (E) (E) (A1) (E) (E)
                 (A1) (B2)
       Virtual   (A1) (E) (E)
 The electronic state of the initial guess is 1-A1.
 Keep R1 ints in memory in symmetry-blocked form, NReq=1058223.
 Requested convergence on RMS density matrix=1.00D-08 within 128 cycles.
 Requested convergence on MAX density matrix=1.00D-06.
 Requested convergence on             energy=1.00D-06.
 No special actions if energy rises.
 Rare condition: small coef for last iteration:  0.000D+00
 Rare condition: small coef for last iteration:  0.000D+00
 SCF Done:  E(RHF) =  -7237.10576825     A.U. after   17 cycles
            NFock= 17  Conv=0.67D-08     -V/T= 2.0000

 **********************************************************************

            Population analysis using the SCF Density.

 **********************************************************************

 Orbital symmetries:
       Occupied  (A1) (A1) (E) (E) (A1) (A1) (E) (E) (A1) (B1)
                 (B2) (E) (E) (A1) (A1) (A1) (E) (E) (A1) (B1)
                 (B2) (E) (E) (A1) (A1) (A1) (E) (E) (A1) (E) (E)
                 (B2) (A1)
       Virtual   (E) (E) (A1)
 The electronic state is 1-A1.
 Alpha  occ. eigenvalues -- **********-185.71842-176.82182-176.82182-176.82144
 Alpha  occ. eigenvalues --  -37.99748 -34.91041 -34.91041 -34.90885 -25.45968
 Alpha  occ. eigenvalues --  -25.45967 -25.45821 -25.45821 -25.45772 -20.28718
 Alpha  occ. eigenvalues --   -7.37319  -5.93053  -5.93053  -5.92609  -2.57004
 Alpha  occ. eigenvalues --   -2.56999  -2.56564  -2.56564  -2.56422  -1.13612
 Alpha  occ. eigenvalues --   -0.86754  -0.49210  -0.49210  -0.47685  -0.41674
 Alpha  occ. eigenvalues --   -0.41674  -0.14632  -0.11812
 Alpha virt. eigenvalues --    0.05816   0.05816   0.22672
          Condensed to atoms (all electrons):
               1          2          3          4          5          6
     1  Xe  53.130552   0.038761   0.038761   0.038761   0.038761   0.006676
     2  H    0.038761   1.130299   0.000037   0.000190   0.000037  -0.000077
     3  H    0.038761   0.000037   1.130299   0.000037   0.000190  -0.000077
     4  H    0.038761   0.000190   0.000037   1.130299   0.000037  -0.000077
     5  H    0.038761   0.000037   0.000190   0.000037   1.130299  -0.000077
     6  O    0.006676  -0.000077  -0.000077  -0.000077  -0.000077   8.024373
 Mulliken charges:
               1
     1  Xe   0.707728
     2  H   -0.169247
     3  H   -0.169247
     4  H   -0.169247
     5  H   -0.169247
     6  O   -0.030741
 Sum of Mulliken charges =  -0.00000
 Mulliken charges with hydrogens summed into heavy atoms:
               1
     1  Xe   0.030741
     6  O   -0.030741
 Electronic spatial extent (au):  <R**2>=            356.5426
 Charge=             -0.0000 electrons
 Dipole moment (field-independent basis, Debye):
    X=              0.0000    Y=              0.0000    Z=              0.3394  Tot=              0.3394
 Quadrupole moment (field-independent basis, Debye-Ang):
   XX=            -41.0019   YY=            -41.0019   ZZ=            -32.4423
   XY=              0.0000   XZ=              0.0000   YZ=              0.0000
 Traceless Quadrupole moment (field-independent basis, Debye-Ang):
   XX=             -2.8532   YY=             -2.8532   ZZ=              5.7064
   XY=              0.0000   XZ=              0.0000   YZ=              0.0000
 Octapole moment (field-independent basis, Debye-Ang**2):
  XXX=             -0.0000  YYY=              0.0000  ZZZ=             -4.7244  XYY=              0.0000
  XXY=              0.0000  XXZ=             -0.9168  XZZ=              0.0000  YZZ=              0.0000
  YYZ=             -0.9168  XYZ=              0.0000
 Hexadecapole moment (field-independent basis, Debye-Ang**3):
 XXXX=           -142.1271 YYYY=           -142.1271 ZZZZ=           -157.5319 XXXY=              0.0000
 XXXZ=             -0.0000 YYYX=             -0.0000 YYYZ=              0.0000 ZZZX=              0.0000
 ZZZY=              0.0000 XXYY=            -32.1977 XXZZ=            -51.7704 YYZZ=            -51.7704
 XXYZ=              0.0000 YYXZ=              0.0000 ZZXY=              0.0000
 N-N= 1.364495382671D+02 E-N=-1.746296680605D+04  KE= 7.236831132560D+03
 Symmetry A1   KE= 5.074293186980D+03
 Symmetry A2   KE= 1.929717322657D+02
 Symmetry B1   KE= 9.847831066572D+02
 Symmetry B2   KE= 9.847831066572D+02
 Calling FoFJK, ICntrl=      2127 FMM=F ISym2X=1 I1Cent= 0 IOpClX= 0 NMat=1 NMatS=1 NMatT=0.
 ***** Axes restored to original set *****
 -------------------------------------------------------------------
 Center     Atomic                   Forces (Hartrees/Bohr)
 Number     Number              X              Y              Z
 -------------------------------------------------------------------
      1       54          -0.000000000   -0.000081733   -0.000000000
      2        1          -0.036447372    0.000179236   -0.000000000
      3        1           0.000000000    0.000179236   -0.036447372
      4        1           0.036447372    0.000179236    0.000000000
      5        1           0.000000000    0.000179236    0.036447372
      6        8          -0.000000000   -0.000635210    0.000000000
 -------------------------------------------------------------------
 Cartesian Forces:  Max     0.036447372 RMS     0.017182327

 GradGradGradGradGradGradGradGradGradGradGradGradGradGradGradGradGradGrad
 Berny optimization.
 FormGI is forming the generalized inverse of G from B-inverse, IUseBI=4.
 Internal  Forces:  Max     0.036447372 RMS     0.015908849
 Search for a local minimum.
 Step number   1 out of a maximum of   31
 All quantities printed in internal units (Hartrees-Bohrs-Radians)
 Mixed Optimization -- RFO/linear search
 Second derivative matrix not updated -- first step.
 ITU=  0
     Eigenvalues ---    0.03471   0.03471   0.03471   0.03471   0.03903
     Eigenvalues ---    0.05487   0.05487   0.05487   0.05487   0.08115
     Eigenvalues ---    0.16000   0.16000
 RFO step:  Lambda=-5.75843221D-02 EMin= 3.47106893D-02
 Linear search not attempted -- first point.
 Maximum step size (   0.300) exceeded in Quadratic search.
    -- Step size scaled by   0.380
 Iteration  1 RMS(Cart)=  0.06547456 RMS(Int)=  0.00002369
 Iteration  2 RMS(Cart)=  0.00003446 RMS(Int)=  0.00000055
 Iteration  3 RMS(Cart)=  0.00000000 RMS(Int)=  0.00000055
 ClnCor:  largest displacement from symmetrization is 1.20D-06 for atom     5.
 Variable       Old X    -DE/DX   Delta X   Delta X   Delta X     New X
                                 (Linear)    (Quad)   (Total)
    R1        4.51645  -0.03645   0.00000  -0.14999  -0.14999   4.36646
    R2        4.51645  -0.03645   0.00000  -0.14999  -0.14999   4.36646
    R3        4.51645  -0.03645   0.00000  -0.14999  -0.14999   4.36646
    R4        4.51645  -0.03645   0.00000  -0.14999  -0.14999   4.36646
    R5        5.19675  -0.00064   0.00000  -0.00250  -0.00250   5.19425
    A1        1.57080   0.00000   0.00000   0.00000  -0.00000   1.57080
    A2        1.57080  -0.00000   0.00000  -0.00000  -0.00000   1.57080
    A3        1.57080  -0.00027   0.00000  -0.00091  -0.00091   1.56988
    A4        1.57080   0.00000   0.00000   0.00000  -0.00000   1.57080
    A5        1.57080  -0.00027   0.00000  -0.00091  -0.00091   1.56988
    A6        1.57080  -0.00000   0.00000  -0.00000  -0.00000   1.57080
    A7        1.57080  -0.00027   0.00000  -0.00091  -0.00091   1.56988
    A8        1.57080  -0.00027   0.00000  -0.00091  -0.00091   1.56988
    A9        3.14159   0.00000   0.00000   0.00000  -0.00000   3.14159
   A10        3.14159   0.00000   0.00000   0.00000  -0.00000   3.14159
   A11        3.14159  -0.00054   0.00000  -0.00182  -0.00182   3.13977
   A12        3.14159   0.00054   0.00000   0.00182   0.00182   3.14342
    D1       -1.57080  -0.00000   0.00000  -0.00000   0.00000  -1.57080
    D2        1.57080  -0.00000   0.00000  -0.00000   0.00000   1.57080
    D3       -1.57080  -0.00000   0.00000  -0.00000   0.00000  -1.57080
    D4       -1.57080   0.00000   0.00000   0.00000   0.00000  -1.57080
         Item               Value     Threshold  Converged?
 Maximum Force            0.036447     0.000450     NO 
 RMS     Force            0.015909     0.000300     NO 
 Maximum Displacement     0.149988     0.001800     NO 
 RMS     Displacement     0.065474     0.001200     NO 
 Predicted change in Energy=-2.030884D-02
 GradGradGradGradGradGradGradGradGradGradGradGradGradGradGradGradGradGrad

                          Input orientation:                          
 ---------------------------------------------------------------------
 Center     Atomic      Atomic             Coordinates (Angstroms)
 Number     Number       Type             X           Y           Z
 ---------------------------------------------------------------------
      1         54           0        0.403301   -1.079624   -1.772927
      2          1           0        2.713931   -1.077518   -1.772927
      3          1           0        0.403301   -1.077518    0.537703
      4          1           0       -1.907329   -1.077518   -1.772927
      5          1           0        0.403301   -1.077518   -4.083557
      6          8           0        0.403301    1.669054   -1.772927
 ---------------------------------------------------------------------
                    Distance matrix (angstroms):
                    1          2          3          4          5
     1  Xe   0.000000
     2  H    2.310631   0.000000
     3  H    2.310631   3.267724   0.000000
     4  H    2.310631   4.621260   3.267724   0.000000
     5  H    2.310631   3.267724   4.621260   3.267724   0.000000
     6  O    2.748679   3.589244   3.589244   3.589244   3.589244
                    6
     6  O    0.000000
 Stoichiometry    H4OXe
 Framework group  C4V[C4(OXe),2SGV(H2)]
 Deg. of freedom     3
 Full point group                 C4V     NOp   8
 Largest Abelian subgroup         C2V     NOp   4
 Largest concise Abelian subgroup C2V     NOp   4
                         Standard orientation:                         
 ---------------------------------------------------------------------
 Center     Atomic      Atomic             Coordinates (Angstroms)
 Number     Number       Type             X           Y           Z
 ---------------------------------------------------------------------
      1         54           0        0.000000    0.000000    0.333301
      2          1           0        0.000000    2.310630    0.331195
      3          1           0       -2.310630    0.000000    0.331195
      4          1           0       -0.000000   -2.310630    0.331195
      5          1           0        2.310630   -0.000000    0.331195
      6          8           0        0.000000    0.000000   -2.415378
 ---------------------------------------------------------------------
 Rotational constants (GHZ):          23.4807147           4.2511816           4.2511816
 Standard basis: STO-3G (5D, 7F)
 There are    20 symmetry adapted cartesian basis functions of A1  symmetry.
 There are     2 symmetry adapted cartesian basis functions of A2  symmetry.
 There are     8 symmetry adapted cartesian basis functions of B1  symmetry.
 There are     8 symmetry adapted cartesian basis functions of B2  symmetry.
 There are    18 symmetry adapted basis functions of A1  symmetry.
 There are     2 symmetry adapted basis functions of A2  symmetry.
 There are     8 symmetry adapted basis functions of B1  symmetry.
 There are     8 symmetry adapted basis functions of B2  symmetry.
    36 basis functions,   114 primitive gaussians,    38 cartesian basis functions
    33 alpha electrons       33 beta electrons
       nuclear repulsion energy       138.2315665020 Hartrees.
 NAtoms=    6 NActive=    6 NUniq=    3 SFac= 4.00D+00 NAtFMM=   60 NAOKFM=F Big=F
 Integral buffers will be    131072 words long.
 Raffenetti 1 integral format.
 Two-electron integral symmetry is turned on.
 One-electron integrals computed using PRISM.
 NBasis=    36 RedAO= T EigKep=  3.20D-01  NBF=    18     2     8     8
 NBsUse=    36 1.00D-06 EigRej= -1.00D+00 NBFU=    18     2     8     8
 Initial guess from the checkpoint file:  "XeOH4.chk"
 B after Tr=     0.000000    0.000000    0.000000
         Rot=    1.000000    0.000000    0.000000   -0.000000 Ang=   0.00 deg.
 Initial guess orbital symmetries:
       Occupied  (A1) (A1) (E) (E) (A1) (A1) (E) (E) (A1) (B1)
                 (B2) (E) (E) (A1) (A1) (A1) (E) (E) (A1) (B1)
                 (B2) (E) (E) (A1) (A1) (A1) (E) (E) (A1) (E) (E)
                 (B2) (A1)
       Virtual   (E) (E) (A1)
 ExpMin= 1.69D-01 ExpMax= 6.26D+03 ExpMxC= 6.26D+03 IAcc=3 IRadAn=         5 AccDes= 0.00D+00
 Harris functional with IExCor=  205 and IRadAn=       5 diagonalized for initial guess.
 HarFok:  IExCor=  205 AccDes= 0.00D+00 IRadAn=         5 IDoV= 1 UseB2=F ITyADJ=14
 ICtDFT=  3500011 ScaDFX=  1.000000  1.000000  1.000000  1.000000
 Defaulting to unpruned grid for atomic number  54.
 FoFCou: FMM=F IPFlag=           0 FMFlag=      100000 FMFlg1=           0
         NFxFlg=           0 DoJE=T BraDBF=F KetDBF=T FulRan=T
         wScrn=  0.000000 ICntrl=       500 IOpCl=  0 I1Cent=   200000004 NGrid=           0
         NMat0=    1 NMatS0=      1 NMatT0=    0 NMatD0=    1 NMtDS0=    0 NMtDT0=    0
 Petite list used in FoFCou.
 Keep R1 ints in memory in symmetry-blocked form, NReq=1058335.
 Requested convergence on RMS density matrix=1.00D-08 within 128 cycles.
 Requested convergence on MAX density matrix=1.00D-06.
 Requested convergence on             energy=1.00D-06.
 No special actions if energy rises.
 SCF Done:  E(RHF) =  -7237.12790307     A.U. after    8 cycles
            NFock=  8  Conv=0.57D-09     -V/T= 2.0001
 Calling FoFJK, ICntrl=      2127 FMM=F ISym2X=1 I1Cent= 0 IOpClX= 0 NMat=1 NMatS=1 NMatT=0.
 ***** Axes restored to original set *****
 -------------------------------------------------------------------
 Center     Atomic                   Forces (Hartrees/Bohr)
 Number     Number              X              Y              Z
 -------------------------------------------------------------------
      1       54          -0.000000000   -0.000119605    0.000000000
      2        1          -0.037139238    0.000185824   -0.000000000
      3        1           0.000000000    0.000185824   -0.037139238
      4        1           0.037139238    0.000185824    0.000000000
      5        1           0.000000000    0.000185824    0.037139238
      6        8          -0.000000000   -0.000623689   -0.000000000
 -------------------------------------------------------------------
 Cartesian Forces:  Max     0.037139238 RMS     0.017508464

 GradGradGradGradGradGradGradGradGradGradGradGradGradGradGradGradGradGrad
 Berny optimization.
 Using GEDIIS/GDIIS optimizer.
 FormGI is forming the generalized inverse of G from B-inverse, IUseBI=4.
 Internal  Forces:  Max     0.037139053 RMS     0.016211185
 Search for a local minimum.
 Step number   2 out of a maximum of   31
 All quantities printed in internal units (Hartrees-Bohrs-Radians)
 Mixed Optimization -- RFO/linear search
 Update second derivatives using D2CorX and points    1    2
 DE= -2.21D-02 DEPred=-2.03D-02 R= 1.09D+00
 TightC=F SS=  1.41D+00  RLast= 3.00D-01 DXNew= 5.0454D-01 9.0000D-01
 Trust test= 1.09D+00 RLast= 3.00D-01 DXMaxT set to 5.05D-01
 ITU=  1  0
 Use linear search instead of GDIIS.
     Eigenvalues ---   -0.00462   0.03471   0.03471   0.03471   0.03903
     Eigenvalues ---    0.05480   0.05484   0.05487   0.05489   0.08115
     Eigenvalues ---    0.16000   0.16000
 RFO step:  Lambda=-7.66352074D-02 EMin=-4.62137034D-03
 Skip linear search -- no minimum in search direction.
 Maximum step size (   0.505) exceeded in Quadratic search.
    -- Step size scaled by   0.505
 Iteration  1 RMS(Cart)=  0.08735022 RMS(Int)=  0.02279927
 Iteration  2 RMS(Cart)=  0.02279885 RMS(Int)=  0.00000418
 Iteration  3 RMS(Cart)=  0.00000155 RMS(Int)=  0.00000402
 Iteration  4 RMS(Cart)=  0.00000000 RMS(Int)=  0.00000402
 ClnCor:  largest displacement from symmetrization is 5.99D-06 for atom     4.
 Variable       Old X    -DE/DX   Delta X   Delta X   Delta X     New X
                                 (Linear)    (Quad)   (Total)
    R1        4.36646  -0.03714   0.00000  -0.25223  -0.25222   4.11424
    R2        4.36646  -0.03714   0.00000  -0.25223  -0.25222   4.11424
    R3        4.36646  -0.03714   0.00000  -0.25223  -0.25222   4.11424
    R4        4.36646  -0.03714   0.00000  -0.25223  -0.25222   4.11424
    R5        5.19425  -0.00062   0.00000  -0.00391  -0.00391   5.19034
    A1        1.57080  -0.00000   0.00000  -0.00001  -0.00001   1.57078
    A2        1.57080  -0.00000   0.00000  -0.00000  -0.00001   1.57078
    A3        1.56988  -0.00032   0.00000  -0.00246  -0.00246   1.56743
    A4        1.57080  -0.00000   0.00000  -0.00000  -0.00001   1.57078
    A5        1.56988  -0.00032   0.00000  -0.00246  -0.00246   1.56743
    A6        1.57080  -0.00000   0.00000  -0.00000  -0.00001   1.57078
    A7        1.56988  -0.00032   0.00000  -0.00246  -0.00246   1.56743
    A8        1.56988  -0.00032   0.00000  -0.00246  -0.00246   1.56743
    A9        3.14159  -0.00000   0.00000  -0.00001  -0.00002   3.14157
   A10        3.14159  -0.00000   0.00000  -0.00001  -0.00002   3.14157
   A11        3.13977  -0.00064   0.00000  -0.00491  -0.00491   3.13486
   A12        3.14342   0.00064   0.00000   0.00491   0.00491   3.14833
    D1       -1.57080  -0.00000   0.00000   0.00000   0.00000  -1.57080
    D2        1.57080  -0.00000   0.00000  -0.00000   0.00000   1.57080
    D3       -1.57080   0.00000   0.00000   0.00000   0.00000  -1.57080
    D4       -1.57080   0.00000   0.00000  -0.00000   0.00000  -1.57080
         Item               Value     Threshold  Converged?
 Maximum Force            0.037139     0.000450     NO 
 RMS     Force            0.016211     0.000300     NO 
 Maximum Displacement     0.252245     0.001800     NO 
 RMS     Displacement     0.110131     0.001200     NO 
 Predicted change in Energy=-3.806934D-02
 GradGradGradGradGradGradGradGradGradGradGradGradGradGradGradGradGradGrad

                          Input orientation:                          
 ---------------------------------------------------------------------
 Center     Atomic      Atomic             Coordinates (Angstroms)
 Number     Number       Type             X           Y           Z
 ---------------------------------------------------------------------
      1         54           0        0.403301   -1.082763   -1.772927
      2          1           0        2.580449   -1.075432   -1.772927
      3          1           0        0.403301   -1.075432    0.404221
      4          1           0       -1.773847   -1.075432   -1.772927
      5          1           0        0.403301   -1.075432   -3.950075
      6          8           0        0.403301    1.663849   -1.772927
 ---------------------------------------------------------------------
                    Distance matrix (angstroms):
                    1          2          3          4          5
     1  Xe   0.000000
     2  H    2.177160   0.000000
     3  H    2.177160   3.078952   0.000000
     4  H    2.177160   4.354295   3.078952   0.000000
     5  H    2.177160   3.078952   4.354295   3.078952   0.000000
     6  O    2.746612   3.499090   3.499090   3.499090   3.499090
                    6
     6  O    0.000000
 Stoichiometry    H4OXe
 Framework group  C4V[C4(OXe),2SGV(H2)]
 Deg. of freedom     3
 Full point group                 C4V     NOp   8
 Largest Abelian subgroup         C2V     NOp   4
 Largest concise Abelian subgroup C2V     NOp   4
                         Standard orientation:                         
 ---------------------------------------------------------------------
 Center     Atomic      Atomic             Coordinates (Angstroms)
 Number     Number       Type             X           Y           Z
 ---------------------------------------------------------------------
      1         54           0       -0.000000   -0.000000    0.333367
      2          1           0       -0.000000    2.177148    0.326035
      3          1           0       -2.177148    0.000000    0.326035
      4          1           0       -0.000000   -2.177148    0.326035
      5          1           0        2.177148   -0.000000    0.326035
      6          8           0        0.000000    0.000000   -2.413245
 ---------------------------------------------------------------------
 Rotational constants (GHZ):          26.4482118           4.3011819           4.3011819
 Standard basis: STO-3G (5D, 7F)
 There are    20 symmetry adapted cartesian basis functions of A1  symmetry.
 There are     2 symmetry adapted cartesian basis functions of A2  symmetry.
 There are     8 symmetry adapted cartesian basis functions of B1  symmetry.
 There are     8 symmetry adapted cartesian basis functions of B2  symmetry.
 There are    18 symmetry adapted basis functions of A1  symmetry.
 There are     2 symmetry adapted basis functions of A2  symmetry.
 There are     8 symmetry adapted basis functions of B1  symmetry.
 There are     8 symmetry adapted basis functions of B2  symmetry.
    36 basis functions,   114 primitive gaussians,    38 cartesian basis functions
    33 alpha electrons       33 beta electrons
       nuclear repulsion energy       141.5020886579 Hartrees.
 NAtoms=    6 NActive=    6 NUniq=    3 SFac= 4.00D+00 NAtFMM=   60 NAOKFM=F Big=F
 Integral buffers will be    131072 words long.
 Raffenetti 1 integral format.
 Two-electron integral symmetry is turned on.
 One-electron integrals computed using PRISM.
 NBasis=    36 RedAO= T EigKep=  3.20D-01  NBF=    18     2     8     8
 NBsUse=    36 1.00D-06 EigRej= -1.00D+00 NBFU=    18     2     8     8
 Initial guess from the checkpoint file:  "XeOH4.chk"
 B after Tr=    -0.000000   -0.000000   -0.000000
         Rot=    1.000000    0.000000    0.000000   -0.000000 Ang=   0.00 deg.
 Initial guess orbital symmetries:
       Occupied  (A1) (A1) (E) (E) (A1) (A1) (E) (E) (A1) (B1)
                 (B2) (E) (E) (A1) (A1) (A1) (E) (E) (A1) (B1)
                 (B2) (E) (E) (A1) (A1) (A1) (E) (E) (A1) (E) (E)
                 (B2) (A1)
       Virtual   (E) (E) (A1)
 ExpMin= 1.69D-01 ExpMax= 6.26D+03 ExpMxC= 6.26D+03 IAcc=3 IRadAn=         5 AccDes= 0.00D+00
 Harris functional with IExCor=  205 and IRadAn=       5 diagonalized for initial guess.
 HarFok:  IExCor=  205 AccDes= 0.00D+00 IRadAn=         5 IDoV= 1 UseB2=F ITyADJ=14
 ICtDFT=  3500011 ScaDFX=  1.000000  1.000000  1.000000  1.000000
 Defaulting to unpruned grid for atomic number  54.
 FoFCou: FMM=F IPFlag=           0 FMFlag=      100000 FMFlg1=           0
         NFxFlg=           0 DoJE=T BraDBF=F KetDBF=T FulRan=T
         wScrn=  0.000000 ICntrl=       500 IOpCl=  0 I1Cent=   200000004 NGrid=           0
         NMat0=    1 NMatS0=      1 NMatT0=    0 NMatD0=    1 NMtDS0=    0 NMtDT0=    0
 Petite list used in FoFCou.
 Keep R1 ints in memory in symmetry-blocked form, NReq=1058455.
 Requested convergence on RMS density matrix=1.00D-08 within 128 cycles.
 Requested convergence on MAX density matrix=1.00D-06.
 Requested convergence on             energy=1.00D-06.
 No special actions if energy rises.
 SCF Done:  E(RHF) =  -7237.16476474     A.U. after    8 cycles
            NFock=  8  Conv=0.75D-09     -V/T= 2.0001
 Calling FoFJK, ICntrl=      2127 FMM=F ISym2X=1 I1Cent= 0 IOpClX= 0 NMat=1 NMatS=1 NMatT=0.
 ***** Axes restored to original set *****
 -------------------------------------------------------------------
 Center     Atomic                   Forces (Hartrees/Bohr)
 Number     Number              X              Y              Z
 -------------------------------------------------------------------
      1       54          -0.000000000    0.000620072    0.000000000
      2        1          -0.035120742    0.000123554   -0.000000000
      3        1           0.000000000    0.000123554   -0.035120742
      4        1           0.035120742    0.000123554    0.000000000
      5        1           0.000000000    0.000123554    0.035120742
      6        8          -0.000000000   -0.001114287    0.000000000
 -------------------------------------------------------------------
 Cartesian Forces:  Max     0.035120742 RMS     0.016558907

 GradGradGradGradGradGradGradGradGradGradGradGradGradGradGradGradGradGrad
 Berny optimization.
 Using GEDIIS/GDIIS optimizer.
 FormGI is forming the generalized inverse of G from B-inverse, IUseBI=4.
 Internal  Forces:  Max     0.035120126 RMS     0.015331658
 Search for a local minimum.
 Step number   3 out of a maximum of   31
 All quantities printed in internal units (Hartrees-Bohrs-Radians)
 Mixed Optimization -- RFO/linear search
 Update second derivatives using D2CorX and points    2    3
 DE= -3.69D-02 DEPred=-3.81D-02 R= 9.68D-01
 TightC=F SS=  1.41D+00  RLast= 5.05D-01 DXNew= 8.4853D-01 1.5136D+00
 Trust test= 9.68D-01 RLast= 5.05D-01 DXMaxT set to 8.49D-01
 ITU=  1  1  0
 Use linear search instead of GDIIS.
 Linear search step of   1.009 exceeds DXMaxT=   0.849 but not scaled.
 Quartic linear search produced a step of  2.00000.
 Iteration  1 RMS(Cart)=  0.08752422 RMS(Int)=  0.13289432
 Iteration  2 RMS(Cart)=  0.08728295 RMS(Int)=  0.04560709
 Iteration  3 RMS(Cart)=  0.04560617 RMS(Int)=  0.00002413
 Iteration  4 RMS(Cart)=  0.00000036 RMS(Int)=  0.00002413
 ClnCor:  largest displacement from symmetrization is 4.32D-05 for atom     4.
 Variable       Old X    -DE/DX   Delta X   Delta X   Delta X     New X
                                 (Linear)    (Quad)   (Total)
    R1        4.11424  -0.03512  -0.50445   0.00000  -0.50443   3.60981
    R2        4.11424  -0.03512  -0.50445   0.00000  -0.50443   3.60981
    R3        4.11424  -0.03512  -0.50445   0.00000  -0.50443   3.60981
    R4        4.11424  -0.03512  -0.50445   0.00000  -0.50443   3.60981
    R5        5.19034  -0.00111  -0.00781   0.00000  -0.00781   5.18253
    A1        1.57078  -0.00000  -0.00002   0.00000  -0.00006   1.57073
    A2        1.57078  -0.00000  -0.00002   0.00000  -0.00006   1.57073
    A3        1.56743  -0.00033  -0.00491   0.00000  -0.00491   1.56252
    A4        1.57078  -0.00000  -0.00002   0.00000  -0.00006   1.57073
    A5        1.56743  -0.00033  -0.00491   0.00000  -0.00491   1.56252
    A6        1.57078  -0.00000  -0.00002   0.00000  -0.00006   1.57073
    A7        1.56743  -0.00033  -0.00491   0.00000  -0.00491   1.56252
    A8        1.56743  -0.00033  -0.00491   0.00000  -0.00491   1.56252
    A9        3.14157  -0.00000  -0.00004   0.00000  -0.00011   3.14146
   A10        3.14157  -0.00000  -0.00004   0.00000  -0.00011   3.14146
   A11        3.13486  -0.00066  -0.00982   0.00000  -0.00983   3.12503
   A12        3.14833   0.00066   0.00982   0.00000   0.00983   3.15815
    D1       -1.57080  -0.00000   0.00000   0.00000   0.00000  -1.57080
    D2        1.57080  -0.00000   0.00000   0.00000   0.00000   1.57080
    D3       -1.57080  -0.00000   0.00000   0.00000   0.00000  -1.57080
    D4       -1.57080   0.00000   0.00000   0.00000   0.00000  -1.57080
         Item               Value     Threshold  Converged?
 Maximum Force            0.035120     0.000450     NO 
 RMS     Force            0.015332     0.000300     NO 
 Maximum Displacement     0.504531     0.001800     NO 
 RMS     Displacement     0.220256     0.001200     NO 
 Predicted change in Energy=-6.682198D-02
 GradGradGradGradGradGradGradGradGradGradGradGradGradGradGradGradGradGrad

                          Input orientation:                          
 ---------------------------------------------------------------------
 Center     Atomic      Atomic             Coordinates (Angstroms)
 Number     Number       Type             X           Y           Z
 ---------------------------------------------------------------------
      1         54           0        0.403301   -1.087730   -1.772927
      2          1           0        2.313462   -1.071912   -1.772927
      3          1           0        0.403301   -1.071912    0.137234
      4          1           0       -1.506860   -1.071912   -1.772927
      5          1           0        0.403301   -1.071912   -3.683088
      6          8           0        0.403301    1.654749   -1.772927
 ---------------------------------------------------------------------
                    Distance matrix (angstroms):
                    1          2          3          4          5
     1  Xe   0.000000
     2  H    1.910227   0.000000
     3  H    1.910227   2.701376   0.000000
     4  H    1.910227   3.820322   2.701376   0.000000
     5  H    1.910227   2.701376   3.820322   2.701376   0.000000
     6  O    2.742479   3.329174   3.329174   3.329174   3.329174
                    6
     6  O    0.000000
 Stoichiometry    H4OXe
 Framework group  C4V[C4(OXe),2SGV(H2)]
 Deg. of freedom     3
 Full point group                 C4V     NOp   8
 Largest Abelian subgroup         C2V     NOp   4
 Largest concise Abelian subgroup C2V     NOp   4
                         Standard orientation:                         
 ---------------------------------------------------------------------
 Center     Atomic      Atomic             Coordinates (Angstroms)
 Number     Number       Type             X           Y           Z
 ---------------------------------------------------------------------
      1         54           0        0.000000   -0.000000    0.333380
      2          1           0        0.000000    1.910161    0.317563
      3          1           0       -1.910161    0.000000    0.317563
      4          1           0       -0.000000   -1.910161    0.317563
      5          1           0        1.910161   -0.000000    0.317563
      6          8           0       -0.000000    0.000000   -2.409099
 ---------------------------------------------------------------------
 Rotational constants (GHZ):          34.3583289           4.3963394           4.3963394
 Standard basis: STO-3G (5D, 7F)
 There are    20 symmetry adapted cartesian basis functions of A1  symmetry.
 There are     2 symmetry adapted cartesian basis functions of A2  symmetry.
 There are     8 symmetry adapted cartesian basis functions of B1  symmetry.
 There are     8 symmetry adapted cartesian basis functions of B2  symmetry.
 There are    18 symmetry adapted basis functions of A1  symmetry.
 There are     2 symmetry adapted basis functions of A2  symmetry.
 There are     8 symmetry adapted basis functions of B1  symmetry.
 There are     8 symmetry adapted basis functions of B2  symmetry.
    36 basis functions,   114 primitive gaussians,    38 cartesian basis functions
    33 alpha electrons       33 beta electrons
       nuclear repulsion energy       149.3409676305 Hartrees.
 NAtoms=    6 NActive=    6 NUniq=    3 SFac= 4.00D+00 NAtFMM=   60 NAOKFM=F Big=F
 Integral buffers will be    131072 words long.
 Raffenetti 1 integral format.
 Two-electron integral symmetry is turned on.
 One-electron integrals computed using PRISM.
 NBasis=    36 RedAO= T EigKep=  3.18D-01  NBF=    18     2     8     8
 NBsUse=    36 1.00D-06 EigRej= -1.00D+00 NBFU=    18     2     8     8
 Initial guess from the checkpoint file:  "XeOH4.chk"
 B after Tr=     0.000000    0.000000    0.000000
         Rot=    1.000000    0.000000    0.000000    0.000000 Ang=   0.00 deg.
 Initial guess orbital symmetries:
       Occupied  (A1) (A1) (E) (E) (A1) (A1) (E) (E) (A1) (B1)
                 (B2) (E) (E) (A1) (A1) (A1) (E) (E) (A1) (B2)
                 (B1) (E) (E) (A1) (A1) (A1) (E) (E) (A1) (E) (E)
                 (B2) (A1)
       Virtual   (E) (E) (A1)
 ExpMin= 1.69D-01 ExpMax= 6.26D+03 ExpMxC= 6.26D+03 IAcc=3 IRadAn=         5 AccDes= 0.00D+00
 Harris functional with IExCor=  205 and IRadAn=       5 diagonalized for initial guess.
 HarFok:  IExCor=  205 AccDes= 0.00D+00 IRadAn=         5 IDoV= 1 UseB2=F ITyADJ=14
 ICtDFT=  3500011 ScaDFX=  1.000000  1.000000  1.000000  1.000000
 Defaulting to unpruned grid for atomic number  54.
 FoFCou: FMM=F IPFlag=           0 FMFlag=      100000 FMFlg1=           0
         NFxFlg=           0 DoJE=T BraDBF=F KetDBF=T FulRan=T
         wScrn=  0.000000 ICntrl=       500 IOpCl=  0 I1Cent=   200000004 NGrid=           0
         NMat0=    1 NMatS0=      1 NMatT0=    0 NMatD0=    1 NMtDS0=    0 NMtDT0=    0
 Petite list used in FoFCou.
 Keep R1 ints in memory in symmetry-blocked form, NReq=1058867.
 Requested convergence on RMS density matrix=1.00D-08 within 128 cycles.
 Requested convergence on MAX density matrix=1.00D-06.
 Requested convergence on             energy=1.00D-06.
 No special actions if energy rises.
 SCF Done:  E(RHF) =  -7237.21632474     A.U. after   10 cycles
            NFock= 10  Conv=0.15D-08     -V/T= 2.0001
 Calling FoFJK, ICntrl=      2127 FMM=F ISym2X=1 I1Cent= 0 IOpClX= 0 NMat=1 NMatS=1 NMatT=0.
 ***** Axes restored to original set *****
 -------------------------------------------------------------------
 Center     Atomic                   Forces (Hartrees/Bohr)
 Number     Number              X              Y              Z
 -------------------------------------------------------------------
      1       54          -0.000000000    0.005031806   -0.000000000
      2        1          -0.009670495    0.000124829   -0.000000000
      3        1           0.000000000    0.000124829   -0.009670495
      4        1           0.009670495    0.000124829    0.000000000
      5        1           0.000000000    0.000124829    0.009670495
      6        8          -0.000000000   -0.005531123    0.000000000
 -------------------------------------------------------------------
 Cartesian Forces:  Max     0.009670495 RMS     0.004887902

 GradGradGradGradGradGradGradGradGradGradGradGradGradGradGradGradGradGrad
 Berny optimization.
 Using GEDIIS/GDIIS optimizer.
 FormGI is forming the generalized inverse of G from B-inverse, IUseBI=4.
 Internal  Forces:  Max     0.009669129 RMS     0.004393127
 Search for a local minimum.
 Step number   4 out of a maximum of   31
 All quantities printed in internal units (Hartrees-Bohrs-Radians)
 Mixed Optimization -- RFO/linear search
 Update second derivatives using D2CorX and points    3    4
 ITU=  0  1  1  0
 Use linear search instead of GDIIS.
     Eigenvalues ---    0.03471   0.03471   0.03471   0.03769   0.05209
     Eigenvalues ---    0.05466   0.05470   0.05507   0.05510   0.08114
     Eigenvalues ---    0.15999   0.15999
 RFO step:  Lambda=-9.93189627D-04 EMin= 3.47106893D-02
 Quartic linear search produced a step of  0.18732.
 Iteration  1 RMS(Cart)=  0.05576372 RMS(Int)=  0.00009555
 Iteration  2 RMS(Cart)=  0.00010973 RMS(Int)=  0.00001509
 Iteration  3 RMS(Cart)=  0.00000001 RMS(Int)=  0.00001509
 ClnCor:  largest displacement from symmetrization is 2.53D-05 for atom     4.
 Variable       Old X    -DE/DX   Delta X   Delta X   Delta X     New X
                                 (Linear)    (Quad)   (Total)
    R1        3.60981  -0.00967  -0.09449  -0.00664  -0.10112   3.50869
    R2        3.60981  -0.00967  -0.09449  -0.00664  -0.10112   3.50869
    R3        3.60981  -0.00967  -0.09449  -0.00664  -0.10112   3.50869
    R4        3.60981  -0.00967  -0.09449  -0.00664  -0.10112   3.50869
    R5        5.18253  -0.00553  -0.00146  -0.15706  -0.15852   5.02401
    A1        1.57073  -0.00000  -0.00001  -0.00006  -0.00009   1.57064
    A2        1.57073  -0.00000  -0.00001  -0.00006  -0.00009   1.57064
    A3        1.56252  -0.00025  -0.00092  -0.00334  -0.00426   1.55826
    A4        1.57073  -0.00000  -0.00001  -0.00006  -0.00009   1.57064
    A5        1.56252  -0.00025  -0.00092  -0.00334  -0.00426   1.55826
    A6        1.57073  -0.00001  -0.00001  -0.00005  -0.00009   1.57064
    A7        1.56252  -0.00025  -0.00092  -0.00334  -0.00426   1.55826
    A8        1.56252  -0.00025  -0.00092  -0.00334  -0.00426   1.55826
    A9        3.14146  -0.00001  -0.00002  -0.00011  -0.00018   3.14128
   A10        3.14146  -0.00001  -0.00002  -0.00011  -0.00018   3.14128
   A11        3.12503  -0.00049  -0.00184  -0.00667  -0.00851   3.11652
   A12        3.15815   0.00049   0.00184   0.00667   0.00851   3.16667
    D1       -1.57080  -0.00000   0.00000   0.00000   0.00000  -1.57080
    D2        1.57080  -0.00000   0.00000   0.00000   0.00000   1.57080
    D3       -1.57080   0.00000   0.00000   0.00000   0.00000  -1.57080
    D4       -1.57080   0.00000   0.00000  -0.00000   0.00000  -1.57080
         Item               Value     Threshold  Converged?
 Maximum Force            0.009669     0.000450     NO 
 RMS     Force            0.004393     0.000300     NO 
 Maximum Displacement     0.141500     0.001800     NO 
 RMS     Displacement     0.055725     0.001200     NO 
 Predicted change in Energy=-3.418588D-03
 GradGradGradGradGradGradGradGradGradGradGradGradGradGradGradGradGradGrad

                          Input orientation:                          
 ---------------------------------------------------------------------
 Center     Atomic      Atomic             Coordinates (Angstroms)
 Number     Number       Type             X           Y           Z
 ---------------------------------------------------------------------
      1         54           0        0.403301   -1.078723   -1.772927
      2          1           0        2.259872   -1.055443   -1.772927
      3          1           0        0.403301   -1.055443    0.083644
      4          1           0       -1.453270   -1.055443   -1.772927
      5          1           0        0.403301   -1.055443   -3.629498
      6          8           0        0.403301    1.579871   -1.772927
 ---------------------------------------------------------------------
                    Distance matrix (angstroms):
                    1          2          3          4          5
     1  Xe   0.000000
     2  H    1.856717   0.000000
     3  H    1.856717   2.625588   0.000000
     4  H    1.856717   3.713142   2.625588   0.000000
     5  H    1.856717   2.625588   3.713142   2.625588   0.000000
     6  O    2.658593   3.223621   3.223621   3.223621   3.223621
                    6
     6  O    0.000000
 Stoichiometry    H4OXe
 Framework group  C4V[C4(OXe),2SGV(H2)]
 Deg. of freedom     3
 Full point group                 C4V     NOp   8
 Largest Abelian subgroup         C2V     NOp   4
 Largest concise Abelian subgroup C2V     NOp   4
                         Standard orientation:                         
 ---------------------------------------------------------------------
 Center     Atomic      Atomic             Coordinates (Angstroms)
 Number     Number       Type             X           Y           Z
 ---------------------------------------------------------------------
      1         54           0       -0.000000    0.000000    0.323665
      2          1           0       -0.000000    1.856571    0.300385
      3          1           0       -1.856571    0.000000    0.300385
      4          1           0       -0.000000   -1.856571    0.300385
      5          1           0        1.856571   -0.000000    0.300385
      6          8           0        0.000000   -0.000000   -2.334929
 ---------------------------------------------------------------------
 Rotational constants (GHZ):          36.3704812           4.6773085           4.6773085
 Standard basis: STO-3G (5D, 7F)
 There are    20 symmetry adapted cartesian basis functions of A1  symmetry.
 There are     2 symmetry adapted cartesian basis functions of A2  symmetry.
 There are     8 symmetry adapted cartesian basis functions of B1  symmetry.
 There are     8 symmetry adapted cartesian basis functions of B2  symmetry.
 There are    18 symmetry adapted basis functions of A1  symmetry.
 There are     2 symmetry adapted basis functions of A2  symmetry.
 There are     8 symmetry adapted basis functions of B1  symmetry.
 There are     8 symmetry adapted basis functions of B2  symmetry.
    36 basis functions,   114 primitive gaussians,    38 cartesian basis functions
    33 alpha electrons       33 beta electrons
       nuclear repulsion energy       153.8927544045 Hartrees.
 NAtoms=    6 NActive=    6 NUniq=    3 SFac= 4.00D+00 NAtFMM=   60 NAOKFM=F Big=F
 Integral buffers will be    131072 words long.
 Raffenetti 1 integral format.
 Two-electron integral symmetry is turned on.
 One-electron integrals computed using PRISM.
 NBasis=    36 RedAO= T EigKep=  3.17D-01  NBF=    18     2     8     8
 NBsUse=    36 1.00D-06 EigRej= -1.00D+00 NBFU=    18     2     8     8
 Initial guess from the checkpoint file:  "XeOH4.chk"
 B after Tr=    -0.000000    0.000000    0.000000
         Rot=    1.000000    0.000000   -0.000000    0.000000 Ang=   0.00 deg.
 Initial guess orbital symmetries:
       Occupied  (A1) (A1) (E) (E) (A1) (A1) (E) (E) (A1) (B2)
                 (B1) (E) (E) (A1) (A1) (A1) (E) (E) (A1) (B2)
                 (B1) (E) (E) (A1) (A1) (A1) (E) (E) (A1) (E) (E)
                 (B2) (A1)
       Virtual   (E) (E) (A1)
 ExpMin= 1.69D-01 ExpMax= 6.26D+03 ExpMxC= 6.26D+03 IAcc=3 IRadAn=         5 AccDes= 0.00D+00
 Harris functional with IExCor=  205 and IRadAn=       5 diagonalized for initial guess.
 HarFok:  IExCor=  205 AccDes= 0.00D+00 IRadAn=         5 IDoV= 1 UseB2=F ITyADJ=14
 ICtDFT=  3500011 ScaDFX=  1.000000  1.000000  1.000000  1.000000
 Defaulting to unpruned grid for atomic number  54.
 FoFCou: FMM=F IPFlag=           0 FMFlag=      100000 FMFlg1=           0
         NFxFlg=           0 DoJE=T BraDBF=F KetDBF=T FulRan=T
         wScrn=  0.000000 ICntrl=       500 IOpCl=  0 I1Cent=   200000004 NGrid=           0
         NMat0=    1 NMatS0=      1 NMatT0=    0 NMatD0=    1 NMtDS0=    0 NMtDT0=    0
 Petite list used in FoFCou.
 Keep R1 ints in memory in symmetry-blocked form, NReq=1059106.
 Requested convergence on RMS density matrix=1.00D-08 within 128 cycles.
 Requested convergence on MAX density matrix=1.00D-06.
 Requested convergence on             energy=1.00D-06.
 No special actions if energy rises.
 SCF Done:  E(RHF) =  -7237.21944271     A.U. after    8 cycles
            NFock=  8  Conv=0.81D-09     -V/T= 2.0001
 Calling FoFJK, ICntrl=      2127 FMM=F ISym2X=1 I1Cent= 0 IOpClX= 0 NMat=1 NMatS=1 NMatT=0.
 ***** Axes restored to original set *****
 -------------------------------------------------------------------
 Center     Atomic                   Forces (Hartrees/Bohr)
 Number     Number              X              Y              Z
 -------------------------------------------------------------------
      1       54          -0.000000000    0.008120844   -0.000000000
      2        1           0.000177434    0.000159601   -0.000000000
      3        1           0.000000000    0.000159601    0.000177434
      4        1          -0.000177434    0.000159601   -0.000000000
      5        1           0.000000000    0.000159601   -0.000177434
      6        8           0.000000000   -0.008759247   -0.000000000
 -------------------------------------------------------------------
 Cartesian Forces:  Max     0.008759247 RMS     0.002817607

 GradGradGradGradGradGradGradGradGradGradGradGradGradGradGradGradGradGrad
 Berny optimization.
 Using GEDIIS/GDIIS optimizer.
 FormGI is forming the generalized inverse of G from B-inverse, IUseBI=4.
 Internal  Forces:  Max     0.008759247 RMS     0.001918079
 Search for a local minimum.
 Step number   5 out of a maximum of   31
 All quantities printed in internal units (Hartrees-Bohrs-Radians)
 Mixed Optimization -- RFO/linear search
 Update second derivatives using D2CorX and points    4    5
 DE= -3.12D-03 DEPred=-3.42D-03 R= 9.12D-01
 TightC=F SS=  1.41D+00  RLast= 2.57D-01 DXNew= 1.4270D+00 7.7215D-01
 Trust test= 9.12D-01 RLast= 2.57D-01 DXMaxT set to 8.49D-01
 ITU=  1  0  1  1  0
 Use linear search instead of GDIIS.
     Eigenvalues ---    0.01711   0.03471   0.03471   0.03471   0.05450
     Eigenvalues ---    0.05455   0.05512   0.05517   0.08114   0.14479
     Eigenvalues ---    0.15998   0.15998
 RFO step:  Lambda=-2.75040850D-03 EMin= 1.71060801D-02
 Quartic linear search produced a step of  0.33732.
 Iteration  1 RMS(Cart)=  0.05035268 RMS(Int)=  0.03872962
 Iteration  2 RMS(Cart)=  0.03529177 RMS(Int)=  0.00003644
 Iteration  3 RMS(Cart)=  0.00000015 RMS(Int)=  0.00003644
 ClnCor:  largest displacement from symmetrization is 6.90D-05 for atom     5.
 Variable       Old X    -DE/DX   Delta X   Delta X   Delta X     New X
                                 (Linear)    (Quad)   (Total)
    R1        3.50869   0.00018  -0.03411  -0.02221  -0.05630   3.45239
    R2        3.50869   0.00018  -0.03411  -0.02221  -0.05630   3.45239
    R3        3.50869   0.00018  -0.03411  -0.02221  -0.05630   3.45239
    R4        3.50869   0.00018  -0.03411  -0.02221  -0.05630   3.45239
    R5        5.02401  -0.00876  -0.05347  -0.32401  -0.37748   4.64653
    A1        1.57064  -0.00000  -0.00003  -0.00014  -0.00022   1.57042
    A2        1.57064  -0.00000  -0.00003  -0.00014  -0.00022   1.57042
    A3        1.55826  -0.00018  -0.00144  -0.00553  -0.00697   1.55129
    A4        1.57064  -0.00000  -0.00003  -0.00014  -0.00022   1.57042
    A5        1.55826  -0.00018  -0.00144  -0.00553  -0.00697   1.55129
    A6        1.57064  -0.00001  -0.00003  -0.00014  -0.00022   1.57042
    A7        1.55826  -0.00018  -0.00144  -0.00553  -0.00697   1.55129
    A8        1.55826  -0.00018  -0.00144  -0.00553  -0.00697   1.55129
    A9        3.14128  -0.00001  -0.00006  -0.00027  -0.00045   3.14083
   A10        3.14128  -0.00001  -0.00006  -0.00027  -0.00045   3.14083
   A11        3.11652  -0.00037  -0.00287  -0.01107  -0.01394   3.10258
   A12        3.16667   0.00037   0.00287   0.01107   0.01394   3.18060
    D1       -1.57080  -0.00000   0.00000  -0.00000   0.00000  -1.57080
    D2        1.57080  -0.00000   0.00000  -0.00000   0.00000   1.57080
    D3       -1.57080  -0.00000   0.00000  -0.00000   0.00000  -1.57080
    D4       -1.57080   0.00000   0.00000   0.00000   0.00000  -1.57080
         Item               Value     Threshold  Converged?
 Maximum Force            0.008759     0.000450     NO 
 RMS     Force            0.001918     0.000300     NO 
 Maximum Displacement     0.330134     0.001800     NO 
 RMS     Displacement     0.082830     0.001200     NO 
 Predicted change in Energy=-1.912317D-03
 GradGradGradGradGradGradGradGradGradGradGradGradGradGradGradGradGradGrad

                          Input orientation:                          
 ---------------------------------------------------------------------
 Center     Atomic      Atomic             Coordinates (Angstroms)
 Number     Number       Type             X           Y           Z
 ---------------------------------------------------------------------
      1         54           0        0.403301   -1.053668   -1.772927
      2          1           0        2.229879   -1.018028   -1.772927
      3          1           0        0.403301   -1.018028    0.053651
      4          1           0       -1.423277   -1.018028   -1.772927
      5          1           0        0.403301   -1.018028   -3.599505
      6          8           0        0.403301    1.405171   -1.772927
 ---------------------------------------------------------------------
                    Distance matrix (angstroms):
                    1          2          3          4          5
     1  Xe   0.000000
     2  H    1.826926   0.000000
     3  H    1.826926   2.583172   0.000000
     4  H    1.826926   3.653157   2.583172   0.000000
     5  H    1.826926   2.583172   3.653157   2.583172   0.000000
     6  O    2.458839   3.034515   3.034515   3.034515   3.034515
                    6
     6  O    0.000000
 Stoichiometry    H4OXe
 Framework group  C4V[C4(OXe),2SGV(H2)]
 Deg. of freedom     3
 Full point group                 C4V     NOp   8
 Largest Abelian subgroup         C2V     NOp   4
 Largest concise Abelian subgroup C2V     NOp   4
                         Standard orientation:                         
 ---------------------------------------------------------------------
 Center     Atomic      Atomic             Coordinates (Angstroms)
 Number     Number       Type             X           Y           Z
 ---------------------------------------------------------------------
      1         54           0       -0.000000   -0.000000    0.300201
      2          1           0       -0.000000    1.826578    0.264561
      3          1           0       -1.826578    0.000000    0.264561
      4          1           0       -0.000000   -1.826578    0.264561
      5          1           0        1.826578   -0.000000    0.264561
      6          8           0        0.000000    0.000000   -2.158638
 ---------------------------------------------------------------------
 Rotational constants (GHZ):          37.5746980           5.4237824           5.4237824
 Standard basis: STO-3G (5D, 7F)
 There are    20 symmetry adapted cartesian basis functions of A1  symmetry.
 There are     2 symmetry adapted cartesian basis functions of A2  symmetry.
 There are     8 symmetry adapted cartesian basis functions of B1  symmetry.
 There are     8 symmetry adapted cartesian basis functions of B2  symmetry.
 There are    18 symmetry adapted basis functions of A1  symmetry.
 There are     2 symmetry adapted basis functions of A2  symmetry.
 There are     8 symmetry adapted basis functions of B1  symmetry.
 There are     8 symmetry adapted basis functions of B2  symmetry.
    36 basis functions,   114 primitive gaussians,    38 cartesian basis functions
    33 alpha electrons       33 beta electrons
       nuclear repulsion energy       162.2274063147 Hartrees.
 NAtoms=    6 NActive=    6 NUniq=    3 SFac= 4.00D+00 NAtFMM=   60 NAOKFM=F Big=F
 Integral buffers will be    131072 words long.
 Raffenetti 1 integral format.
 Two-electron integral symmetry is turned on.
 One-electron integrals computed using PRISM.
 NBasis=    36 RedAO= T EigKep=  3.16D-01  NBF=    18     2     8     8
 NBsUse=    36 1.00D-06 EigRej= -1.00D+00 NBFU=    18     2     8     8
 Initial guess from the checkpoint file:  "XeOH4.chk"
 B after Tr=     0.000000   -0.000000    0.000000
         Rot=    1.000000   -0.000000   -0.000000    0.000000 Ang=   0.00 deg.
 Initial guess orbital symmetries:
       Occupied  (A1) (A1) (E) (E) (A1) (A1) (E) (E) (A1) (B2)
                 (B1) (E) (E) (A1) (A1) (A1) (E) (E) (A1) (B2)
                 (B1) (E) (E) (A1) (A1) (A1) (E) (E) (A1) (E) (E)
                 (B2) (A1)
       Virtual   (E) (E) (A1)
 ExpMin= 1.69D-01 ExpMax= 6.26D+03 ExpMxC= 6.26D+03 IAcc=3 IRadAn=         5 AccDes= 0.00D+00
 Harris functional with IExCor=  205 and IRadAn=       5 diagonalized for initial guess.
 HarFok:  IExCor=  205 AccDes= 0.00D+00 IRadAn=         5 IDoV= 1 UseB2=F ITyADJ=14
 ICtDFT=  3500011 ScaDFX=  1.000000  1.000000  1.000000  1.000000
 Defaulting to unpruned grid for atomic number  54.
 FoFCou: FMM=F IPFlag=           0 FMFlag=      100000 FMFlg1=           0
         NFxFlg=           0 DoJE=T BraDBF=F KetDBF=T FulRan=T
         wScrn=  0.000000 ICntrl=       500 IOpCl=  0 I1Cent=   200000004 NGrid=           0
         NMat0=    1 NMatS0=      1 NMatT0=    0 NMatD0=    1 NMtDS0=    0 NMtDT0=    0
 Petite list used in FoFCou.
 Keep R1 ints in memory in symmetry-blocked form, NReq=1059152.
 Requested convergence on RMS density matrix=1.00D-08 within 128 cycles.
 Requested convergence on MAX density matrix=1.00D-06.
 Requested convergence on             energy=1.00D-06.
 No special actions if energy rises.
 SCF Done:  E(RHF) =  -7237.22282293     A.U. after    9 cycles
            NFock=  9  Conv=0.48D-08     -V/T= 2.0001
 Calling FoFJK, ICntrl=      2127 FMM=F ISym2X=1 I1Cent= 0 IOpClX= 0 NMat=1 NMatS=1 NMatT=0.
 ***** Axes restored to original set *****
 -------------------------------------------------------------------
 Center     Atomic                   Forces (Hartrees/Bohr)
 Number     Number              X              Y              Z
 -------------------------------------------------------------------
      1       54          -0.000000000    0.007206242    0.000000000
      2        1           0.004082336    0.000840916   -0.000000000
      3        1           0.000000000    0.000840916    0.004082336
      4        1          -0.004082336    0.000840916    0.000000000
      5        1           0.000000000    0.000840916   -0.004082336
      6        8          -0.000000000   -0.010569908   -0.000000000
 -------------------------------------------------------------------
 Cartesian Forces:  Max     0.010569908 RMS     0.003598945

 GradGradGradGradGradGradGradGradGradGradGradGradGradGradGradGradGradGrad
 Berny optimization.
 Using GEDIIS/GDIIS optimizer.
 FormGI is forming the generalized inverse of G from B-inverse, IUseBI=4.
 Internal  Forces:  Max     0.010569908 RMS     0.002992818
 Search for a local minimum.
 Step number   6 out of a maximum of   31
 All quantities printed in internal units (Hartrees-Bohrs-Radians)
 Mixed Optimization -- RFO/linear search
 Update second derivatives using D2CorX and points    5    6
 DE= -3.38D-03 DEPred=-1.91D-03 R= 1.77D+00
 TightC=F SS=  1.41D+00  RLast= 3.95D-01 DXNew= 1.4270D+00 1.1840D+00
 Trust test= 1.77D+00 RLast= 3.95D-01 DXMaxT set to 1.18D+00
 ITU=  1  1  0  1  1  0
 Use linear search instead of GDIIS.
     Eigenvalues ---    0.00018   0.03471   0.03471   0.03471   0.05437
     Eigenvalues ---    0.05480   0.05533   0.06074   0.08112   0.15994
     Eigenvalues ---    0.15994   0.63420
 RFO step:  Lambda=-8.32722227D-03 EMin= 1.81595660D-04
 Skip linear search -- no minimum in search direction.
 Iteration  1 RMS(Cart)=  0.07515055 RMS(Int)=  0.16287614
 Iteration  2 RMS(Cart)=  0.03939437 RMS(Int)=  0.11923080
 Iteration  3 RMS(Cart)=  0.03984149 RMS(Int)=  0.07558753
 Iteration  4 RMS(Cart)=  0.03984095 RMS(Int)=  0.03194512
 Iteration  5 RMS(Cart)=  0.02915993 RMS(Int)=  0.00035957
 Iteration  6 RMS(Cart)=  0.00000007 RMS(Int)=  0.00035957
 ClnCor:  largest displacement from symmetrization is 6.91D-04 for atom     5.
 Variable       Old X    -DE/DX   Delta X   Delta X   Delta X     New X
                                 (Linear)    (Quad)   (Total)
    R1        3.45239   0.00410   0.00000  -0.11716  -0.11690   3.33549
    R2        3.45239   0.00410   0.00000  -0.11716  -0.11690   3.33549
    R3        3.45239   0.00410   0.00000  -0.11716  -0.11690   3.33549
    R4        3.45239   0.00410   0.00000  -0.11716  -0.11690   3.33549
    R5        4.64653  -0.01057   0.00000  -0.94638  -0.94638   3.70015
    A1        1.57042  -0.00002   0.00000  -0.00085  -0.00145   1.56897
    A2        1.57042  -0.00003   0.00000  -0.00091  -0.00145   1.56897
    A3        1.55129  -0.00088   0.00000  -0.02326  -0.02325   1.52804
    A4        1.57042  -0.00003   0.00000  -0.00091  -0.00145   1.56897
    A5        1.55129  -0.00088   0.00000  -0.02326  -0.02325   1.52804
    A6        1.57042  -0.00005   0.00000  -0.00096  -0.00145   1.56897
    A7        1.55129  -0.00088   0.00000  -0.02326  -0.02325   1.52804
    A8        1.55129  -0.00088   0.00000  -0.02326  -0.02325   1.52804
    A9        3.14083  -0.00006   0.00000  -0.00176  -0.00289   3.13794
   A10        3.14083  -0.00006   0.00000  -0.00176  -0.00289   3.13794
   A11        3.10258  -0.00175   0.00000  -0.04649  -0.04643   3.05615
   A12        3.18060   0.00175   0.00000   0.04649   0.04643   3.22703
    D1       -1.57080  -0.00001   0.00000  -0.00006   0.00000  -1.57080
    D2        1.57080  -0.00000   0.00000  -0.00000   0.00000   1.57080
    D3       -1.57080  -0.00000   0.00000  -0.00000   0.00000  -1.57080
    D4       -1.57080   0.00001   0.00000   0.00006   0.00000  -1.57080
         Item               Value     Threshold  Converged?
 Maximum Force            0.010570     0.000450     NO 
 RMS     Force            0.002993     0.000300     NO 
 Maximum Displacement     0.838754     0.001800     NO 
 RMS     Displacement     0.207681     0.001200     NO 
 Predicted change in Energy=-8.147027D-03
 GradGradGradGradGradGradGradGradGradGradGradGradGradGradGradGradGradGrad

                          Input orientation:                          
 ---------------------------------------------------------------------
 Center     Atomic      Atomic             Coordinates (Angstroms)
 Number     Number       Type             X           Y           Z
 ---------------------------------------------------------------------
      1         54           0        0.403301   -0.996714   -1.772927
      2          1           0        2.166754   -0.921263   -1.772927
      3          1           0        0.403301   -0.921263   -0.009474
      4          1           0       -1.360152   -0.921263   -1.772927
      5          1           0        0.403301   -0.921263   -3.536380
      6          8           0        0.403301    0.961322   -1.772927
 ---------------------------------------------------------------------
                    Distance matrix (angstroms):
                    1          2          3          4          5
     1  Xe   0.000000
     2  H    1.765066   0.000000
     3  H    1.765066   2.493899   0.000000
     4  H    1.765066   3.526905   2.493899   0.000000
     5  H    1.765066   2.493899   3.526905   2.493899   0.000000
     6  O    1.958035   2.579513   2.579513   2.579513   2.579513
                    6
     6  O    0.000000
 Stoichiometry    H4OXe
 Framework group  C4V[C4(OXe),2SGV(H2)]
 Deg. of freedom     3
 Full point group                 C4V     NOp   8
 Largest Abelian subgroup         C2V     NOp   4
 Largest concise Abelian subgroup C2V     NOp   4
                         Standard orientation:                         
 ---------------------------------------------------------------------
 Center     Atomic      Atomic             Coordinates (Angstroms)
 Number     Number       Type             X           Y           Z
 ---------------------------------------------------------------------
      1         54           0        0.000000    0.000000    0.241910
      2          1           0        0.000000    1.763453    0.166459
      3          1           0       -1.763453    0.000000    0.166459
      4          1           0       -0.000000   -1.763453    0.166459
      5          1           0        1.763453   -0.000000    0.166459
      6          8           0       -0.000000   -0.000000   -1.716125
 ---------------------------------------------------------------------
 Rotational constants (GHZ):          40.3129345           8.2805398           8.2805398
 Standard basis: STO-3G (5D, 7F)
 There are    20 symmetry adapted cartesian basis functions of A1  symmetry.
 There are     2 symmetry adapted cartesian basis functions of A2  symmetry.
 There are     8 symmetry adapted cartesian basis functions of B1  symmetry.
 There are     8 symmetry adapted cartesian basis functions of B2  symmetry.
 There are    18 symmetry adapted basis functions of A1  symmetry.
 There are     2 symmetry adapted basis functions of A2  symmetry.
 There are     8 symmetry adapted basis functions of B1  symmetry.
 There are     8 symmetry adapted basis functions of B2  symmetry.
    36 basis functions,   114 primitive gaussians,    38 cartesian basis functions
    33 alpha electrons       33 beta electrons
       nuclear repulsion energy       189.2235862854 Hartrees.
 NAtoms=    6 NActive=    6 NUniq=    3 SFac= 4.00D+00 NAtFMM=   60 NAOKFM=F Big=F
 Integral buffers will be    131072 words long.
 Raffenetti 1 integral format.
 Two-electron integral symmetry is turned on.
 One-electron integrals computed using PRISM.
 NBasis=    36 RedAO= T EigKep=  3.10D-01  NBF=    18     2     8     8
 NBsUse=    36 1.00D-06 EigRej= -1.00D+00 NBFU=    18     2     8     8
 Initial guess from the checkpoint file:  "XeOH4.chk"
 B after Tr=    -0.000000    0.000000   -0.000000
         Rot=    1.000000   -0.000000   -0.000000    0.000000 Ang=   0.00 deg.
 Initial guess orbital symmetries:
       Occupied  (A1) (A1) (E) (E) (A1) (A1) (E) (E) (A1) (B2)
                 (B1) (E) (E) (A1) (A1) (A1) (E) (E) (A1) (B2)
                 (B1) (E) (E) (A1) (A1) (A1) (E) (E) (A1) (E) (E)
                 (B2) (A1)
       Virtual   (E) (E) (A1)
 ExpMin= 1.69D-01 ExpMax= 6.26D+03 ExpMxC= 6.26D+03 IAcc=3 IRadAn=         5 AccDes= 0.00D+00
 Harris functional with IExCor=  205 and IRadAn=       5 diagonalized for initial guess.
 HarFok:  IExCor=  205 AccDes= 0.00D+00 IRadAn=         5 IDoV= 1 UseB2=F ITyADJ=14
 ICtDFT=  3500011 ScaDFX=  1.000000  1.000000  1.000000  1.000000
 Defaulting to unpruned grid for atomic number  54.
 FoFCou: FMM=F IPFlag=           0 FMFlag=      100000 FMFlg1=           0
         NFxFlg=           0 DoJE=T BraDBF=F KetDBF=T FulRan=T
         wScrn=  0.000000 ICntrl=       500 IOpCl=  0 I1Cent=   200000004 NGrid=           0
         NMat0=    1 NMatS0=      1 NMatT0=    0 NMatD0=    1 NMtDS0=    0 NMtDT0=    0
 Petite list used in FoFCou.
 Keep R1 ints in memory in symmetry-blocked form, NReq=1059274.
 Requested convergence on RMS density matrix=1.00D-08 within 128 cycles.
 Requested convergence on MAX density matrix=1.00D-06.
 Requested convergence on             energy=1.00D-06.
 No special actions if energy rises.
 SCF Done:  E(RHF) =  -7237.20918822     A.U. after    9 cycles
            NFock=  9  Conv=0.67D-08     -V/T= 2.0001
 Calling FoFJK, ICntrl=      2127 FMM=F ISym2X=1 I1Cent= 0 IOpClX= 0 NMat=1 NMatS=1 NMatT=0.
 ***** Axes restored to original set *****
 -------------------------------------------------------------------
 Center     Atomic                   Forces (Hartrees/Bohr)
 Number     Number              X              Y              Z
 -------------------------------------------------------------------
      1       54          -0.000000000   -0.073770352   -0.000000000
      2        1           0.006685477    0.002343818   -0.000000000
      3        1           0.000000000    0.002343818    0.006685477
      4        1          -0.006685477    0.002343818    0.000000000
      5        1           0.000000000    0.002343818   -0.006685477
      6        8           0.000000000    0.064395081    0.000000000
 -------------------------------------------------------------------
 Cartesian Forces:  Max     0.073770352 RMS     0.023320887

 GradGradGradGradGradGradGradGradGradGradGradGradGradGradGradGradGradGrad
 Berny optimization.
 Using GEDIIS/GDIIS optimizer.
 FormGI is forming the generalized inverse of G from B-inverse, IUseBI=4.
 Internal  Forces:  Max     0.064395081 RMS     0.014463537
 Search for a local minimum.
 Step number   7 out of a maximum of   31
 All quantities printed in internal units (Hartrees-Bohrs-Radians)
 Mixed Optimization -- RFO/linear search
 Update second derivatives using D2CorX and points    5    7    6
 DE=  1.36D-02 DEPred=-8.15D-03 R=-1.67D+00
 Trust test=-1.67D+00 RLast= 9.78D-01 DXMaxT set to 5.92D-01
 ITU= -1  1  1  0  1  1  0
 Use linear search instead of GDIIS.
     Eigenvalues ---    0.03471   0.03471   0.03471   0.05288   0.05374
     Eigenvalues ---    0.05516   0.05585   0.08101   0.08434   0.15971
     Eigenvalues ---    0.15971   0.30431
 RFO step:  Lambda=-5.14795217D-04 EMin= 3.47106893D-02
 Quartic linear search produced a step of -0.62708.
 Iteration  1 RMS(Cart)=  0.04750682 RMS(Int)=  0.08475430
 Iteration  2 RMS(Cart)=  0.03974315 RMS(Int)=  0.04111081
 Iteration  3 RMS(Cart)=  0.03752848 RMS(Int)=  0.00018036
 Iteration  4 RMS(Cart)=  0.00000002 RMS(Int)=  0.00018036
 ClnCor:  largest displacement from symmetrization is 5.30D-04 for atom     4.
 Variable       Old X    -DE/DX   Delta X   Delta X   Delta X     New X
                                 (Linear)    (Quad)   (Total)
    R1        3.33549   0.00678   0.07330   0.00037   0.07348   3.40897
    R2        3.33549   0.00678   0.07330   0.00037   0.07348   3.40897
    R3        3.33549   0.00678   0.07330   0.00037   0.07348   3.40897
    R4        3.33549   0.00678   0.07330   0.00037   0.07348   3.40897
    R5        3.70015   0.06440   0.59346  -0.00512   0.58834   4.28849
    A1        1.56897  -0.00013   0.00091  -0.00208  -0.00077   1.56820
    A2        1.56897  -0.00019   0.00091  -0.00195  -0.00077   1.56820
    A3        1.52804  -0.00228   0.01458  -0.02279  -0.00821   1.51982
    A4        1.56897  -0.00019   0.00091  -0.00195  -0.00077   1.56820
    A5        1.52804  -0.00228   0.01458  -0.02279  -0.00821   1.51982
    A6        1.56897  -0.00026   0.00091  -0.00181  -0.00077   1.56820
    A7        1.52804  -0.00228   0.01458  -0.02279  -0.00821   1.51982
    A8        1.52804  -0.00228   0.01458  -0.02279  -0.00821   1.51982
    A9        3.13794  -0.00032   0.00181  -0.00403  -0.00154   3.13640
   A10        3.13794  -0.00032   0.00181  -0.00403  -0.00154   3.13640
   A11        3.05615  -0.00455   0.02912  -0.04545  -0.01637   3.03978
   A12        3.22703   0.00455  -0.02912   0.04545   0.01637   3.24341
    D1       -1.57080  -0.00006   0.00000   0.00014   0.00000  -1.57080
    D2        1.57080  -0.00000   0.00000  -0.00000   0.00000   1.57080
    D3       -1.57080  -0.00000   0.00000  -0.00000   0.00000  -1.57080
    D4       -1.57080   0.00006   0.00000  -0.00014   0.00000  -1.57080
         Item               Value     Threshold  Converged?
 Maximum Force            0.064395     0.000450     NO 
 RMS     Force            0.014464     0.000300     NO 
 Maximum Displacement     0.469514     0.001800     NO 
 RMS     Displacement     0.116727     0.001200     NO 
 Predicted change in Energy=-1.209550D-02
 GradGradGradGradGradGradGradGradGradGradGradGradGradGradGradGradGradGrad

                          Input orientation:                          
 ---------------------------------------------------------------------
 Center     Atomic      Atomic             Coordinates (Angstroms)
 Number     Number       Type             X           Y           Z
 ---------------------------------------------------------------------
      1         54           0        0.403301   -1.059595   -1.772927
      2          1           0        2.204906   -0.967680   -1.772927
      3          1           0        0.403301   -0.967680    0.028677
      4          1           0       -1.398303   -0.967680   -1.772927
      5          1           0        0.403301   -0.967680   -3.574532
      6          8           0        0.403301    1.209778   -1.772927
 ---------------------------------------------------------------------
                    Distance matrix (angstroms):
                    1          2          3          4          5
     1  Xe   0.000000
     2  H    1.803948   0.000000
     3  H    1.803948   2.547853   0.000000
     4  H    1.803948   3.603209   2.547853   0.000000
     5  H    1.803948   2.547853   3.603209   2.547853   0.000000
     6  O    2.269372   2.826146   2.826146   2.826146   2.826146
                    6
     6  O    0.000000
 Stoichiometry    H4OXe
 Framework group  C4V[C4(OXe),2SGV(H2)]
 Deg. of freedom     3
 Full point group                 C4V     NOp   8
 Largest Abelian subgroup         C2V     NOp   4
 Largest concise Abelian subgroup C2V     NOp   4
                         Standard orientation:                         
 ---------------------------------------------------------------------
 Center     Atomic      Atomic             Coordinates (Angstroms)
 Number     Number       Type             X           Y           Z
 ---------------------------------------------------------------------
      1         54           0       -0.000000   -0.000000    0.280646
      2          1           0       -0.000000    1.801604    0.188731
      3          1           0       -1.801604    0.000000    0.188731
      4          1           0       -0.000000   -1.801604    0.188731
      5          1           0        1.801604   -0.000000    0.188731
      6          8           0        0.000000    0.000000   -1.988726
 ---------------------------------------------------------------------
 Rotational constants (GHZ):          38.6236384           6.3092835           6.3092835
 Standard basis: STO-3G (5D, 7F)
 There are    20 symmetry adapted cartesian basis functions of A1  symmetry.
 There are     2 symmetry adapted cartesian basis functions of A2  symmetry.
 There are     8 symmetry adapted cartesian basis functions of B1  symmetry.
 There are     8 symmetry adapted cartesian basis functions of B2  symmetry.
 There are    18 symmetry adapted basis functions of A1  symmetry.
 There are     2 symmetry adapted basis functions of A2  symmetry.
 There are     8 symmetry adapted basis functions of B1  symmetry.
 There are     8 symmetry adapted basis functions of B2  symmetry.
    36 basis functions,   114 primitive gaussians,    38 cartesian basis functions
    33 alpha electrons       33 beta electrons
       nuclear repulsion energy       171.2133045330 Hartrees.
 NAtoms=    6 NActive=    6 NUniq=    3 SFac= 4.00D+00 NAtFMM=   60 NAOKFM=F Big=F
 Integral buffers will be    131072 words long.
 Raffenetti 1 integral format.
 Two-electron integral symmetry is turned on.
 One-electron integrals computed using PRISM.
 NBasis=    36 RedAO= T EigKep=  3.15D-01  NBF=    18     2     8     8
 NBsUse=    36 1.00D-06 EigRej= -1.00D+00 NBFU=    18     2     8     8
 Lowest energy guess from the checkpoint file:  "XeOH4.chk"
 B after Tr=    -0.000000    0.000000   -0.000000
         Rot=    1.000000   -0.000000   -0.000000    0.000000 Ang=   0.00 deg.
 B after Tr=     0.000000   -0.000000    0.000000
         Rot=    1.000000   -0.000000    0.000000   -0.000000 Ang=   0.00 deg.
 Initial guess orbital symmetries:
       Occupied  (A1) (E) (E) (E) (A1) (A1) (E) (E) (A1) (B2) (B1)
                 (E) (E) (A1) (A1) (A1) (E) (E) (A1) (B2) (B1)
                 (E) (E) (A1) (A1) (A1) (E) (E) (A1) (E) (A1) (B2)
                 (A1)
       Virtual   (A1) (E) (E)
 Keep R1 ints in memory in symmetry-blocked form, NReq=1059152.
 Requested convergence on RMS density matrix=1.00D-08 within 128 cycles.
 Requested convergence on MAX density matrix=1.00D-06.
 Requested convergence on             energy=1.00D-06.
 No special actions if energy rises.
 SCF Done:  E(RHF) =  -7237.22456880     A.U. after    7 cycles
            NFock=  7  Conv=0.30D-08     -V/T= 2.0001
 Calling FoFJK, ICntrl=      2127 FMM=F ISym2X=1 I1Cent= 0 IOpClX= 0 NMat=1 NMatS=1 NMatT=0.
 ***** Axes restored to original set *****
 -------------------------------------------------------------------
 Center     Atomic                   Forces (Hartrees/Bohr)
 Number     Number              X              Y              Z
 -------------------------------------------------------------------
      1       54          -0.000000000    0.013464247    0.000000000
      2        1           0.005705236   -0.002419465   -0.000000000
      3        1           0.000000000   -0.002419465    0.005705236
      4        1          -0.005705236   -0.002419465   -0.000000000
      5        1           0.000000000   -0.002419465   -0.005705236
      6        8           0.000000000   -0.003786387    0.000000000
 -------------------------------------------------------------------
 Cartesian Forces:  Max     0.013464247 RMS     0.004404775

 GradGradGradGradGradGradGradGradGradGradGradGradGradGradGradGradGradGrad
 Berny optimization.
 Using GEDIIS/GDIIS optimizer.
 FormGI is forming the generalized inverse of G from B-inverse, IUseBI=4.
 Internal  Forces:  Max     0.006105365 RMS     0.003461781
 Search for a local minimum.
 Step number   8 out of a maximum of   31
 All quantities printed in internal units (Hartrees-Bohrs-Radians)
 Mixed Optimization -- RFO/linear search
 Update second derivatives using D2CorX and points    6    8
 DE= -1.75D-03 DEPred=-1.21D-02 R= 1.44D-01
 Trust test= 1.44D-01 RLast= 3.84D-01 DXMaxT set to 5.92D-01
 ITU=  0 -1  1  1  0  1  1  0
 Use linear search instead of GDIIS.
     Eigenvalues ---    0.01765   0.03471   0.03471   0.03471   0.05350
     Eigenvalues ---    0.05464   0.05602   0.08095   0.10451   0.15959
     Eigenvalues ---    0.15959   0.29546
 RFO step:  Lambda=-2.35517804D-03 EMin= 1.76484520D-02
 Quartic linear search produced a step of -0.11623.
 Iteration  1 RMS(Cart)=  0.02920049 RMS(Int)=  0.00121892
 Iteration  2 RMS(Cart)=  0.00100013 RMS(Int)=  0.00071682
 Iteration  3 RMS(Cart)=  0.00000066 RMS(Int)=  0.00071682
 ClnCor:  largest displacement from symmetrization is 6.82D-04 for atom     4.
 Variable       Old X    -DE/DX   Delta X   Delta X   Delta X     New X
                                 (Linear)    (Quad)   (Total)
    R1        3.40897   0.00557   0.00505   0.01467   0.01997   3.42893
    R2        3.40897   0.00557   0.00505   0.01467   0.01997   3.42893
    R3        3.40897   0.00557   0.00505   0.01467   0.01997   3.42893
    R4        3.40897   0.00557   0.00505   0.01467   0.01997   3.42893
    R5        4.28849  -0.00379   0.04162  -0.20801  -0.16640   4.12209
    A1        1.56820   0.00021   0.00026   0.00283   0.00232   1.57053
    A2        1.56820   0.00031   0.00026   0.00314   0.00232   1.57053
    A3        1.51982   0.00306   0.00366   0.03088   0.03451   1.55433
    A4        1.56820   0.00031   0.00026   0.00314   0.00232   1.57053
    A5        1.51982   0.00306   0.00366   0.03088   0.03451   1.55433
    A6        1.56820   0.00042   0.00026   0.00346   0.00232   1.57053
    A7        1.51982   0.00307   0.00366   0.03088   0.03451   1.55433
    A8        1.51982   0.00307   0.00366   0.03088   0.03451   1.55433
    A9        3.13640   0.00052   0.00052   0.00597   0.00465   3.14105
   A10        3.13640   0.00052   0.00052   0.00597   0.00465   3.14105
   A11        3.03978   0.00611   0.00730   0.06153   0.06889   3.10866
   A12        3.24341  -0.00611  -0.00730  -0.06153  -0.06889   3.17452
    D1       -1.57080   0.00010   0.00000   0.00031   0.00000  -1.57080
    D2        1.57080   0.00000   0.00000  -0.00000   0.00000   1.57080
    D3       -1.57080   0.00000   0.00000  -0.00000   0.00000  -1.57080
    D4       -1.57080  -0.00010   0.00000  -0.00031   0.00000  -1.57080
         Item               Value     Threshold  Converged?
 Maximum Force            0.006105     0.000450     NO 
 RMS     Force            0.003462     0.000300     NO 
 Maximum Displacement     0.105936     0.001800     NO 
 RMS     Displacement     0.029015     0.001200     NO 
 Predicted change in Energy=-1.189300D-03
 GradGradGradGradGradGradGradGradGradGradGradGradGradGradGradGradGradGrad

                          Input orientation:                          
 ---------------------------------------------------------------------
 Center     Atomic      Atomic             Coordinates (Angstroms)
 Number     Number       Type             X           Y           Z
 ---------------------------------------------------------------------
      1         54           0        0.403301   -1.003536   -1.772927
      2          1           0        2.217569   -0.973659   -1.772927
      3          1           0        0.403301   -0.973659    0.041341
      4          1           0       -1.410967   -0.973659   -1.772927
      5          1           0        0.403301   -0.973659   -3.587195
      6          8           0        0.403301    1.177783   -1.772927
 ---------------------------------------------------------------------
                    Distance matrix (angstroms):
                    1          2          3          4          5
     1  Xe   0.000000
     2  H    1.814514   0.000000
     3  H    1.814514   2.565762   0.000000
     4  H    1.814514   3.628535   2.565762   0.000000
     5  H    1.814514   2.565762   3.628535   2.565762   0.000000
     6  O    2.181319   2.814297   2.814297   2.814297   2.814297
                    6
     6  O    0.000000
 Stoichiometry    H4OXe
 Framework group  C4V[C4(OXe),2SGV(H2)]
 Deg. of freedom     3
 Full point group                 C4V     NOp   8
 Largest Abelian subgroup         C2V     NOp   4
 Largest concise Abelian subgroup C2V     NOp   4
                         Standard orientation:                         
 ---------------------------------------------------------------------
 Center     Atomic      Atomic             Coordinates (Angstroms)
 Number     Number       Type             X           Y           Z
 ---------------------------------------------------------------------
      1         54           0        0.000000    0.000000    0.266213
      2          1           0        0.000000    1.814268    0.236336
      3          1           0       -1.814268    0.000000    0.236336
      4          1           0       -0.000000   -1.814268    0.236336
      5          1           0        1.814268   -0.000000    0.236336
      6          8           0       -0.000000   -0.000000   -1.915106
 ---------------------------------------------------------------------
 Rotational constants (GHZ):          38.0863464           6.7675547           6.7675547
 Standard basis: STO-3G (5D, 7F)
 There are    20 symmetry adapted cartesian basis functions of A1  symmetry.
 There are     2 symmetry adapted cartesian basis functions of A2  symmetry.
 There are     8 symmetry adapted cartesian basis functions of B1  symmetry.
 There are     8 symmetry adapted cartesian basis functions of B2  symmetry.
 There are    18 symmetry adapted basis functions of A1  symmetry.
 There are     2 symmetry adapted basis functions of A2  symmetry.
 There are     8 symmetry adapted basis functions of B1  symmetry.
 There are     8 symmetry adapted basis functions of B2  symmetry.
    36 basis functions,   114 primitive gaussians,    38 cartesian basis functions
    33 alpha electrons       33 beta electrons
       nuclear repulsion energy       174.9280923119 Hartrees.
 NAtoms=    6 NActive=    6 NUniq=    3 SFac= 4.00D+00 NAtFMM=   60 NAOKFM=F Big=F
 Integral buffers will be    131072 words long.
 Raffenetti 1 integral format.
 Two-electron integral symmetry is turned on.
 One-electron integrals computed using PRISM.
 NBasis=    36 RedAO= T EigKep=  3.15D-01  NBF=    18     2     8     8
 NBsUse=    36 1.00D-06 EigRej= -1.00D+00 NBFU=    18     2     8     8
 Initial guess from the checkpoint file:  "XeOH4.chk"
 B after Tr=    -0.000000    0.000000    0.000000
         Rot=    1.000000   -0.000000   -0.000000    0.000000 Ang=   0.00 deg.
 Initial guess orbital symmetries:
       Occupied  (A1) (A1) (E) (E) (A1) (A1) (E) (E) (A1) (B2)
                 (B1) (E) (E) (A1) (A1) (A1) (E) (E) (A1) (B2)
                 (B1) (E) (E) (A1) (A1) (A1) (E) (E) (A1) (E) (E)
                 (B2) (A1)
       Virtual   (E) (E) (A1)
 ExpMin= 1.69D-01 ExpMax= 6.26D+03 ExpMxC= 6.26D+03 IAcc=3 IRadAn=         5 AccDes= 0.00D+00
 Harris functional with IExCor=  205 and IRadAn=       5 diagonalized for initial guess.
 HarFok:  IExCor=  205 AccDes= 0.00D+00 IRadAn=         5 IDoV= 1 UseB2=F ITyADJ=14
 ICtDFT=  3500011 ScaDFX=  1.000000  1.000000  1.000000  1.000000
 Defaulting to unpruned grid for atomic number  54.
 FoFCou: FMM=F IPFlag=           0 FMFlag=      100000 FMFlg1=           0
         NFxFlg=           0 DoJE=T BraDBF=F KetDBF=T FulRan=T
         wScrn=  0.000000 ICntrl=       500 IOpCl=  0 I1Cent=   200000004 NGrid=           0
         NMat0=    1 NMatS0=      1 NMatT0=    0 NMatD0=    1 NMtDS0=    0 NMtDT0=    0
 Petite list used in FoFCou.
 Keep R1 ints in memory in symmetry-blocked form, NReq=1059181.
 Requested convergence on RMS density matrix=1.00D-08 within 128 cycles.
 Requested convergence on MAX density matrix=1.00D-06.
 Requested convergence on             energy=1.00D-06.
 No special actions if energy rises.
 SCF Done:  E(RHF) =  -7237.22382012     A.U. after    8 cycles
            NFock=  8  Conv=0.35D-09     -V/T= 2.0001
 Calling FoFJK, ICntrl=      2127 FMM=F ISym2X=1 I1Cent= 0 IOpClX= 0 NMat=1 NMatS=1 NMatT=0.
 ***** Axes restored to original set *****
 -------------------------------------------------------------------
 Center     Atomic                   Forces (Hartrees/Bohr)
 Number     Number              X              Y              Z
 -------------------------------------------------------------------
      1       54          -0.000000000   -0.029486732   -0.000000000
      2        1           0.001145600    0.004401066   -0.000000000
      3        1           0.000000000    0.004401066    0.001145600
      4        1          -0.001145600    0.004401066    0.000000000
      5        1           0.000000000    0.004401066   -0.001145600
      6        8          -0.000000000    0.011882468    0.000000000
 -------------------------------------------------------------------
 Cartesian Forces:  Max     0.029486732 RMS     0.007793828

 GradGradGradGradGradGradGradGradGradGradGradGradGradGradGradGradGradGrad
 Berny optimization.
 Using GEDIIS/GDIIS optimizer.
 FormGI is forming the generalized inverse of G from B-inverse, IUseBI=4.
 Internal  Forces:  Max     0.011882468 RMS     0.004618553
 Search for a local minimum.
 Step number   9 out of a maximum of   31
 All quantities printed in internal units (Hartrees-Bohrs-Radians)
 Mixed Optimization -- RFO/linear search
 Update second derivatives using D2CorX and points    6    9    8
 DE=  7.49D-04 DEPred=-1.19D-03 R=-6.30D-01
 Trust test=-6.30D-01 RLast= 2.09D-01 DXMaxT set to 2.96D-01
 ITU= -1  0 -1  1  1  0  1  1  0
 Use linear search instead of GDIIS.
     Eigenvalues ---    0.02959   0.03471   0.03471   0.03471   0.05445
     Eigenvalues ---    0.05486   0.05526   0.08113   0.15996   0.15996
     Eigenvalues ---    0.17701   0.28252
 RFO step:  Lambda=-7.50245067D-04 EMin= 2.95929931D-02
 Quartic linear search produced a step of -0.61519.
 Iteration  1 RMS(Cart)=  0.03655289 RMS(Int)=  0.00334941
 Iteration  2 RMS(Cart)=  0.00299694 RMS(Int)=  0.00043446
 Iteration  3 RMS(Cart)=  0.00000006 RMS(Int)=  0.00043446
 ClnCor:  largest displacement from symmetrization is 7.26D-05 for atom     4.
 Variable       Old X    -DE/DX   Delta X   Delta X   Delta X     New X
                                 (Linear)    (Quad)   (Total)
    R1        3.42893   0.00122  -0.01228   0.03353   0.02126   3.45019
    R2        3.42893   0.00122  -0.01228   0.03353   0.02126   3.45019
    R3        3.42893   0.00122  -0.01228   0.03353   0.02126   3.45019
    R4        3.42893   0.00122  -0.01228   0.03353   0.02126   3.45019
    R5        4.12209   0.01188   0.10237   0.11282   0.21519   4.33728
    A1        1.57053  -0.00011  -0.00143   0.00087  -0.00038   1.57015
    A2        1.57053  -0.00016  -0.00143   0.00040  -0.00038   1.57015
    A3        1.55433  -0.00500  -0.02123   0.01228  -0.00896   1.54537
    A4        1.57053  -0.00016  -0.00143   0.00040  -0.00038   1.57015
    A5        1.55433  -0.00500  -0.02123   0.01228  -0.00896   1.54537
    A6        1.57053  -0.00022  -0.00143  -0.00006  -0.00038   1.57015
    A7        1.55433  -0.00501  -0.02123   0.01229  -0.00896   1.54537
    A8        1.55433  -0.00501  -0.02123   0.01229  -0.00896   1.54537
    A9        3.14105  -0.00027  -0.00286   0.00127  -0.00075   3.14030
   A10        3.14105  -0.00027  -0.00286   0.00127  -0.00075   3.14030
   A11        3.10866  -0.01001  -0.04238   0.02455  -0.01791   3.09075
   A12        3.17452   0.01001   0.04238  -0.02455   0.01791   3.19243
    D1       -1.57080  -0.00005   0.00000  -0.00046   0.00000  -1.57080
    D2        1.57080  -0.00000   0.00000  -0.00000   0.00000   1.57080
    D3       -1.57080  -0.00000   0.00000  -0.00000   0.00000  -1.57080
    D4       -1.57080   0.00005   0.00000   0.00046   0.00000  -1.57080
         Item               Value     Threshold  Converged?
 Maximum Force            0.011882     0.000450     NO 
 RMS     Force            0.004619     0.000300     NO 
 Maximum Displacement     0.158502     0.001800     NO 
 RMS     Displacement     0.039413     0.001200     NO 
 Predicted change in Energy=-8.938913D-04
 GradGradGradGradGradGradGradGradGradGradGradGradGradGradGradGradGradGrad

                          Input orientation:                          
 ---------------------------------------------------------------------
 Center     Atomic      Atomic             Coordinates (Angstroms)
 Number     Number       Type             X           Y           Z
 ---------------------------------------------------------------------
      1         54           0        0.403301   -1.033533   -1.772927
      2          1           0        2.228475   -0.987113   -1.772927
      3          1           0        0.403301   -0.987113    0.052247
      4          1           0       -1.421873   -0.987113   -1.772927
      5          1           0        0.403301   -0.987113   -3.598101
      6          8           0        0.403301    1.261658   -1.772927
 ---------------------------------------------------------------------
                    Distance matrix (angstroms):
                    1          2          3          4          5
     1  Xe   0.000000
     2  H    1.825764   0.000000
     3  H    1.825764   2.581186   0.000000
     4  H    1.825764   3.650348   2.581186   0.000000
     5  H    1.825764   2.581186   3.650348   2.581186   0.000000
     6  O    2.295191   2.896245   2.896245   2.896245   2.896245
                    6
     6  O    0.000000
 Stoichiometry    H4OXe
 Framework group  C4V[C4(OXe),2SGV(H2)]
 Deg. of freedom     3
 Full point group                 C4V     NOp   8
 Largest Abelian subgroup         C2V     NOp   4
 Largest concise Abelian subgroup C2V     NOp   4
                         Standard orientation:                         
 ---------------------------------------------------------------------
 Center     Atomic      Atomic             Coordinates (Angstroms)
 Number     Number       Type             X           Y           Z
 ---------------------------------------------------------------------
      1         54           0       -0.000000    0.000000    0.281018
      2          1           0       -0.000000    1.825174    0.234599
      3          1           0       -1.825174    0.000000    0.234599
      4          1           0       -0.000000   -1.825174    0.234599
      5          1           0        1.825174   -0.000000    0.234599
      6          8           0        0.000000   -0.000000   -2.014172
 ---------------------------------------------------------------------
 Rotational constants (GHZ):          37.6325376           6.1615342           6.1615342
 Standard basis: STO-3G (5D, 7F)
 There are    20 symmetry adapted cartesian basis functions of A1  symmetry.
 There are     2 symmetry adapted cartesian basis functions of A2  symmetry.
 There are     8 symmetry adapted cartesian basis functions of B1  symmetry.
 There are     8 symmetry adapted cartesian basis functions of B2  symmetry.
 There are    18 symmetry adapted basis functions of A1  symmetry.
 There are     2 symmetry adapted basis functions of A2  symmetry.
 There are     8 symmetry adapted basis functions of B1  symmetry.
 There are     8 symmetry adapted basis functions of B2  symmetry.
    36 basis functions,   114 primitive gaussians,    38 cartesian basis functions
    33 alpha electrons       33 beta electrons
       nuclear repulsion energy       169.1634735217 Hartrees.
 NAtoms=    6 NActive=    6 NUniq=    3 SFac= 4.00D+00 NAtFMM=   60 NAOKFM=F Big=F
 Integral buffers will be    131072 words long.
 Raffenetti 1 integral format.
 Two-electron integral symmetry is turned on.
 One-electron integrals computed using PRISM.
 NBasis=    36 RedAO= T EigKep=  3.16D-01  NBF=    18     2     8     8
 NBsUse=    36 1.00D-06 EigRej= -1.00D+00 NBFU=    18     2     8     8
 Lowest energy guess from the checkpoint file:  "XeOH4.chk"
 B after Tr=    -0.000000    0.000000   -0.000000
         Rot=    1.000000   -0.000000    0.000000   -0.000000 Ang=   0.00 deg.
 B after Tr=    -0.000000   -0.000000   -0.000000
         Rot=    1.000000   -0.000000    0.000000   -0.000000 Ang=   0.00 deg.
 Initial guess orbital symmetries:
       Occupied  (A1) (E) (E) (B2) (A1) (A1) (E) (E) (A1) (B2)
                 (B1) (E) (E) (A1) (A1) (A1) (E) (E) (A1) (B2)
                 (B1) (B2) (B2) (A1) (A1) (A1) (B2) (B2) (A1) (B2)
                 (B2) (B2) (A1)
       Virtual   (A1) (E) (E)
 Keep R1 ints in memory in symmetry-blocked form, NReq=1059152.
 Requested convergence on RMS density matrix=1.00D-08 within 128 cycles.
 Requested convergence on MAX density matrix=1.00D-06.
 Requested convergence on             energy=1.00D-06.
 No special actions if energy rises.
 An orbital has undefined symmetry, so N**3 symmetry is turned off.
 SCF Done:  E(RHF) =  -7237.22516284     A.U. after    7 cycles
            NFock=  7  Conv=0.71D-08     -V/T= 2.0001
 Calling FoFJK, ICntrl=      2127 FMM=F ISym2X=1 I1Cent= 0 IOpClX= 0 NMat=1 NMatS=1 NMatT=0.
 ***** Axes restored to original set *****
 -------------------------------------------------------------------
 Center     Atomic                   Forces (Hartrees/Bohr)
 Number     Number              X              Y              Z
 -------------------------------------------------------------------
      1       54          -0.000000000   -0.003646173    0.000000000
      2        1           0.001006255    0.001475784   -0.000000000
      3        1           0.000000000    0.001475784    0.001006255
      4        1          -0.001006255    0.001475784   -0.000000000
      5        1           0.000000000    0.001475784   -0.001006255
      6        8           0.000000000   -0.002256961    0.000000000
 -------------------------------------------------------------------
 Cartesian Forces:  Max     0.003646173 RMS     0.001315514

 GradGradGradGradGradGradGradGradGradGradGradGradGradGradGradGradGradGrad
 Berny optimization.
 Using GEDIIS/GDIIS optimizer.
 FormGI is forming the generalized inverse of G from B-inverse, IUseBI=4.
 Internal  Forces:  Max     0.003328214 RMS     0.001427092
 Search for a local minimum.
 Step number  10 out of a maximum of   31
 All quantities printed in internal units (Hartrees-Bohrs-Radians)
 Mixed Optimization -- RFO/linear search
 Update second derivatives using D2CorX and points    6    9    8   10
 DE= -5.94D-04 DEPred=-8.94D-04 R= 6.65D-01
 TightC=F SS=  1.41D+00  RLast= 1.31D-01 DXNew= 4.9780D-01 3.9153D-01
 Trust test= 6.65D-01 RLast= 1.31D-01 DXMaxT set to 3.92D-01
 ITU=  1 -1  0 -1  1  1  0  1  1  0
 Use linear search instead of GDIIS.
     Eigenvalues ---    0.03471   0.03471   0.03471   0.05141   0.05421
     Eigenvalues ---    0.05489   0.05547   0.08110   0.15556   0.15990
     Eigenvalues ---    0.15990   0.22432
 RFO step:  Lambda=-2.00239107D-04 EMin= 3.47106893D-02
 Quartic linear search produced a step of -0.22079.
 Iteration  1 RMS(Cart)=  0.01607055 RMS(Int)=  0.00008344
 Iteration  2 RMS(Cart)=  0.00007709 RMS(Int)=  0.00003569
 Iteration  3 RMS(Cart)=  0.00000000 RMS(Int)=  0.00003569
 ClnCor:  largest displacement from symmetrization is 4.13D-04 for atom     4.
 Variable       Old X    -DE/DX   Delta X   Delta X   Delta X     New X
                                 (Linear)    (Quad)   (Total)
    R1        3.45019   0.00104  -0.00910   0.00901   0.00006   3.45025
    R2        3.45019   0.00104  -0.00910   0.00901   0.00006   3.45025
    R3        3.45019   0.00104  -0.00910   0.00901   0.00006   3.45025
    R4        3.45019   0.00104  -0.00910   0.00901   0.00006   3.45025
    R5        4.33728  -0.00226  -0.01077  -0.03695  -0.04773   4.28956
    A1        1.57015  -0.00006  -0.00043   0.00008  -0.00057   1.56958
    A2        1.57015  -0.00008  -0.00043  -0.00020  -0.00057   1.56958
    A3        1.54537  -0.00166  -0.00564  -0.00388  -0.00953   1.53584
    A4        1.57015  -0.00008  -0.00043  -0.00020  -0.00057   1.56958
    A5        1.54537  -0.00166  -0.00564  -0.00388  -0.00953   1.53584
    A6        1.57015  -0.00011  -0.00043  -0.00047  -0.00057   1.56958
    A7        1.54537  -0.00167  -0.00564  -0.00387  -0.00953   1.53584
    A8        1.54537  -0.00167  -0.00564  -0.00387  -0.00953   1.53584
    A9        3.14030  -0.00014  -0.00086  -0.00012  -0.00115   3.13915
   A10        3.14030  -0.00014  -0.00086  -0.00012  -0.00115   3.13915
   A11        3.09075  -0.00333  -0.01126  -0.00774  -0.01903   3.07173
   A12        3.19243   0.00333   0.01126   0.00774   0.01903   3.21146
    D1       -1.57080  -0.00003   0.00000  -0.00028   0.00000  -1.57080
    D2        1.57080  -0.00000   0.00000  -0.00000   0.00000   1.57080
    D3       -1.57080  -0.00000   0.00000  -0.00000   0.00000  -1.57080
    D4       -1.57080   0.00003   0.00000   0.00028   0.00000  -1.57080
         Item               Value     Threshold  Converged?
 Maximum Force            0.003328     0.000450     NO 
 RMS     Force            0.001427     0.000300     NO 
 Maximum Displacement     0.061637     0.001800     NO 
 RMS     Displacement     0.016083     0.001200     NO 
 Predicted change in Energy=-1.459536D-04
 GradGradGradGradGradGradGradGradGradGradGradGradGradGradGradGradGradGrad

                          Input orientation:                          
 ---------------------------------------------------------------------
 Center     Atomic      Atomic             Coordinates (Angstroms)
 Number     Number       Type             X           Y           Z
 ---------------------------------------------------------------------
      1         54           0        0.403301   -1.040894   -1.772927
      2          1           0        2.227981   -0.977087   -1.772927
      3          1           0        0.403301   -0.977087    0.051752
      4          1           0       -1.421378   -0.977087   -1.772927
      5          1           0        0.403301   -0.977087   -3.597607
      6          8           0        0.403301    1.229041   -1.772927
 ---------------------------------------------------------------------
                    Distance matrix (angstroms):
                    1          2          3          4          5
     1  Xe   0.000000
     2  H    1.825795   0.000000
     3  H    1.825795   2.580486   0.000000
     4  H    1.825795   3.649359   2.580486   0.000000
     5  H    1.825795   2.580486   3.649359   2.580486   0.000000
     6  O    2.269935   2.862946   2.862946   2.862946   2.862946
                    6
     6  O    0.000000
 Stoichiometry    H4OXe
 Framework group  C4V[C4(OXe),2SGV(H2)]
 Deg. of freedom     3
 Full point group                 C4V     NOp   8
 Largest Abelian subgroup         C2V     NOp   4
 Largest concise Abelian subgroup C2V     NOp   4
                         Standard orientation:                         
 ---------------------------------------------------------------------
 Center     Atomic      Atomic             Coordinates (Angstroms)
 Number     Number       Type             X           Y           Z
 ---------------------------------------------------------------------
      1         54           0        0.000000    0.000000    0.279011
      2          1           0        0.000000    1.824679    0.215204
      3          1           0       -1.824679    0.000000    0.215204
      4          1           0       -0.000000   -1.824679    0.215204
      5          1           0        1.824679   -0.000000    0.215204
      6          8           0       -0.000000   -0.000000   -1.990925
 ---------------------------------------------------------------------
 Rotational constants (GHZ):          37.6529417           6.2902668           6.2902668
 Standard basis: STO-3G (5D, 7F)
 There are    20 symmetry adapted cartesian basis functions of A1  symmetry.
 There are     2 symmetry adapted cartesian basis functions of A2  symmetry.
 There are     8 symmetry adapted cartesian basis functions of B1  symmetry.
 There are     8 symmetry adapted cartesian basis functions of B2  symmetry.
 There are    18 symmetry adapted basis functions of A1  symmetry.
 There are     2 symmetry adapted basis functions of A2  symmetry.
 There are     8 symmetry adapted basis functions of B1  symmetry.
 There are     8 symmetry adapted basis functions of B2  symmetry.
    36 basis functions,   114 primitive gaussians,    38 cartesian basis functions
    33 alpha electrons       33 beta electrons
       nuclear repulsion energy       170.3389073167 Hartrees.
 NAtoms=    6 NActive=    6 NUniq=    3 SFac= 4.00D+00 NAtFMM=   60 NAOKFM=F Big=F
 Integral buffers will be    131072 words long.
 Raffenetti 1 integral format.
 Two-electron integral symmetry is turned on.
 One-electron integrals computed using PRISM.
 NBasis=    36 RedAO= T EigKep=  3.16D-01  NBF=    18     2     8     8
 NBsUse=    36 1.00D-06 EigRej= -1.00D+00 NBFU=    18     2     8     8
 Initial guess from the checkpoint file:  "XeOH4.chk"
 B after Tr=    -0.000000   -0.000000   -0.000000
         Rot=    1.000000    0.000000    0.000000   -0.000000 Ang=   0.00 deg.
 Initial guess orbital symmetries:
       Occupied  (A1) (A1) (E) (E) (A1) (A1) (E) (E) (A1) (B2)
                 (B1) (E) (E) (A1) (A1) (A1) (E) (E) (A1) (B2)
                 (B1) (E) (E) (A1) (A1) (A1) (E) (E) (A1) (E) (E)
                 (B2) (A1)
       Virtual   (E) (E) (A1)
 ExpMin= 1.69D-01 ExpMax= 6.26D+03 ExpMxC= 6.26D+03 IAcc=3 IRadAn=         5 AccDes= 0.00D+00
 Harris functional with IExCor=  205 and IRadAn=       5 diagonalized for initial guess.
 HarFok:  IExCor=  205 AccDes= 0.00D+00 IRadAn=         5 IDoV= 1 UseB2=F ITyADJ=14
 ICtDFT=  3500011 ScaDFX=  1.000000  1.000000  1.000000  1.000000
 Defaulting to unpruned grid for atomic number  54.
 FoFCou: FMM=F IPFlag=           0 FMFlag=      100000 FMFlg1=           0
         NFxFlg=           0 DoJE=T BraDBF=F KetDBF=T FulRan=T
         wScrn=  0.000000 ICntrl=       500 IOpCl=  0 I1Cent=   200000004 NGrid=           0
         NMat0=    1 NMatS0=      1 NMatT0=    0 NMatD0=    1 NMtDS0=    0 NMtDT0=    0
 Petite list used in FoFCou.
 Keep R1 ints in memory in symmetry-blocked form, NReq=1059152.
 Requested convergence on RMS density matrix=1.00D-08 within 128 cycles.
 Requested convergence on MAX density matrix=1.00D-06.
 Requested convergence on             energy=1.00D-06.
 No special actions if energy rises.
 An orbital has undefined symmetry, so N**3 symmetry is turned off.
 SCF Done:  E(RHF) =  -7237.22533046     A.U. after    7 cycles
            NFock=  7  Conv=0.27D-08     -V/T= 2.0001
 Calling FoFJK, ICntrl=      2127 FMM=F ISym2X=1 I1Cent= 0 IOpClX= 0 NMat=1 NMatS=1 NMatT=0.
 ***** Axes restored to original set *****
 -------------------------------------------------------------------
 Center     Atomic                   Forces (Hartrees/Bohr)
 Number     Number              X              Y              Z
 -------------------------------------------------------------------
      1       54          -0.000000000    0.000112204   -0.000000000
      2        1           0.000358681    0.000092430   -0.000000000
      3        1           0.000000000    0.000092430    0.000358681
      4        1          -0.000358681    0.000092430    0.000000000
      5        1           0.000000000    0.000092430   -0.000358681
      6        8          -0.000000000   -0.000481925    0.000000000
 -------------------------------------------------------------------
 Cartesian Forces:  Max     0.000481925 RMS     0.000209977

 GradGradGradGradGradGradGradGradGradGradGradGradGradGradGradGradGradGrad
 Berny optimization.
 Using GEDIIS/GDIIS optimizer.
 FormGI is forming the generalized inverse of G from B-inverse, IUseBI=4.
 Internal  Forces:  Max     0.000481925 RMS     0.000201954
 Search for a local minimum.
 Step number  11 out of a maximum of   31
 All quantities printed in internal units (Hartrees-Bohrs-Radians)
 Mixed Optimization -- En-DIIS/RFO-DIIS
 Update second derivatives using D2CorX and points    6    9    8   10   11
 DE= -1.68D-04 DEPred=-1.46D-04 R= 1.15D+00
 TightC=F SS=  1.41D+00  RLast= 5.80D-02 DXNew= 6.5847D-01 1.7413D-01
 Trust test= 1.15D+00 RLast= 5.80D-02 DXMaxT set to 3.92D-01
 ITU=  1  1 -1  0 -1  1  1  0  1  1  0
 Use linear search instead of GDIIS.
     Eigenvalues ---    0.03471   0.03471   0.03471   0.04718   0.05395
     Eigenvalues ---    0.05476   0.05568   0.08105   0.13232   0.15981
     Eigenvalues ---    0.15981   0.22130
 RFO step:  Lambda=-3.40422112D-06 EMin= 3.47106893D-02
 Quartic linear search produced a step of  0.12192.
 Iteration  1 RMS(Cart)=  0.00215556 RMS(Int)=  0.00000769
 Iteration  2 RMS(Cart)=  0.00000057 RMS(Int)=  0.00000768
 ClnCor:  largest displacement from symmetrization is 7.26D-05 for atom     4.
 Variable       Old X    -DE/DX   Delta X   Delta X   Delta X     New X
                                 (Linear)    (Quad)   (Total)
    R1        3.45025   0.00036   0.00001   0.00213   0.00212   3.45237
    R2        3.45025   0.00036   0.00001   0.00213   0.00212   3.45237
    R3        3.45025   0.00036   0.00001   0.00213   0.00212   3.45237
    R4        3.45025   0.00036   0.00001   0.00213   0.00212   3.45237
    R5        4.28956  -0.00048  -0.00582  -0.00176  -0.00758   4.28198
    A1        1.56958  -0.00000  -0.00007  -0.00002  -0.00005   1.56953
    A2        1.56958  -0.00001  -0.00007   0.00003  -0.00005   1.56953
    A3        1.53584  -0.00009  -0.00116   0.00047  -0.00069   1.53516
    A4        1.56958  -0.00001  -0.00007   0.00003  -0.00005   1.56953
    A5        1.53584  -0.00009  -0.00116   0.00047  -0.00069   1.53516
    A6        1.56958  -0.00001  -0.00007   0.00008  -0.00005   1.56953
    A7        1.53584  -0.00009  -0.00116   0.00047  -0.00069   1.53516
    A8        1.53584  -0.00009  -0.00116   0.00047  -0.00069   1.53516
    A9        3.13915  -0.00001  -0.00014   0.00002  -0.00010   3.13905
   A10        3.13915  -0.00001  -0.00014   0.00002  -0.00010   3.13905
   A11        3.07173  -0.00018  -0.00232   0.00095  -0.00137   3.07036
   A12        3.21146   0.00018   0.00232  -0.00095   0.00137   3.21283
    D1       -1.57080  -0.00000   0.00000   0.00005   0.00000  -1.57080
    D2        1.57080  -0.00000   0.00000  -0.00000   0.00000   1.57080
    D3       -1.57080   0.00000   0.00000   0.00000   0.00000  -1.57080
    D4       -1.57080   0.00000   0.00000  -0.00005   0.00000  -1.57080
         Item               Value     Threshold  Converged?
 Maximum Force            0.000482     0.000450     NO 
 RMS     Force            0.000202     0.000300     YES
 Maximum Displacement     0.007951     0.001800     NO 
 RMS     Displacement     0.002149     0.001200     NO 
 Predicted change in Energy=-3.837885D-06
 GradGradGradGradGradGradGradGradGradGradGradGradGradGradGradGradGradGrad

                          Input orientation:                          
 ---------------------------------------------------------------------
 Center     Atomic      Atomic             Coordinates (Angstroms)
 Number     Number       Type             X           Y           Z
 ---------------------------------------------------------------------
      1         54           0        0.403301   -1.041090   -1.772927
      2          1           0        2.229055   -0.975992   -1.772927
      3          1           0        0.403301   -0.975992    0.052827
      4          1           0       -1.422453   -0.975992   -1.772927
      5          1           0        0.403301   -0.975992   -3.598681
      6          8           0        0.403301    1.224834   -1.772927
 ---------------------------------------------------------------------
                    Distance matrix (angstroms):
                    1          2          3          4          5
     1  Xe   0.000000
     2  H    1.826914   0.000000
     3  H    1.826914   2.582006   0.000000
     4  H    1.826914   3.651508   2.582006   0.000000
     5  H    1.826914   2.582006   3.651508   2.582006   0.000000
     6  O    2.265924   2.859547   2.859547   2.859547   2.859547
                    6
     6  O    0.000000
 Stoichiometry    H4OXe
 Framework group  C4V[C4(OXe),2SGV(H2)]
 Deg. of freedom     3
 Full point group                 C4V     NOp   8
 Largest Abelian subgroup         C2V     NOp   4
 Largest concise Abelian subgroup C2V     NOp   4
                         Standard orientation:                         
 ---------------------------------------------------------------------
 Center     Atomic      Atomic             Coordinates (Angstroms)
 Number     Number       Type             X           Y           Z
 ---------------------------------------------------------------------
      1         54           0       -0.000000    0.000000    0.278603
      2          1           0       -0.000000    1.825754    0.213505
      3          1           0       -1.825754    0.000000    0.213505
      4          1           0       -0.000000   -1.825754    0.213505
      5          1           0        1.825754   -0.000000    0.213505
      6          8           0        0.000000   -0.000000   -1.987321
 ---------------------------------------------------------------------
 Rotational constants (GHZ):          37.6086324           6.3102248           6.3102248
 Standard basis: STO-3G (5D, 7F)
 There are    20 symmetry adapted cartesian basis functions of A1  symmetry.
 There are     2 symmetry adapted cartesian basis functions of A2  symmetry.
 There are     8 symmetry adapted cartesian basis functions of B1  symmetry.
 There are     8 symmetry adapted cartesian basis functions of B2  symmetry.
 There are    18 symmetry adapted basis functions of A1  symmetry.
 There are     2 symmetry adapted basis functions of A2  symmetry.
 There are     8 symmetry adapted basis functions of B1  symmetry.
 There are     8 symmetry adapted basis functions of B2  symmetry.
    36 basis functions,   114 primitive gaussians,    38 cartesian basis functions
    33 alpha electrons       33 beta electrons
       nuclear repulsion energy       170.4852178907 Hartrees.
 NAtoms=    6 NActive=    6 NUniq=    3 SFac= 4.00D+00 NAtFMM=   60 NAOKFM=F Big=F
 Integral buffers will be    131072 words long.
 Raffenetti 1 integral format.
 Two-electron integral symmetry is turned on.
 One-electron integrals computed using PRISM.
 NBasis=    36 RedAO= T EigKep=  3.16D-01  NBF=    18     2     8     8
 NBsUse=    36 1.00D-06 EigRej= -1.00D+00 NBFU=    18     2     8     8
 Initial guess from the checkpoint file:  "XeOH4.chk"
 B after Tr=     0.000000   -0.000000    0.000000
         Rot=    1.000000   -0.000000    0.000000    0.000000 Ang=   0.00 deg.
 Initial guess orbital symmetries:
       Occupied  (A1) (A1) (E) (E) (A1) (A1) (E) (E) (A1) (B2)
                 (B1) (E) (E) (A1) (A1) (A1) (E) (E) (A1) (B2)
                 (B1) (E) (E) (A1) (A1) (A1) (E) (E) (A1) (E) (E)
                 (B2) (A1)
       Virtual   (E) (E) (A1)
 Keep R1 ints in memory in symmetry-blocked form, NReq=1059152.
 Requested convergence on RMS density matrix=1.00D-08 within 128 cycles.
 Requested convergence on MAX density matrix=1.00D-06.
 Requested convergence on             energy=1.00D-06.
 No special actions if energy rises.
 An orbital has undefined symmetry, so N**3 symmetry is turned off.
 SCF Done:  E(RHF) =  -7237.22533421     A.U. after    6 cycles
            NFock=  6  Conv=0.86D-08     -V/T= 2.0001
 Calling FoFJK, ICntrl=      2127 FMM=F ISym2X=1 I1Cent= 0 IOpClX= 0 NMat=1 NMatS=1 NMatT=0.
 ***** Axes restored to original set *****
 -------------------------------------------------------------------
 Center     Atomic                   Forces (Hartrees/Bohr)
 Number     Number              X              Y              Z
 -------------------------------------------------------------------
      1       54          -0.000000000    0.000001138    0.000000000
      2        1           0.000005494   -0.000000900   -0.000000000
      3        1           0.000000000   -0.000000900    0.000005494
      4        1          -0.000005494   -0.000000900    0.000000000
      5        1           0.000000000   -0.000000900   -0.000005494
      6        8          -0.000000000    0.000002463   -0.000000000
 -------------------------------------------------------------------
 Cartesian Forces:  Max     0.000005494 RMS     0.000002701

 GradGradGradGradGradGradGradGradGradGradGradGradGradGradGradGradGradGrad
 Berny optimization.
 Using GEDIIS/GDIIS optimizer.
 FormGI is forming the generalized inverse of G from B-inverse, IUseBI=4.
 Internal  Forces:  Max     0.000005458 RMS     0.000002621
 Search for a local minimum.
 Step number  12 out of a maximum of   31
 All quantities printed in internal units (Hartrees-Bohrs-Radians)
 Mixed Optimization -- En-DIIS/RFO-DIIS
 Swapping is turned off.
 Update second derivatives using D2CorX and points    6    9    8   10   11
                                                     12
 DE= -3.75D-06 DEPred=-3.84D-06 R= 9.77D-01
 TightC=F SS=  1.41D+00  RLast= 9.00D-03 DXNew= 6.5847D-01 2.7005D-02
 Trust test= 9.77D-01 RLast= 9.00D-03 DXMaxT set to 3.92D-01
 ITU=  1  1  1 -1  0 -1  1  1  0  1  1  0
     Eigenvalues ---    0.03471   0.03471   0.03471   0.04933   0.05393
     Eigenvalues ---    0.05481   0.05570   0.08105   0.13140   0.15980
     Eigenvalues ---    0.15980   0.22021
 En-DIIS/RFO-DIIS/Sim-DIIS IScMMF=       -3 using points:    12   11
 RFO step:  Lambda=-1.29775939D-09.
 DidBck=F Rises=F RFO-DIIS coefs:    0.99553    0.00447
 Iteration  1 RMS(Cart)=  0.00003510 RMS(Int)=  0.00000000
 Iteration  2 RMS(Cart)=  0.00000000 RMS(Int)=  0.00000000
 ClnCor:  largest displacement from symmetrization is 1.42D-06 for atom     5.
 Variable       Old X    -DE/DX   Delta X   Delta X   Delta X     New X
                                 (Linear)    (Quad)   (Total)
    R1        3.45237   0.00001  -0.00001   0.00006   0.00005   3.45242
    R2        3.45237   0.00001  -0.00001   0.00006   0.00005   3.45242
    R3        3.45237   0.00001  -0.00001   0.00006   0.00005   3.45242
    R4        3.45237   0.00001  -0.00001   0.00006   0.00005   3.45242
    R5        4.28198   0.00000   0.00003   0.00006   0.00009   4.28207
    A1        1.56953   0.00000   0.00000  -0.00000   0.00000   1.56953
    A2        1.56953   0.00000   0.00000   0.00000   0.00000   1.56953
    A3        1.53516   0.00000   0.00000   0.00001   0.00001   1.53517
    A4        1.56953   0.00000   0.00000   0.00000   0.00000   1.56953
    A5        1.53516   0.00000   0.00000   0.00001   0.00001   1.53517
    A6        1.56953   0.00000   0.00000   0.00000   0.00000   1.56953
    A7        1.53516   0.00000   0.00000   0.00001   0.00001   1.53517
    A8        1.53516   0.00000   0.00000   0.00001   0.00001   1.53517
    A9        3.13905   0.00000   0.00000   0.00000   0.00000   3.13905
   A10        3.13905   0.00000   0.00000   0.00000   0.00000   3.13905
   A11        3.07036   0.00000   0.00001   0.00002   0.00002   3.07038
   A12        3.21283  -0.00000  -0.00001  -0.00002  -0.00002   3.21281
    D1       -1.57080   0.00000   0.00000   0.00000   0.00000  -1.57080
    D2        1.57080  -0.00000  -0.00000  -0.00000   0.00000   1.57080
    D3       -1.57080  -0.00000   0.00000  -0.00000   0.00000  -1.57080
    D4       -1.57080  -0.00000   0.00000  -0.00000   0.00000  -1.57080
         Item               Value     Threshold  Converged?
 Maximum Force            0.000005     0.000450     YES
 RMS     Force            0.000003     0.000300     YES
 Maximum Displacement     0.000104     0.001800     YES
 RMS     Displacement     0.000035     0.001200     YES
 Predicted change in Energy=-7.817448D-10
 Optimization completed.
    -- Stationary point found.
                           ----------------------------
                           !   Optimized Parameters   !
                           ! (Angstroms and Degrees)  !
 --------------------------                            --------------------------
 ! Name  Definition              Value          Derivative Info.                !
 --------------------------------------------------------------------------------
 ! R1    R(1,2)                  1.8269         -DE/DX =    0.0                 !
 ! R2    R(1,3)                  1.8269         -DE/DX =    0.0                 !
 ! R3    R(1,4)                  1.8269         -DE/DX =    0.0                 !
 ! R4    R(1,5)                  1.8269         -DE/DX =    0.0                 !
 ! R5    R(1,6)                  2.2659         -DE/DX =    0.0                 !
 ! A1    A(2,1,3)               89.9273         -DE/DX =    0.0                 !
 ! A2    A(2,1,5)               89.9273         -DE/DX =    0.0                 !
 ! A3    A(2,1,6)               87.958          -DE/DX =    0.0                 !
 ! A4    A(3,1,4)               89.9273         -DE/DX =    0.0                 !
 ! A5    A(3,1,6)               87.958          -DE/DX =    0.0                 !
 ! A6    A(4,1,5)               89.9273         -DE/DX =    0.0                 !
 ! A7    A(4,1,6)               87.958          -DE/DX =    0.0                 !
 ! A8    A(5,1,6)               87.958          -DE/DX =    0.0                 !
 ! A9    L(2,1,4,3,-1)         179.8545         -DE/DX =    0.0                 !
 ! A10   L(3,1,5,2,-1)         179.8545         -DE/DX =    0.0                 !
 ! A11   L(2,1,4,3,-2)         175.9185         -DE/DX =    0.0                 !
 ! A12   L(3,1,5,2,-2)         184.0815         -DE/DX =    0.0                 !
 ! D1    D(2,1,6,3)            -90.0            -DE/DX =    0.0                 !
 ! D2    D(2,1,6,5)             90.0            -DE/DX =    0.0                 !
 ! D3    D(3,1,6,4)            -90.0            -DE/DX =    0.0                 !
 ! D4    D(4,1,6,5)            -90.0            -DE/DX =    0.0                 !
 --------------------------------------------------------------------------------
 GradGradGradGradGradGradGradGradGradGradGradGradGradGradGradGradGradGrad

                          Input orientation:                          
 ---------------------------------------------------------------------
 Center     Atomic      Atomic             Coordinates (Angstroms)
 Number     Number       Type             X           Y           Z
 ---------------------------------------------------------------------
      1         54           0        0.403301   -1.041090   -1.772927
      2          1           0        2.229055   -0.975992   -1.772927
      3          1           0        0.403301   -0.975992    0.052827
      4          1           0       -1.422453   -0.975992   -1.772927
      5          1           0        0.403301   -0.975992   -3.598681
      6          8           0        0.403301    1.224834   -1.772927
 ---------------------------------------------------------------------
                    Distance matrix (angstroms):
                    1          2          3          4          5
     1  Xe   0.000000
     2  H    1.826914   0.000000
     3  H    1.826914   2.582006   0.000000
     4  H    1.826914   3.651508   2.582006   0.000000
     5  H    1.826914   2.582006   3.651508   2.582006   0.000000
     6  O    2.265924   2.859547   2.859547   2.859547   2.859547
                    6
     6  O    0.000000
 Stoichiometry    H4OXe
 Framework group  C4V[C4(OXe),2SGV(H2)]
 Deg. of freedom     3
 Full point group                 C4V     NOp   8
 Largest Abelian subgroup         C2V     NOp   4
 Largest concise Abelian subgroup C2V     NOp   4
                         Standard orientation:                         
 ---------------------------------------------------------------------
 Center     Atomic      Atomic             Coordinates (Angstroms)
 Number     Number       Type             X           Y           Z
 ---------------------------------------------------------------------
      1         54           0       -0.000000    0.000000    0.278603
      2          1           0       -0.000000    1.825754    0.213505
      3          1           0       -1.825754    0.000000    0.213505
      4          1           0       -0.000000   -1.825754    0.213505
      5          1           0        1.825754   -0.000000    0.213505
      6          8           0        0.000000   -0.000000   -1.987321
 ---------------------------------------------------------------------
 Rotational constants (GHZ):          37.6086324           6.3102248           6.3102248

 **********************************************************************

            Population analysis using the SCF Density.

 **********************************************************************

 Orbital symmetries:
       Occupied  (A1) (A1) (E) (E) (A1) (A1) (E) (E) (A1) (B2)
                 (B1) (E) (E) (A1) (A1) (A1) (E) (E) (A1) (B2)
                 (B1) (E) (E) (A1) (A1) (A1) (E) (E) (A1) (E) (E)
                 (B2) (A1)
       Virtual   (E) (E) (A1)
 The electronic state is 1-A1.
 Alpha  occ. eigenvalues -- **********-185.86112-176.96466-176.96466-176.96392
 Alpha  occ. eigenvalues --  -38.13564 -35.04772 -35.04772 -35.04466 -25.59795
 Alpha  occ. eigenvalues --  -25.59793 -25.59528 -25.59528 -25.59441 -20.13685
 Alpha  occ. eigenvalues --   -7.49885  -6.05648  -6.05648  -6.04777  -2.69967
 Alpha  occ. eigenvalues --   -2.69838  -2.69014  -2.69014  -2.68810  -1.10072
 Alpha  occ. eigenvalues --   -0.94494  -0.64034  -0.64034  -0.53521  -0.33136
 Alpha  occ. eigenvalues --   -0.33136  -0.23545  -0.09995
 Alpha virt. eigenvalues --    0.23553   0.23553   0.31807
          Condensed to atoms (all electrons):
               1          2          3          4          5          6
     1  Xe  52.569732   0.008910   0.008910   0.008910   0.008910   0.031641
     2  H    0.008910   1.268790   0.000533   0.003916   0.000533  -0.003285
     3  H    0.008910   0.000533   1.268790   0.000533   0.003916  -0.003285
     4  H    0.008910   0.003916   0.000533   1.268790   0.000533  -0.003285
     5  H    0.008910   0.000533   0.003916   0.000533   1.268790  -0.003285
     6  O    0.031641  -0.003285  -0.003285  -0.003285  -0.003285   8.226893
 Mulliken charges:
               1
     1  Xe   1.362985
     2  H   -0.279397
     3  H   -0.279397
     4  H   -0.279397
     5  H   -0.279397
     6  O   -0.245396
 Sum of Mulliken charges =   0.00000
 Mulliken charges with hydrogens summed into heavy atoms:
               1
     1  Xe   0.245396
     6  O   -0.245396
 Electronic spatial extent (au):  <R**2>=            262.7299
 Charge=              0.0000 electrons
 Dipole moment (field-independent basis, Debye):
    X=              0.0000    Y=              0.0000    Z=              2.6496  Tot=              2.6496
 Quadrupole moment (field-independent basis, Debye-Ang):
   XX=            -40.2781   YY=            -40.2781   ZZ=            -36.0129
   XY=              0.0000   XZ=              0.0000   YZ=              0.0000
 Traceless Quadrupole moment (field-independent basis, Debye-Ang):
   XX=             -1.4217   YY=             -1.4217   ZZ=              2.8435
   XY=              0.0000   XZ=              0.0000   YZ=              0.0000
 Octapole moment (field-independent basis, Debye-Ang**2):
  XXX=              0.0000  YYY=              0.0000  ZZZ=              6.9333  XYY=              0.0000
  XXY=              0.0000  XXZ=              0.2969  XZZ=              0.0000  YZZ=              0.0000
  YYZ=              0.2969  XYZ=              0.0000
 Hexadecapole moment (field-independent basis, Debye-Ang**3):
 XXXX=           -100.9468 YYYY=           -100.9468 ZZZZ=           -138.6312 XXXY=              0.0000
 XXXZ=              0.0000 YYYX=              0.0000 YYYZ=             -0.0000 ZZZX=              0.0000
 ZZZY=             -0.0000 XXYY=            -23.1978 XXZZ=            -37.0583 YYZZ=            -37.0583
 XXYZ=              0.0000 YYXZ=              0.0000 ZZXY=              0.0000
 N-N= 1.704852178907D+02 E-N=-1.752447299943D+04  KE= 7.236486370473D+03
 Symmetry A1   KE= 5.075080885691D+03
 Symmetry A2   KE= 1.929717322657D+02
 Symmetry B1   KE= 9.842168762580D+02
 Symmetry B2   KE= 9.842168762580D+02
 Unable to Open any file for archive entry.
 1\1\GINC-BS001\FOpt\RHF\STO-3G\H4O1Xe1\PNATT\10-Aug-2026\0\\# opt freq
 =hpmodes hf/sto-3g geom=connectivity\\Title Card Required\\0,1\Xe,0.40
 330111,-1.0410897306,-1.77292707\H,2.2290551154,-0.97599169,-1.7729270
 7\H,0.40330111,-0.97599169,0.0528269354\H,-1.4224528954,-0.97599169,-1
 .77292707\H,0.40330111,-0.97599169,-3.5986810754\O,0.40330111,1.224833
 9122,-1.77292707\\Version=ES64L-G16RevC.01\State=1-A1\HF=-7237.2253342
 \RMSD=8.619e-09\RMSF=2.701e-06\Dipole=0.,-1.0424306,0.\Quadrupole=-1.0
 570211,2.1140423,-1.0570211,0.,0.,0.\PG=C04V [C4(O1Xe1),2SGV(H2)]\\@
 The archive entry for this job was punched.


 POCKETA-POCKETA
 BARON VON RICHTOFEN
 SLAUGHTERED THE ALLIES WITH
 HARDLY A CARE.
 KILLED EIGHTY-ONE WITH HIS
 BLOOD-COLORED TRIPLANE, THEN
 UN-AEROBATICALLY
 PLUNGED FROM THE AIR.
   -- TONY HOFFMAN
 Job cpu time:       0 days  0 hours  0 minutes 11.3 seconds.
 Elapsed time:       0 days  0 hours  0 minutes 10.6 seconds.
 File lengths (MBytes):  RWF=      6 Int=      0 D2E=      0 Chk=      1 Scr=      1
 Normal termination of Gaussian 16 at Mon Aug 10 17:01:28 2026.
 Link1:  Proceeding to internal job step number  2.
 ---------------------------------------------------------------
 #N Geom=AllCheck Guess=TCheck SCRF=Check GenChk RHF/STO-3G Freq
 ---------------------------------------------------------------
 1/10=4,29=7,30=1,38=1,40=1/1,3;
 2/12=2,40=1/2;
 3/6=3,11=1,14=-4,25=1,30=1,70=2,71=2,116=1,140=1/1,2,3;
 4/5=101/1;
 5/5=2,38=6,98=1/2;
 8/6=4,10=90,11=11/1;
 10/13=10,15=4/2;
 11/6=3,8=1,9=11,15=111,16=1/1,2,10;
 10/6=1/2;
 6/7=2,8=2,9=2,10=2,28=1/1;
 7/8=11,10=1,25=1/1,2,3,16;
 1/10=4,30=1/3;
 99//99;
 Structure from the checkpoint file:  "XeOH4.chk"
 -------------------
 Title Card Required
 -------------------
 Charge =  0 Multiplicity = 1
 Redundant internal coordinates found in file.  (old form).
 Xe,0,0.40330111,-1.0410897306,-1.77292707
 H,0,2.2290551154,-0.97599169,-1.77292707
 H,0,0.40330111,-0.97599169,0.0528269354
 H,0,-1.4224528954,-0.97599169,-1.77292707
 H,0,0.40330111,-0.97599169,-3.5986810754
 O,0,0.40330111,1.2248339122,-1.77292707
 Recover connectivity data from disk.

 GradGradGradGradGradGradGradGradGradGradGradGradGradGradGradGradGradGrad
 Berny optimization.
 Initialization pass.
                           ----------------------------
                           !    Initial Parameters    !
                           ! (Angstroms and Degrees)  !
 --------------------------                            --------------------------
 ! Name  Definition              Value          Derivative Info.                !
 --------------------------------------------------------------------------------
 ! R1    R(1,2)                  1.8269         calculate D2E/DX2 analytically  !
 ! R2    R(1,3)                  1.8269         calculate D2E/DX2 analytically  !
 ! R3    R(1,4)                  1.8269         calculate D2E/DX2 analytically  !
 ! R4    R(1,5)                  1.8269         calculate D2E/DX2 analytically  !
 ! R5    R(1,6)                  2.2659         calculate D2E/DX2 analytically  !
 ! A1    A(2,1,3)               89.9273         calculate D2E/DX2 analytically  !
 ! A2    A(2,1,5)               89.9273         calculate D2E/DX2 analytically  !
 ! A3    A(2,1,6)               87.958          calculate D2E/DX2 analytically  !
 ! A4    A(3,1,4)               89.9273         calculate D2E/DX2 analytically  !
 ! A5    A(3,1,6)               87.958          calculate D2E/DX2 analytically  !
 ! A6    A(4,1,5)               89.9273         calculate D2E/DX2 analytically  !
 ! A7    A(4,1,6)               87.958          calculate D2E/DX2 analytically  !
 ! A8    A(5,1,6)               87.958          calculate D2E/DX2 analytically  !
 ! A9    L(2,1,4,3,-1)         179.8545         calculate D2E/DX2 analytically  !
 ! A10   L(3,1,5,2,-1)         179.8545         calculate D2E/DX2 analytically  !
 ! A11   L(2,1,4,3,-2)         175.9185         calculate D2E/DX2 analytically  !
 ! A12   L(3,1,5,2,-2)         184.0815         calculate D2E/DX2 analytically  !
 ! D1    D(2,1,6,3)            -90.0            calculate D2E/DX2 analytically  !
 ! D2    D(2,1,6,5)             90.0            calculate D2E/DX2 analytically  !
 ! D3    D(3,1,6,4)            -90.0            calculate D2E/DX2 analytically  !
 ! D4    D(4,1,6,5)            -90.0            calculate D2E/DX2 analytically  !
 --------------------------------------------------------------------------------
 Trust Radius=3.00D-01 FncErr=1.00D-07 GrdErr=1.00D-07 EigMax=2.50D+02 EigMin=1.00D-04
 Number of steps in this run=      2 maximum allowed number of steps=      2.
 GradGradGradGradGradGradGradGradGradGradGradGradGradGradGradGradGradGrad

                          Input orientation:                          
 ---------------------------------------------------------------------
 Center     Atomic      Atomic             Coordinates (Angstroms)
 Number     Number       Type             X           Y           Z
 ---------------------------------------------------------------------
      1         54           0        0.403301   -1.041090   -1.772927
      2          1           0        2.229055   -0.975992   -1.772927
      3          1           0        0.403301   -0.975992    0.052827
      4          1           0       -1.422453   -0.975992   -1.772927
      5          1           0        0.403301   -0.975992   -3.598681
      6          8           0        0.403301    1.224834   -1.772927
 ---------------------------------------------------------------------
                    Distance matrix (angstroms):
                    1          2          3          4          5
     1  Xe   0.000000
     2  H    1.826914   0.000000
     3  H    1.826914   2.582006   0.000000
     4  H    1.826914   3.651508   2.582006   0.000000
     5  H    1.826914   2.582006   3.651508   2.582006   0.000000
     6  O    2.265924   2.859547   2.859547   2.859547   2.859547
                    6
     6  O    0.000000
 Stoichiometry    H4OXe
 Framework group  C4V[C4(OXe),2SGV(H2)]
 Deg. of freedom     3
 Full point group                 C4V     NOp   8
 Largest Abelian subgroup         C2V     NOp   4
 Largest concise Abelian subgroup C2V     NOp   4
                         Standard orientation:                         
 ---------------------------------------------------------------------
 Center     Atomic      Atomic             Coordinates (Angstroms)
 Number     Number       Type             X           Y           Z
 ---------------------------------------------------------------------
      1         54           0       -0.000000   -0.000000    0.278603
      2          1           0       -0.000000    1.825754    0.213505
      3          1           0       -1.825754    0.000000    0.213505
      4          1           0       -0.000000   -1.825754    0.213505
      5          1           0        1.825754   -0.000000    0.213505
      6          8           0        0.000000    0.000000   -1.987321
 ---------------------------------------------------------------------
 Rotational constants (GHZ):          37.6086324           6.3102248           6.3102248
 Standard basis: STO-3G (5D, 7F)
 There are    20 symmetry adapted cartesian basis functions of A1  symmetry.
 There are     2 symmetry adapted cartesian basis functions of A2  symmetry.
 There are     8 symmetry adapted cartesian basis functions of B1  symmetry.
 There are     8 symmetry adapted cartesian basis functions of B2  symmetry.
 There are    18 symmetry adapted basis functions of A1  symmetry.
 There are     2 symmetry adapted basis functions of A2  symmetry.
 There are     8 symmetry adapted basis functions of B1  symmetry.
 There are     8 symmetry adapted basis functions of B2  symmetry.
    36 basis functions,   114 primitive gaussians,    38 cartesian basis functions
    33 alpha electrons       33 beta electrons
       nuclear repulsion energy       170.4852178907 Hartrees.
 NAtoms=    6 NActive=    6 NUniq=    3 SFac= 4.00D+00 NAtFMM=   60 NAOKFM=F Big=F
 Integral buffers will be    131072 words long.
 Raffenetti 1 integral format.
 Two-electron integral symmetry is turned on.
 One-electron integrals computed using PRISM.
 NBasis=    36 RedAO= T EigKep=  3.16D-01  NBF=    18     2     8     8
 NBsUse=    36 1.00D-06 EigRej= -1.00D+00 NBFU=    18     2     8     8
 Initial guess from the checkpoint file:  "XeOH4.chk"
 B after Tr=     0.000000    0.000000    0.000000
         Rot=    1.000000   -0.000000    0.000000    0.000000 Ang=   0.00 deg.
 Initial guess orbital symmetries:
       Occupied  (A1) (A1) (E) (E) (A1) (A1) (E) (E) (A1) (B2)
                 (B1) (E) (E) (A1) (A1) (A1) (E) (E) (A1) (B2)
                 (B1) (E) (E) (A1) (A1) (A1) (E) (E) (A1) (E) (E)
                 (B2) (A1)
       Virtual   (E) (E) (A1)
 Keep R1 ints in memory in symmetry-blocked form, NReq=1059152.
 Requested convergence on RMS density matrix=1.00D-08 within 128 cycles.
 Requested convergence on MAX density matrix=1.00D-06.
 Requested convergence on             energy=1.00D-06.
 No special actions if energy rises.
 An orbital has undefined symmetry, so N**3 symmetry is turned off.
 SCF Done:  E(RHF) =  -7237.22533421     A.U. after    1 cycles
            NFock=  1  Conv=0.16D-09     -V/T= 2.0001
 Range of M.O.s used for correlation:     1    36
 NBasis=    36 NAE=    33 NBE=    33 NFC=     0 NFV=     0
 NROrb=     36 NOA=    33 NOB=    33 NVA=     3 NVB=     3
          Differentiating once with respect to electric field.
                with respect to dipole field.
          Electric field/nuclear overlap derivatives assumed to be zero.
 Keep R1 ints in memory in symmetry-blocked form, NReq=1059648.
          There are     3 degrees of freedom in the 1st order CPHF.  IDoFFX=0 NUNeed=     3.
      3 vectors produced by pass  0 Test12= 3.30D-15 3.33D-08 XBig12= 5.70D+01 6.05D+00.
 AX will form     3 AO Fock derivatives at one time.
      3 vectors produced by pass  1 Test12= 3.30D-15 3.33D-08 XBig12= 4.13D-01 4.99D-01.
      3 vectors produced by pass  2 Test12= 3.30D-15 3.33D-08 XBig12= 4.08D-03 5.40D-02.
      3 vectors produced by pass  3 Test12= 3.30D-15 3.33D-08 XBig12= 2.53D-04 1.10D-02.
      3 vectors produced by pass  4 Test12= 3.30D-15 3.33D-08 XBig12= 2.82D-07 2.19D-04.
      3 vectors produced by pass  5 Test12= 3.30D-15 3.33D-08 XBig12= 2.57D-09 4.03D-05.
      3 vectors produced by pass  6 Test12= 3.30D-15 3.33D-08 XBig12= 1.87D-11 1.89D-06.
      2 vectors produced by pass  7 Test12= 3.30D-15 3.33D-08 XBig12= 5.27D-14 1.61D-07.
 InvSVY:  IOpt=1 It=  1 EMax= 8.88D-16
 Solved reduced A of dimension    23 with     3 vectors.
 End of Minotr F.D. properties file   721 does not exist.
 End of Minotr F.D. properties file   722 does not exist.
 End of Minotr F.D. properties file   788 does not exist.
 Symmetrizing basis deriv contribution to polar:
 IMax=3 JMax=2 DiffMx= 0.00D+00
 G2DrvN: will do     7 centers at a time, making    1 passes.
 PxScal for G2LodP:  IOpCl= 0 ISclPx=1 IMOff=     1 NMtTot=     4 NTT=     666 ScalPx= 5.11D+00
 Calling FoFCou, ICntrl=  3107 FMM=F I1Cent=   0 AccDes= 0.00D+00.
 End of G2Drv F.D. properties file   721 does not exist.
 End of G2Drv F.D. properties file   722 does not exist.
 End of G2Drv F.D. properties file   788 does not exist.
          IDoAtm=111111
          Differentiating once with respect to electric field.
                with respect to dipole field.
          Differentiating once with respect to nuclear coordinates.
 Keep R1 ints in memory in symmetry-blocked form, NReq=1059786.
          There are    12 degrees of freedom in the 1st order CPHF.  IDoFFX=4 NUNeed=    12.
 Will reuse    3 saved solutions.
      9 vectors produced by pass  0 Test12= 8.25D-16 8.33D-09 XBig12= 1.60D-02 7.47D-02.
 AX will form     9 AO Fock derivatives at one time.
      9 vectors produced by pass  1 Test12= 8.25D-16 8.33D-09 XBig12= 9.71D-04 1.79D-02.
      9 vectors produced by pass  2 Test12= 8.25D-16 8.33D-09 XBig12= 7.93D-06 1.16D-03.
      9 vectors produced by pass  3 Test12= 8.25D-16 8.33D-09 XBig12= 1.03D-08 4.60D-05.
      9 vectors produced by pass  4 Test12= 8.25D-16 8.33D-09 XBig12= 7.51D-11 3.71D-06.
      3 vectors produced by pass  5 Test12= 8.25D-16 8.33D-09 XBig12= 4.54D-14 1.28D-07.
 InvSVY:  IOpt=1 It=  1 EMax= 1.11D-15
 Solved reduced A of dimension    48 with     9 vectors.
 Isotropic polarizability for W=    0.000000       41.38 Bohr**3.
 End of Minotr F.D. properties file   721 does not exist.
 End of Minotr F.D. properties file   722 does not exist.
 End of Minotr F.D. properties file   788 does not exist.

 **********************************************************************

            Population analysis using the SCF Density.

 **********************************************************************

 Orbital symmetries:
       Occupied  (A1) (A1) (E) (E) (A1) (A1) (E) (E) (A1) (B2)
                 (B1) (E) (E) (A1) (A1) (A1) (E) (E) (A1) (B2)
                 (B1) (E) (E) (A1) (A1) (A1) (E) (E) (A1) (E) (E)
                 (B2) (A1)
       Virtual   (E) (E) (A1)
 The electronic state is 1-A1.
 Alpha  occ. eigenvalues -- **********-185.86112-176.96466-176.96466-176.96392
 Alpha  occ. eigenvalues --  -38.13564 -35.04772 -35.04772 -35.04466 -25.59795
 Alpha  occ. eigenvalues --  -25.59793 -25.59528 -25.59528 -25.59441 -20.13685
 Alpha  occ. eigenvalues --   -7.49885  -6.05648  -6.05648  -6.04777  -2.69967
 Alpha  occ. eigenvalues --   -2.69838  -2.69014  -2.69014  -2.68810  -1.10072
 Alpha  occ. eigenvalues --   -0.94494  -0.64034  -0.64034  -0.53521  -0.33136
 Alpha  occ. eigenvalues --   -0.33136  -0.23545  -0.09995
 Alpha virt. eigenvalues --    0.23553   0.23553   0.31807
          Condensed to atoms (all electrons):
               1          2          3          4          5          6
     1  Xe  52.569732   0.008910   0.008910   0.008910   0.008910   0.031641
     2  H    0.008910   1.268790   0.000533   0.003916   0.000533  -0.003285
     3  H    0.008910   0.000533   1.268790   0.000533   0.003916  -0.003285
     4  H    0.008910   0.003916   0.000533   1.268790   0.000533  -0.003285
     5  H    0.008910   0.000533   0.003916   0.000533   1.268790  -0.003285
     6  O    0.031641  -0.003285  -0.003285  -0.003285  -0.003285   8.226893
 Mulliken charges:
               1
     1  Xe   1.362985
     2  H   -0.279397
     3  H   -0.279397
     4  H   -0.279397
     5  H   -0.279397
     6  O   -0.245396
 Sum of Mulliken charges =   0.00000
 Mulliken charges with hydrogens summed into heavy atoms:
               1
     1  Xe   0.245396
     6  O   -0.245396
 APT charges:
               1
     1  Xe   2.290800
     2  H   -0.585073
     3  H   -0.585073
     4  H   -0.585073
     5  H   -0.585073
     6  O    0.049493
 Sum of APT charges =   0.00000
 APT charges with hydrogens summed into heavy atoms:
               1
     1  Xe  -0.049493
     6  O    0.049493
 Electronic spatial extent (au):  <R**2>=            262.7299
 Charge=             -0.0000 electrons
 Dipole moment (field-independent basis, Debye):
    X=              0.0000    Y=              0.0000    Z=              2.6496  Tot=              2.6496
 Quadrupole moment (field-independent basis, Debye-Ang):
   XX=            -40.2781   YY=            -40.2781   ZZ=            -36.0129
   XY=              0.0000   XZ=             -0.0000   YZ=             -0.0000
 Traceless Quadrupole moment (field-independent basis, Debye-Ang):
   XX=             -1.4217   YY=             -1.4217   ZZ=              2.8435
   XY=              0.0000   XZ=             -0.0000   YZ=             -0.0000
 Octapole moment (field-independent basis, Debye-Ang**2):
  XXX=             -0.0000  YYY=              0.0000  ZZZ=              6.9333  XYY=              0.0000
  XXY=              0.0000  XXZ=              0.2969  XZZ=             -0.0000  YZZ=             -0.0000
  YYZ=              0.2969  XYZ=              0.0000
 Hexadecapole moment (field-independent basis, Debye-Ang**3):
 XXXX=           -100.9468 YYYY=           -100.9468 ZZZZ=           -138.6312 XXXY=              0.0000
 XXXZ=             -0.0000 YYYX=             -0.0000 YYYZ=              0.0000 ZZZX=              0.0000
 ZZZY=              0.0000 XXYY=            -23.1978 XXZZ=            -37.0583 YYZZ=            -37.0583
 XXYZ=              0.0000 YYXZ=              0.0000 ZZXY=              0.0000
 N-N= 1.704852178907D+02 E-N=-1.752447299941D+04  KE= 7.236486370468D+03
 Symmetry A1   KE= 5.075080885692D+03
 Symmetry A2   KE= 1.929717322657D+02
 Symmetry B1   KE= 9.842168762555D+02
 Symmetry B2   KE= 9.842168762555D+02
  Exact polarizability:      54.018       0.000      54.018       0.000       0.000      16.092
 Approx polarizability:      86.431       0.000      86.431       0.000       0.000      13.724
 Calling FoFJK, ICntrl=    100127 FMM=F ISym2X=1 I1Cent= 0 IOpClX= 0 NMat=1 NMatS=1 NMatT=0.
 Full mass-weighted force constant matrix:
 Low frequencies ---   -6.4631   -2.1075   -2.1057   -0.0274    0.0111    0.0111
 Low frequencies ---  302.8521  332.4204  413.5763
 Diagonal vibrational polarizability:
       61.6023861      61.6023867      32.0952568
 Diagonal vibrational hyperpolarizability:
       -0.0000000       0.0000034     -57.6381548
 Harmonic frequencies (cm**-1), IR intensities (KM/Mole), Raman scattering
 activities (A**4/AMU), depolarization ratios for plane and unpolarized
 incident light, reduced masses (AMU), force constants (mDyne/A),
 and normal coordinates:
                           1         2         3         4         5
                          A1        B1         E         E         E
       Frequencies ---   302.8521  332.4204  413.5763  413.5763  485.8658
    Reduced masses ---    13.4369    1.0078    1.0595    1.0595    1.0440
   Force constants ---     0.7261    0.0656    0.1068    0.1068    0.1452
    IR Intensities ---    61.5858    0.0000   90.5471   90.5471  186.6112
  Raman Activities ---     8.2579   71.3619  114.3040  114.3040  111.4431
    Depol. (Plane) ---     0.0342    0.7500    0.7500    0.7500    0.7500
    Depol. (Unpol) ---     0.0662    0.8571    0.8571    0.8571    0.8571
 Coord Atom Element:
   1     1    54         -0.00000   0.00000  -0.00000  -0.00216  -0.00992
   2     1    54         -0.00000  -0.00000   0.00216  -0.00000  -0.00000
   3     1    54         -0.09788   0.00000  -0.00000  -0.00000   0.00000
   1     2     1          0.00000   0.50000  -0.00000  -0.41489   0.54422
   2     2     1         -0.10623   0.00000  -0.09261   0.00000  -0.00000
   3     2     1         -0.22341  -0.00000   0.56354  -0.00000  -0.00000
   1     3     1          0.10623  -0.00000   0.00000   0.09261  -0.20755
   2     3     1         -0.00000  -0.50000   0.41489  -0.00000   0.00000
   3     3     1         -0.22341  -0.00000   0.00000   0.56354   0.39991
   1     4     1          0.00000  -0.50000  -0.00000  -0.41489   0.54422
   2     4     1          0.10623  -0.00000  -0.09261   0.00000  -0.00000
   3     4     1         -0.22341   0.00000  -0.56354   0.00000   0.00000
   1     5     1         -0.10623  -0.00000   0.00000   0.09261  -0.20755
   2     5     1         -0.00000   0.50000   0.41489   0.00000   0.00000
   3     5     1         -0.22341   0.00000  -0.00000  -0.56354  -0.39991
   1     6     8         -0.00000  -0.00000   0.00000   0.05839   0.03939
   2     6     8          0.00000   0.00000  -0.05839   0.00000   0.00000
   3     6     8          0.86350  -0.00000   0.00000   0.00000  -0.00000
                           6         7         8         9        10
                           E        B2        A1        B2        A1
       Frequencies ---   485.8658 1074.9838 1164.8689 1726.3654 1788.4588
    Reduced masses ---     1.0440    1.0078    1.0517    1.0078    1.0103
   Force constants ---     0.1452    0.6862    0.8408    1.7697    1.9040
    IR Intensities ---   186.6112    0.0000  663.8949    0.0000  102.0673
  Raman Activities ---   111.4431    1.0656    2.6989 1183.6712 1122.0493
    Depol. (Plane) ---     0.7500    0.7500    0.0000    0.7500    0.1841
    Depol. (Unpol) ---     0.8571    0.8571    0.0000    0.8571    0.3109
 Coord Atom Element:
   1     1    54          0.00000   0.00000  -0.00000  -0.00000   0.00000
   2     1    54         -0.00992   0.00000  -0.00000   0.00000   0.00000
   3     1    54          0.00000   0.00000  -0.01734   0.00000  -0.00051
   1     2     1         -0.00000   0.00000  -0.00000  -0.00000   0.00000
   2     2     1         -0.20755   0.02846   0.03176   0.49919   0.49880
   3     2     1         -0.39991   0.49919   0.49884  -0.02846  -0.03409
   1     3     1          0.00000   0.02846  -0.03176   0.49919  -0.49880
   2     3     1          0.54422  -0.00000   0.00000  -0.00000  -0.00000
   3     3     1         -0.00000  -0.49919   0.49884   0.02846  -0.03409
   1     4     1         -0.00000  -0.00000  -0.00000   0.00000  -0.00000
   2     4     1         -0.20755  -0.02846  -0.03176  -0.49919  -0.49880
   3     4     1          0.39991   0.49919   0.49884  -0.02846  -0.03409
   1     5     1          0.00000  -0.02846   0.03176  -0.49919   0.49880
   2     5     1          0.54422  -0.00000   0.00000  -0.00000  -0.00000
   3     5     1          0.00000  -0.49919   0.49884   0.02846  -0.03409
   1     6     8         -0.00000  -0.00000   0.00000  -0.00000   0.00000
   2     6     8          0.03939  -0.00000   0.00000   0.00000   0.00000
   3     6     8         -0.00000  -0.00000   0.01730  -0.00000   0.01277
                          11        12
                           E         E
       Frequencies ---  1817.8430 1817.8430
    Reduced masses ---     1.0321    1.0321
   Force constants ---     2.0095    2.0095
    IR Intensities ---  3202.8324 3202.8324
  Raman Activities ---    20.4899   20.4899
    Depol. (Plane) ---     0.7500    0.7500
    Depol. (Unpol) ---     0.8571    0.8571
 Coord Atom Element:
   1     1    54          0.00000  -0.01362
   2     1    54         -0.01362  -0.00000
   3     1    54         -0.00000   0.00000
   1     2     1         -0.00000   0.21063
   2     2     1          0.67374   0.00000
   3     2     1         -0.04021  -0.00000
   1     3     1         -0.00000   0.67374
   2     3     1          0.21063   0.00000
   3     3     1         -0.00000   0.04021
   1     4     1         -0.00000   0.21063
   2     4     1          0.67374   0.00000
   3     4     1          0.04021   0.00000
   1     5     1         -0.00000   0.67374
   2     5     1          0.21063   0.00000
   3     5     1          0.00000  -0.04021
   1     6     8         -0.00000   0.00088
   2     6     8          0.00088   0.00000
   3     6     8          0.00000   0.00000
 Harmonic frequencies (cm**-1), IR intensities (KM/Mole), Raman scattering
 activities (A**4/AMU), depolarization ratios for plane and unpolarized
 incident light, reduced masses (AMU), force constants (mDyne/A),
 and normal coordinates:
                      1                      2                      3
                     A1                     B1                      E
 Frequencies --    302.8521               332.4204               413.5763
 Red. masses --     13.4369                 1.0078                 1.0595
 Frc consts  --      0.7261                 0.0656                 0.1068
 IR Inten    --     61.5858                 0.0000                90.5471
 Raman Activ --      8.2579                71.3619               114.3040
 Depolar (P) --      0.0342                 0.7500                 0.7500
 Depolar (U) --      0.0662                 0.8571                 0.8571
  Atom  AN      X      Y      Z        X      Y      Z        X      Y      Z
     1  54    -0.00  -0.00  -0.10     0.00  -0.00   0.00    -0.00   0.00  -0.00
     2   1     0.00  -0.11  -0.22     0.50   0.00  -0.00    -0.00  -0.09   0.56
     3   1     0.11  -0.00  -0.22    -0.00  -0.50  -0.00     0.00   0.41   0.00
     4   1     0.00   0.11  -0.22    -0.50  -0.00   0.00    -0.00  -0.09  -0.56
     5   1    -0.11  -0.00  -0.22    -0.00   0.50   0.00     0.00   0.41  -0.00
     6   8    -0.00   0.00   0.86    -0.00   0.00  -0.00     0.00  -0.06   0.00
                      4                      5                      6
                      E                      E                      E
 Frequencies --    413.5763               485.8658               485.8658
 Red. masses --      1.0595                 1.0440                 1.0440
 Frc consts  --      0.1068                 0.1452                 0.1452
 IR Inten    --     90.5471               186.6112               186.6112
 Raman Activ --    114.3040               111.4431               111.4431
 Depolar (P) --      0.7500                 0.7500                 0.7500
 Depolar (U) --      0.8571                 0.8571                 0.8571
  Atom  AN      X      Y      Z        X      Y      Z        X      Y      Z
     1  54    -0.00  -0.00  -0.00    -0.01  -0.00   0.00     0.00  -0.01   0.00
     2   1    -0.41   0.00  -0.00     0.54  -0.00  -0.00    -0.00  -0.21  -0.40
     3   1     0.09  -0.00   0.56    -0.21   0.00   0.40     0.00   0.54  -0.00
     4   1    -0.41   0.00   0.00     0.54  -0.00   0.00    -0.00  -0.21   0.40
     5   1     0.09   0.00  -0.56    -0.21   0.00  -0.40     0.00   0.54   0.00
     6   8     0.06   0.00   0.00     0.04   0.00  -0.00    -0.00   0.04  -0.00
                      7                      8                      9
                     B2                     A1                     B2
 Frequencies --   1074.9838              1164.8689              1726.3654
 Red. masses --      1.0078                 1.0517                 1.0078
 Frc consts  --      0.6862                 0.8408                 1.7697
 IR Inten    --      0.0000               663.8949                 0.0000
 Raman Activ --      1.0656                 2.6989              1183.6712
 Depolar (P) --      0.7500                 0.0000                 0.7500
 Depolar (U) --      0.8571                 0.0000                 0.8571
  Atom  AN      X      Y      Z        X      Y      Z        X      Y      Z
     1  54     0.00   0.00   0.00    -0.00  -0.00  -0.02    -0.00   0.00   0.00
     2   1     0.00   0.03   0.50    -0.00   0.03   0.50    -0.00   0.50  -0.03
     3   1     0.03  -0.00  -0.50    -0.03   0.00   0.50     0.50  -0.00   0.03
     4   1    -0.00  -0.03   0.50    -0.00  -0.03   0.50     0.00  -0.50  -0.03
     5   1    -0.03  -0.00  -0.50     0.03   0.00   0.50    -0.50  -0.00   0.03
     6   8    -0.00  -0.00  -0.00     0.00   0.00   0.02    -0.00   0.00  -0.00
                     10                     11                     12
                     A1                      E                      E
 Frequencies --   1788.4588              1817.8430              1817.8430
 Red. masses --      1.0103                 1.0321                 1.0321
 Frc consts  --      1.9040                 2.0095                 2.0095
 IR Inten    --    102.0673              3202.8324              3202.8324
 Raman Activ --   1122.0493                20.4899                20.4899
 Depolar (P) --      0.1841                 0.7500                 0.7500
 Depolar (U) --      0.3109                 0.8571                 0.8571
  Atom  AN      X      Y      Z        X      Y      Z        X      Y      Z
     1  54     0.00   0.00  -0.00     0.00  -0.01  -0.00    -0.01  -0.00   0.00
     2   1     0.00   0.50  -0.03    -0.00   0.67  -0.04     0.21   0.00  -0.00
     3   1    -0.50  -0.00  -0.03    -0.00   0.21  -0.00     0.67   0.00   0.04
     4   1    -0.00  -0.50  -0.03    -0.00   0.67   0.04     0.21   0.00   0.00
     5   1     0.50  -0.00  -0.03    -0.00   0.21   0.00     0.67   0.00  -0.04
     6   8     0.00   0.00   0.01    -0.00   0.00   0.00     0.00   0.00   0.00

 -------------------
 - Thermochemistry -
 -------------------
 Temperature   298.150 Kelvin.  Pressure   1.00000 Atm.
 Atom     1 has atomic number 54 and mass 131.90420
 Atom     2 has atomic number  1 and mass   1.00783
 Atom     3 has atomic number  1 and mass   1.00783
 Atom     4 has atomic number  1 and mass   1.00783
 Atom     5 has atomic number  1 and mass   1.00783
 Atom     6 has atomic number  8 and mass  15.99491
 Molecular mass:   151.93041 amu.
 Principal axes and moments of inertia in atomic units:
                           1         2         3
     Eigenvalues --    47.98742 286.00268 286.00268
           X            0.00000   0.00000   1.00000
           Y            0.00000   1.00000  -0.00000
           Z            1.00000  -0.00000   0.00000
 This molecule is a prolate symmetric top.
 Rotational symmetry number  4.
 Rotational temperatures (Kelvin)      1.80493     0.30284     0.30284
 Rotational constants (GHZ):          37.60863     6.31022     6.31022
 Zero-point vibrational energy      70726.3 (Joules/Mol)
                                   16.90400 (Kcal/Mol)
 Warning -- explicit consideration of   6 degrees of freedom as
           vibrations may cause significant error
 Vibrational temperatures:    435.74   478.28   595.04   595.04   699.05
          (Kelvin)            699.05  1546.66  1675.99  2483.85  2573.19
                             2615.47  2615.47
 
 Zero-point correction=                           0.026938 (Hartree/Particle)
 Thermal correction to Energy=                    0.031684
 Thermal correction to Enthalpy=                  0.032628
 Thermal correction to Gibbs Free Energy=         0.000748
 Sum of electronic and zero-point Energies=          -7237.198396
 Sum of electronic and thermal Energies=             -7237.193651
 Sum of electronic and thermal Enthalpies=           -7237.192706
 Sum of electronic and thermal Free Energies=        -7237.224586
 
                     E (Thermal)             CV                S
                      KCal/Mol        Cal/Mol-Kelvin    Cal/Mol-Kelvin
 Total                   19.882             15.323             67.096
 Electronic               0.000              0.000              0.000
 Translational            0.889              2.981             40.965
 Rotational               0.889              2.981             20.134
 Vibrational             18.104              9.361              5.997
 Vibration     1          0.694              1.668              1.401
 Vibration     2          0.714              1.611              1.248
 Vibration     3          0.777              1.441              0.914
 Vibration     4          0.777              1.441              0.914
 Vibration     5          0.842              1.281              0.694
 Vibration     6          0.842              1.281              0.694
                       Q            Log10(Q)             Ln(Q)
 Total Bot       0.452627D+00         -0.344259         -0.792687
 Total V=0       0.111291D+13         12.046459         27.737996
 Vib (Bot)       0.109673D-11        -11.959900        -27.538687
 Vib (Bot)    1  0.626940D+00         -0.202774         -0.466904
 Vib (Bot)    2  0.561239D+00         -0.250852         -0.577609
 Vib (Bot)    3  0.426638D+00         -0.369940         -0.851819
 Vib (Bot)    4  0.426638D+00         -0.369941         -0.851820
 Vib (Bot)    5  0.342487D+00         -0.465356         -1.071521
 Vib (Bot)    6  0.342487D+00         -0.465356         -1.071521
 Vib (V=0)       0.269661D+01          0.430818          0.991996
 Vib (V=0)    1  0.130191D+01          0.114580          0.263830
 Vib (V=0)    2  0.125166D+01          0.097485          0.224469
 Vib (V=0)    3  0.115728D+01          0.063439          0.146074
 Vib (V=0)    4  0.115728D+01          0.063439          0.146074
 Vib (V=0)    5  0.110605D+01          0.043775          0.100796
 Vib (V=0)    6  0.110605D+01          0.043775          0.100796
 Electronic      0.100000D+01          0.000000          0.000000
 Translational   0.736073D+08          7.866921         18.114255
 Rotational      0.560686D+04          3.748719          8.631745
 ***** Axes restored to original set *****
 -------------------------------------------------------------------
 Center     Atomic                   Forces (Hartrees/Bohr)
 Number     Number              X              Y              Z
 -------------------------------------------------------------------
      1       54           0.000000000    0.000001138    0.000000000
      2        1           0.000005494   -0.000000900   -0.000000000
      3        1          -0.000000000   -0.000000900    0.000005494
      4        1          -0.000005494   -0.000000900   -0.000000000
      5        1           0.000000000   -0.000000900   -0.000005494
      6        8           0.000000000    0.000002463   -0.000000000
 -------------------------------------------------------------------
 Cartesian Forces:  Max     0.000005494 RMS     0.000002701
 FormGI is forming the generalized inverse of G from B-inverse, IUseBI=4.

 GradGradGradGradGradGradGradGradGradGradGradGradGradGradGradGradGradGrad
 Berny optimization.
 Internal  Forces:  Max     0.000005458 RMS     0.000002621
 Search for a local minimum.
 Step number   1 out of a maximum of    2
 All quantities printed in internal units (Hartrees-Bohrs-Radians)
 Second derivative matrix not updated -- analytic derivatives used.
 ITU=  0
     Eigenvalues ---    0.00628   0.01444   0.01444   0.04636   0.07981
     Eigenvalues ---    0.07981   0.11350   0.12976   0.13521   0.13522
     Eigenvalues ---    0.17531   0.20057
 Angle between quadratic step and forces=  29.62 degrees.
 Linear search not attempted -- first point.
 Iteration  1 RMS(Cart)=  0.00003677 RMS(Int)=  0.00000000
 Iteration  2 RMS(Cart)=  0.00000000 RMS(Int)=  0.00000000
 ClnCor:  largest displacement from symmetrization is 1.06D-09 for atom     5.
 Variable       Old X    -DE/DX   Delta X   Delta X   Delta X     New X
                                 (Linear)    (Quad)   (Total)
    R1        3.45237   0.00001   0.00000   0.00006   0.00006   3.45242
    R2        3.45237   0.00001   0.00000   0.00006   0.00006   3.45242
    R3        3.45237   0.00001   0.00000   0.00006   0.00006   3.45242
    R4        3.45237   0.00001   0.00000   0.00006   0.00006   3.45242
    R5        4.28198   0.00000   0.00000   0.00010   0.00010   4.28208
    A1        1.56953   0.00000   0.00000   0.00000   0.00000   1.56953
    A2        1.56953   0.00000   0.00000   0.00000   0.00000   1.56953
    A3        1.53516   0.00000   0.00000   0.00001   0.00001   1.53517
    A4        1.56953   0.00000   0.00000   0.00000   0.00000   1.56953
    A5        1.53516   0.00000   0.00000   0.00001   0.00001   1.53517
    A6        1.56953   0.00000   0.00000   0.00000   0.00000   1.56953
    A7        1.53516   0.00000   0.00000   0.00001   0.00001   1.53517
    A8        1.53516   0.00000   0.00000   0.00001   0.00001   1.53517
    A9        3.13905   0.00000   0.00000   0.00000   0.00000   3.13905
   A10        3.13905   0.00000   0.00000   0.00000   0.00000   3.13905
   A11        3.07036   0.00000   0.00000   0.00002   0.00002   3.07038
   A12        3.21283  -0.00000   0.00000  -0.00002  -0.00002   3.21281
    D1       -1.57080   0.00000   0.00000   0.00000   0.00000  -1.57080
    D2        1.57080  -0.00000   0.00000  -0.00000   0.00000   1.57080
    D3       -1.57080   0.00000   0.00000  -0.00000   0.00000  -1.57080
    D4       -1.57080  -0.00000   0.00000  -0.00000   0.00000  -1.57080
         Item               Value     Threshold  Converged?
 Maximum Force            0.000005     0.000450     YES
 RMS     Force            0.000003     0.000300     YES
 Maximum Displacement     0.000109     0.001800     YES
 RMS     Displacement     0.000037     0.001200     YES
 Predicted change in Energy=-8.189573D-10
 Optimization completed.
    -- Stationary point found.
                           ----------------------------
                           !   Optimized Parameters   !
                           ! (Angstroms and Degrees)  !
 --------------------------                            --------------------------
 ! Name  Definition              Value          Derivative Info.                !
 --------------------------------------------------------------------------------
 ! R1    R(1,2)                  1.8269         -DE/DX =    0.0                 !
 ! R2    R(1,3)                  1.8269         -DE/DX =    0.0                 !
 ! R3    R(1,4)                  1.8269         -DE/DX =    0.0                 !
 ! R4    R(1,5)                  1.8269         -DE/DX =    0.0                 !
 ! R5    R(1,6)                  2.2659         -DE/DX =    0.0                 !
 ! A1    A(2,1,3)               89.9273         -DE/DX =    0.0                 !
 ! A2    A(2,1,5)               89.9273         -DE/DX =    0.0                 !
 ! A3    A(2,1,6)               87.958          -DE/DX =    0.0                 !
 ! A4    A(3,1,4)               89.9273         -DE/DX =    0.0                 !
 ! A5    A(3,1,6)               87.958          -DE/DX =    0.0                 !
 ! A6    A(4,1,5)               89.9273         -DE/DX =    0.0                 !
 ! A7    A(4,1,6)               87.958          -DE/DX =    0.0                 !
 ! A8    A(5,1,6)               87.958          -DE/DX =    0.0                 !
 ! A9    L(2,1,4,3,-1)         179.8545         -DE/DX =    0.0                 !
 ! A10   L(3,1,5,2,-1)         179.8545         -DE/DX =    0.0                 !
 ! A11   L(2,1,4,3,-2)         175.9185         -DE/DX =    0.0                 !
 ! A12   L(3,1,5,2,-2)         184.0815         -DE/DX =    0.0                 !
 ! D1    D(2,1,6,3)            -90.0            -DE/DX =    0.0                 !
 ! D2    D(2,1,6,5)             90.0            -DE/DX =    0.0                 !
 ! D3    D(3,1,6,4)            -90.0            -DE/DX =    0.0                 !
 ! D4    D(4,1,6,5)            -90.0            -DE/DX =    0.0                 !
 --------------------------------------------------------------------------------
 GradGradGradGradGradGradGradGradGradGradGradGradGradGradGradGradGradGrad


 ----------------------------------------------------------------------

 Electric dipole moment (input orientation):
 (Debye = 10**-18 statcoulomb cm , SI units = C m)
                  (au)            (Debye)         (10**-30 SI)
   Tot        0.104243D+01      0.264959D+01      0.883809D+01
   x          0.000000D+00      0.000000D+00      0.000000D+00
   y         -0.104243D+01     -0.264959D+01     -0.883809D+01
   z          0.000000D+00      0.000000D+00      0.000000D+00

 Dipole polarizability, Alpha (input orientation).
 (esu units = cm**3 , SI units = C**2 m**2 J**-1)
 Alpha(0;0):
               (au)            (10**-24 esu)      (10**-40 SI)
   iso        0.413757D+02      0.613124D+01      0.682193D+01
   aniso      0.379257D+02      0.562000D+01      0.625310D+01
   xx         0.540176D+02      0.800458D+01      0.890629D+01
   yx         0.000000D+00      0.000000D+00      0.000000D+00
   yy         0.160919D+02      0.238457D+01      0.265320D+01
   zx         0.000000D+00      0.000000D+00      0.000000D+00
   zy         0.000000D+00      0.000000D+00      0.000000D+00
   zz         0.540176D+02      0.800458D+01      0.890629D+01

 First dipole hyperpolarizability, Beta (input orientation).
 ||, _|_  parallel and perpendicular components, (z) with respect to z axis,
 vector components x,y,z.  Values do not include the 1/n! factor of 1/2.
 (esu units = statvolt**-1 cm**4 , SI units = C**3 m**3 J**-2)
 Beta(0;0,0):
               (au)            (10**-30 esu)      (10**-50 SI)
   || (z)     0.000000D+00      0.000000D+00      0.000000D+00
   _|_(z)     0.000000D+00      0.000000D+00      0.000000D+00
   x          0.000000D+00      0.000000D+00      0.000000D+00
   y          0.349778D+03      0.302181D+01      0.112151D+01
   z          0.000000D+00      0.000000D+00      0.000000D+00
   ||         0.699556D+02      0.604362D+00      0.224303D+00
   xxx        0.000000D+00      0.000000D+00      0.000000D+00
   xxy       -0.387356D+02     -0.334645D+00     -0.124200D+00
   yxy        0.000000D+00      0.000000D+00      0.000000D+00
   yyy        0.194064D+03      0.167656D+01      0.622239D+00
   xxz        0.000000D+00      0.000000D+00      0.000000D+00
   yxz        0.000000D+00      0.000000D+00      0.000000D+00
   yyz        0.000000D+00      0.000000D+00      0.000000D+00
   zxz        0.000000D+00      0.000000D+00      0.000000D+00
   zyz       -0.387356D+02     -0.334645D+00     -0.124200D+00
   zzz        0.000000D+00      0.000000D+00      0.000000D+00

 ----------------------------------------------------------------------

 Dipole orientation:
    54          0.76212864         -3.35034660          1.96737446
     1          4.21230368         -3.35034660          1.84435699
     1          0.76212864          0.09982844          1.84435699
     1         -2.68804640         -3.35034660          1.84435699
     1          0.76212864         -6.80052164          1.84435699
     8          0.76212864         -3.35034660         -2.31460064

 Electric dipole moment (dipole orientation):
 (Debye = 10**-18 statcoulomb cm , SI units = C m)
                  (au)            (Debye)         (10**-30 SI)
   Tot        0.104243D+01      0.264959D+01      0.883809D+01
   x          0.000000D+00      0.000000D+00      0.000000D+00
   y          0.000000D+00      0.000000D+00      0.000000D+00
   z          0.104243D+01      0.264959D+01      0.883809D+01

 Dipole polarizability, Alpha (dipole orientation).
 (esu units = cm**3 , SI units = C**2 m**2 J**-1)
 Alpha(0;0):
               (au)            (10**-24 esu)      (10**-40 SI)
   iso        0.413757D+02      0.613124D+01      0.682193D+01
   aniso      0.379257D+02      0.562000D+01      0.625310D+01
   xx         0.540176D+02      0.800458D+01      0.890629D+01
   yx         0.000000D+00      0.000000D+00      0.000000D+00
   yy         0.540176D+02      0.800458D+01      0.890629D+01
   zx         0.000000D+00      0.000000D+00      0.000000D+00
   zy         0.000000D+00      0.000000D+00      0.000000D+00
   zz         0.160919D+02      0.238457D+01      0.265320D+01

 First dipole hyperpolarizability, Beta (dipole orientation).
 ||, _|_  parallel and perpendicular components, (z) with respect to z axis,
 vector components x,y,z.  Values do not include the 1/n! factor of 1/2.
 (esu units = statvolt**-1 cm**4 , SI units = C**3 m**3 J**-2)
 Beta(0;0,0):
               (au)            (10**-30 esu)      (10**-50 SI)
   || (z)    -0.699556D+02     -0.604362D+00     -0.224303D+00
   _|_(z)    -0.233185D+02     -0.201454D+00     -0.747676D-01
   x          0.000000D+00      0.000000D+00      0.000000D+00
   y          0.000000D+00      0.000000D+00      0.000000D+00
   z         -0.349778D+03     -0.302181D+01     -0.112151D+01
   ||         0.699556D+02      0.604362D+00      0.224303D+00
   xxx        0.000000D+00      0.000000D+00      0.000000D+00
   xxy        0.000000D+00      0.000000D+00      0.000000D+00
   yxy        0.000000D+00      0.000000D+00      0.000000D+00
   yyy        0.000000D+00      0.000000D+00      0.000000D+00
   xxz        0.387356D+02      0.334645D+00      0.124200D+00
   yxz        0.000000D+00      0.000000D+00      0.000000D+00
   yyz        0.387356D+02      0.334645D+00      0.124200D+00
   zxz        0.000000D+00      0.000000D+00      0.000000D+00
   zyz        0.000000D+00      0.000000D+00      0.000000D+00
   zzz       -0.194064D+03     -0.167656D+01     -0.622239D+00

 ----------------------------------------------------------------------
 Unable to Open any file for archive entry.
 1\1\GINC-BS001\Freq\RHF\STO-3G\H4O1Xe1\PNATT\10-Aug-2026\0\\#N Geom=Al
 lCheck Guess=TCheck SCRF=Check GenChk RHF/STO-3G Freq\\Title Card Requ
 ired\\0,1\Xe,0.40330111,-1.0410897306,-1.77292707\H,2.2290551154,-0.97
 599169,-1.77292707\H,0.40330111,-0.97599169,0.0528269354\H,-1.42245289
 54,-0.97599169,-1.77292707\H,0.40330111,-0.97599169,-3.5986810754\O,0.
 40330111,1.2248339122,-1.77292707\\Version=ES64L-G16RevC.01\State=1-A1
 \HF=-7237.2253342\RMSD=1.613e-10\RMSF=2.701e-06\ZeroPoint=0.0269382\Th
 ermal=0.0316836\ETot=-7237.1936506\HTot=-7237.1927065\GTot=-7237.22458
 58\Dipole=0.,-1.0424306,0.\DipoleDeriv=2.9476351,0.,0.,0.,0.9771302,0.
 ,0.,0.,2.9476351,-1.3274278,0.1949224,0.,-0.0552116,-0.4089343,0.,0.,0
 .,-0.0188579,-0.0188579,0.,0.,0.,-0.4089343,-0.0552116,0.,0.1949224,-1
 .3274278,-1.3274278,-0.1949224,0.,0.0552116,-0.4089343,0.,0.,0.,-0.018
 8579,-0.0188579,0.,0.,0.,-0.4089343,0.0552116,0.,-0.1949224,-1.3274278
 ,-0.2550637,0.,0.,0.,0.6586069,0.,0.,0.,-0.2550637\Polar=54.0175597,0.
 ,16.0918993,0.,0.,54.0175597\PolarDeriv=0.,1.3430151,0.,0.,0.,0.,-2.94
 76241,0.,-0.9404693,0.,0.,-2.9476241,0.,0.,0.,-0.0000003,1.3430151,0.,
 25.1981783,-3.2419795,-1.9099022,0.,0.,-1.7192588,0.6201961,8.1624,-0.
 6117893,0.,0.,-0.105737,0.,0.,0.,3.3043336,0.3387863,0.,0.,0.3387863,0
 .,3.3043336,0.,0.,-0.105737,0.,-0.6117893,0.,8.1624,0.6201961,-1.71925
 88,0.,-1.9099022,0.,-3.2419795,25.1981783,-25.1981783,-3.2419795,1.909
 9022,0.,0.,1.7192588,0.6201961,-8.1624,-0.6117893,0.,0.,-0.105737,0.,0
 .,0.,-3.3043336,0.3387863,0.,0.,0.3387863,0.,-3.3043336,0.,0.,-0.10573
 7,0.,-0.6117893,0.,-8.1624,0.6201961,1.7192588,0.,1.9099022,0.,-3.2419
 795,-25.1981783,0.,4.4633712,0.,0.,0.,0.,1.9187059,0.,3.3876265,0.,0.,
 1.9187059,0.,0.,0.,0.0000004,4.4633712,0.\HyperPolar=0.,-38.7355703,0.
 ,194.0637883,0.,0.,0.,0.,-38.7355703,0.\Quadrupole=-1.0570212,2.114042
 3,-1.0570212,0.,0.,0.\PG=C04V [C4(O1Xe1),2SGV(H2)]\NImag=0\\0.40627607
 ,0.,0.29913211,0.,0.,0.40627609,-0.14563582,0.00724281,0.,0.11498173,-
 0.01432385,-0.05513095,0.,0.00520297,0.02713005,0.,0.,-0.05162795,0.,0
 .,0.01015570,-0.05162795,0.,0.,0.01624448,0.00148325,0.00105404,0.0101
 5570,0.,-0.05513095,-0.01432385,0.00028841,0.00142075,0.00148325,0.,0.
 02713005,0.,0.00724281,-0.14563582,0.00196917,0.00028841,0.01624448,0.
 ,0.00520297,0.11498173,-0.14563581,-0.00724281,0.,-0.00240008,0.000670
 77,0.,0.01624448,-0.00028841,-0.00196917,0.11498173,0.01432385,-0.0551
 3095,0.,-0.00067077,0.02001079,0.,-0.00148325,0.00142075,0.00028841,-0
 .00520297,0.02713005,0.,0.,-0.05162795,0.,0.,0.00804922,-0.00105404,0.
 00148325,0.01624448,0.,0.,0.01015570,-0.05162795,0.,0.,0.01624448,0.00
 148325,-0.00105404,0.00804922,0.,0.,0.01624448,-0.00148325,0.00105404,
 0.01015570,0.,-0.05513095,0.01432385,0.00028841,0.00142075,-0.00148325
 ,0.,0.02001079,-0.00067077,-0.00028841,0.00142075,-0.00148325,0.,0.027
 13005,0.,-0.00724281,-0.14563582,-0.00196917,-0.00028841,0.01624448,0.
 ,0.00067077,-0.00240008,0.00196917,-0.00028841,0.01624448,0.,-0.005202
 97,0.11498173,-0.01174854,-0.00000001,0.,0.00056519,0.00548361,0.,0.00
 093406,0.,0.,0.00056518,-0.00548361,0.,0.00093406,0.,0.,0.00875005,-0.
 00000001,-0.07860833,0.,-0.01235183,0.00514861,0.,0.,0.00514861,-0.012
 35183,0.01235183,0.00514861,0.,0.,0.00514861,0.01235183,0.00000001,0.0
 5801390,0.,0.,-0.01174855,0.,0.,0.00093406,0.,0.00548361,0.00056519,0.
 ,0.,0.00093406,0.,-0.00548361,0.00056519,0.,0.,0.00875005\\0.,-0.00000
 114,0.,-0.00000549,0.00000090,0.,0.,0.00000090,-0.00000549,0.00000549,
 0.00000090,0.,0.,0.00000090,0.00000549,0.,-0.00000246,0.\\\@
 The archive entry for this job was punched.


 THE PROMISED LAND ALWAYS LIES ON THE OTHER SIDE OF A WILDERNESS.

                         -- HAVELOCK ELLIS
 Job cpu time:       0 days  0 hours  0 minutes  2.5 seconds.
 Elapsed time:       0 days  0 hours  0 minutes  2.3 seconds.
 File lengths (MBytes):  RWF=      6 Int=      0 D2E=      0 Chk=      1 Scr=      1
 Normal termination of Gaussian 16 at Mon Aug 10 17:01:31 2026.
