 Entering Gaussian System, Link 0=g16
 Input=XeF2Cl2.com
 Output=XeF2Cl2.log
 Initial command:
 /opt/g16/g16/l1.exe "/home/pnatt/scratch/Gau-3469455.inp" -scrdir="/home/pnatt/scratch/"
 Entering Link 1 = /opt/g16/g16/l1.exe PID=   3469459.
  
 Copyright (c) 1988-2019, Gaussian, Inc.  All Rights Reserved.
  
 This is part of the Gaussian(R) 16 program.  It is based on
 the Gaussian(R) 09 system (copyright 2009, Gaussian, Inc.),
 the Gaussian(R) 03 system (copyright 2003, Gaussian, Inc.),
 the Gaussian(R) 98 system (copyright 1998, Gaussian, Inc.),
 the Gaussian(R) 94 system (copyright 1995, Gaussian, Inc.),
 the Gaussian 92(TM) system (copyright 1992, Gaussian, Inc.),
 the Gaussian 90(TM) system (copyright 1990, Gaussian, Inc.),
 the Gaussian 88(TM) system (copyright 1988, Gaussian, Inc.),
 the Gaussian 86(TM) system (copyright 1986, Carnegie Mellon
 University), and the Gaussian 82(TM) system (copyright 1983,
 Carnegie Mellon University). Gaussian is a federally registered
 trademark of Gaussian, Inc.
  
 This software contains proprietary and confidential information,
 including trade secrets, belonging to Gaussian, Inc.
  
 This software is provided under written license and may be
 used, copied, transmitted, or stored only in accord with that
 written license.
  
 The following legend is applicable only to US Government
 contracts under FAR:
  
                    RESTRICTED RIGHTS LEGEND
  
 Use, reproduction and disclosure by the US Government is
 subject to restrictions as set forth in subparagraphs (a)
 and (c) of the Commercial Computer Software - Restricted
 Rights clause in FAR 52.227-19.
  
 Gaussian, Inc.
 340 Quinnipiac St., Bldg. 40, Wallingford CT 06492
  
  
 ---------------------------------------------------------------
 Warning -- This program may not be used in any manner that
 competes with the business of Gaussian, Inc. or will provide
 assistance to any competitor of Gaussian, Inc.  The licensee
 of this program is prohibited from giving any competitor of
 Gaussian, Inc. access to this program.  By using this program,
 the user acknowledges that Gaussian, Inc. is engaged in the
 business of creating and licensing software in the field of
 computational chemistry and represents and warrants to the
 licensee that it is not a competitor of Gaussian, Inc. and that
 it will not use this program in any manner prohibited above.
 ---------------------------------------------------------------
  

 Cite this work as:
 Gaussian 16, Revision C.01,
 M. J. Frisch, G. W. Trucks, H. B. Schlegel, G. E. Scuseria, 
 M. A. Robb, J. R. Cheeseman, G. Scalmani, V. Barone, 
 G. A. Petersson, H. Nakatsuji, X. Li, M. Caricato, A. V. Marenich, 
 J. Bloino, B. G. Janesko, R. Gomperts, B. Mennucci, H. P. Hratchian, 
 J. V. Ortiz, A. F. Izmaylov, J. L. Sonnenberg, D. Williams-Young, 
 F. Ding, F. Lipparini, F. Egidi, J. Goings, B. Peng, A. Petrone, 
 T. Henderson, D. Ranasinghe, V. G. Zakrzewski, J. Gao, N. Rega, 
 G. Zheng, W. Liang, M. Hada, M. Ehara, K. Toyota, R. Fukuda, 
 J. Hasegawa, M. Ishida, T. Nakajima, Y. Honda, O. Kitao, H. Nakai, 
 T. Vreven, K. Throssell, J. A. Montgomery, Jr., J. E. Peralta, 
 F. Ogliaro, M. J. Bearpark, J. J. Heyd, E. N. Brothers, K. N. Kudin, 
 V. N. Staroverov, T. A. Keith, R. Kobayashi, J. Normand, 
 K. Raghavachari, A. P. Rendell, J. C. Burant, S. S. Iyengar, 
 J. Tomasi, M. Cossi, J. M. Millam, M. Klene, C. Adamo, R. Cammi, 
 J. W. Ochterski, R. L. Martin, K. Morokuma, O. Farkas, 
 J. B. Foresman, and D. J. Fox, Gaussian, Inc., Wallingford CT, 2019.
 
 ******************************************
 Gaussian 16:  ES64L-G16RevC.01  3-Jul-2019
                 7-Aug-2026 
 ******************************************
 %mem=8GB
 %nprocshared=8
 Will use up to    8 processors via shared memory.
 %chk=XeF2Cl2.chk
 -----------------------------------------------
 # opt freq=hpmodes mp2/3-21g* geom=connectivity
 -----------------------------------------------
 1/18=20,19=15,38=1,57=2/1,3;
 2/9=110,12=2,17=6,18=5,40=1/2;
 3/5=5,7=1,11=9,25=1,30=1,71=1/1,2,3;
 4//1;
 5/5=2,38=5/2;
 8/6=4,10=1/1;
 9/15=2,16=-3/6;
 10/5=1/2;
 6/7=2,8=2,9=2,10=2/1;
 7/12=2/1,2,3,16;
 1/18=20,19=15/3(2);
 2/9=110/2;
 99//99;
 2/9=110/2;
 3/5=5,7=1,11=9,25=1,30=1,71=1/1,2,3;
 4/5=5,16=3,69=1/1;
 5/5=2,38=5/2;
 8/6=4,10=1/1;
 9/15=2,16=-3/6;
 10/5=1/2;
 7/12=2/1,2,3,16;
 1/18=20,19=15/3(-8);
 2/9=110/2;
 6/7=2,8=2,9=2,10=2/1;
 99/9=10/99;
 ------------------------------------------------------
 trans-XeF2Cl2 - size1_D2h (hypothetical test compound)
 ------------------------------------------------------
 Symbolic Z-matrix:
 Charge =  0 Multiplicity = 1
 Xe                    0.        0.        0. 
 F                     1.9       0.        0. 
 F                    -1.9       0.        0. 
 Cl                    0.        2.3       0. 
 Cl                    0.       -2.3       0. 
 

 GradGradGradGradGradGradGradGradGradGradGradGradGradGradGradGradGradGrad
 Berny optimization.
 Initialization pass.
                           ----------------------------
                           !    Initial Parameters    !
                           ! (Angstroms and Degrees)  !
 --------------------------                            --------------------------
 ! Name  Definition              Value          Derivative Info.                !
 --------------------------------------------------------------------------------
 ! R1    R(1,2)                  1.9            estimate D2E/DX2                !
 ! R2    R(1,3)                  1.9            estimate D2E/DX2                !
 ! R3    R(1,4)                  2.3            estimate D2E/DX2                !
 ! R4    R(1,5)                  2.3            estimate D2E/DX2                !
 ! A1    A(2,1,4)               90.0            estimate D2E/DX2                !
 ! A2    A(2,1,5)               90.0            estimate D2E/DX2                !
 ! A3    A(3,1,4)               90.0            estimate D2E/DX2                !
 ! A4    A(3,1,5)               90.0            estimate D2E/DX2                !
 ! A5    L(2,1,3,5,-1)         180.0            estimate D2E/DX2                !
 ! A6    L(4,1,5,3,-1)         180.0            estimate D2E/DX2                !
 ! A7    L(2,1,3,5,-2)         180.0            estimate D2E/DX2                !
 ! A8    L(4,1,5,3,-2)         180.0            estimate D2E/DX2                !
 ! D1    D(1,2,4,3)              0.0            estimate D2E/DX2                !
 ! D2    D(1,2,5,3)              0.0            estimate D2E/DX2                !
 ! D3    D(1,2,5,4)              0.0            estimate D2E/DX2                !
 --------------------------------------------------------------------------------
 Trust Radius=3.00D-01 FncErr=1.00D-07 GrdErr=1.00D-07 EigMax=2.50D+02 EigMin=1.00D-04
 Number of steps in this run=     25 maximum allowed number of steps=    100.
 GradGradGradGradGradGradGradGradGradGradGradGradGradGradGradGradGradGrad

                          Input orientation:                          
 ---------------------------------------------------------------------
 Center     Atomic      Atomic             Coordinates (Angstroms)
 Number     Number       Type             X           Y           Z
 ---------------------------------------------------------------------
      1         54           0        0.000000    0.000000    0.000000
      2          9           0        1.900000    0.000000    0.000000
      3          9           0       -1.900000    0.000000    0.000000
      4         17           0        0.000000    2.300000    0.000000
      5         17           0        0.000000   -2.300000    0.000000
 ---------------------------------------------------------------------
                    Distance matrix (angstroms):
                    1          2          3          4          5
     1  Xe   0.000000
     2  F    1.900000   0.000000
     3  F    1.900000   3.800000   0.000000
     4  Cl   2.300000   2.983287   2.983287   0.000000
     5  Cl   2.300000   2.983287   2.983287   4.600000   0.000000
 Stoichiometry    Cl2F2Xe
 Framework group  D2H[O(Xe),C2'(F.F),C2"(Cl.Cl)]
 Deg. of freedom     2
 Full point group                 D2H     NOp   8
 Largest Abelian subgroup         D2H     NOp   8
 Largest concise Abelian subgroup D2      NOp   4
                         Standard orientation:                         
 ---------------------------------------------------------------------
 Center     Atomic      Atomic             Coordinates (Angstroms)
 Number     Number       Type             X           Y           Z
 ---------------------------------------------------------------------
      1         54           0        0.000000    0.000000    0.000000
      2          9           0        0.000000    1.900000    0.000000
      3          9           0       -0.000000   -1.900000    0.000000
      4         17           0       -0.000000   -0.000000    2.300000
      5         17           0        0.000000   -0.000000   -2.300000
 ---------------------------------------------------------------------
 Rotational constants (GHZ):           3.6843671           1.3659983           0.9965297
 Standard basis: 3-21G* (6D, 7F)
 There are    30 symmetry adapted cartesian basis functions of AG  symmetry.
 There are     6 symmetry adapted cartesian basis functions of B1G symmetry.
 There are     7 symmetry adapted cartesian basis functions of B2G symmetry.
 There are     9 symmetry adapted cartesian basis functions of B3G symmetry.
 There are     1 symmetry adapted cartesian basis functions of AU  symmetry.
 There are    17 symmetry adapted cartesian basis functions of B1U symmetry.
 There are    14 symmetry adapted cartesian basis functions of B2U symmetry.
 There are    11 symmetry adapted cartesian basis functions of B3U symmetry.
 There are    30 symmetry adapted basis functions of AG  symmetry.
 There are     6 symmetry adapted basis functions of B1G symmetry.
 There are     7 symmetry adapted basis functions of B2G symmetry.
 There are     9 symmetry adapted basis functions of B3G symmetry.
 There are     1 symmetry adapted basis functions of AU  symmetry.
 There are    17 symmetry adapted basis functions of B1U symmetry.
 There are    14 symmetry adapted basis functions of B2U symmetry.
 There are    11 symmetry adapted basis functions of B3U symmetry.
    95 basis functions,   189 primitive gaussians,    95 cartesian basis functions
    53 alpha electrons       53 beta electrons
       nuclear repulsion energy       846.2202742829 Hartrees.
 NAtoms=    5 NActive=    5 NUniq=    3 SFac= 2.78D+00 NAtFMM=   60 NAOKFM=F Big=F
 Integral buffers will be    131072 words long.
 Raffenetti 1 integral format.
 Two-electron integral symmetry is turned on.
 One-electron integrals computed using PRISM.
 NBasis=    95 RedAO= T EigKep=  1.17D-03  NBF=    30     6     7     9     1    17    14    11
 NBsUse=    95 1.00D-06 EigRej= -1.00D+00 NBFU=    30     6     7     9     1    17    14    11
 ExpMin= 1.33D-01 ExpMax= 1.49D+04 ExpMxC= 1.49D+04 IAcc=3 IRadAn=         5 AccDes= 0.00D+00
 Harris functional with IExCor=  205 and IRadAn=       5 diagonalized for initial guess.
 HarFok:  IExCor=  205 AccDes= 0.00D+00 IRadAn=         5 IDoV= 1 UseB2=F ITyADJ=14
 ICtDFT=  3500011 ScaDFX=  1.000000  1.000000  1.000000  1.000000
 Defaulting to unpruned grid for atomic number  54.
 FoFCou: FMM=F IPFlag=           0 FMFlag=      100000 FMFlg1=           0
         NFxFlg=           0 DoJE=T BraDBF=F KetDBF=T FulRan=T
         wScrn=  0.000000 ICntrl=       500 IOpCl=  0 I1Cent=   200000004 NGrid=           0
         NMat0=    1 NMatS0=      1 NMatT0=    0 NMatD0=    1 NMtDS0=    0 NMtDT0=    0
 Petite list used in FoFCou.
 Initial guess orbital symmetries:
       Occupied  (AG) (AG) (B1U) (B2U) (B3U) (B1U) (AG) (AG) (B2U)
                 (B1U) (B3U) (AG) (B2U) (AG) (AG) (B3G) (B1G) (B2G)
                 (B1U) (AG) (AG) (B1U) (B2U) (B3U) (B3G) (B2G)
                 (AG) (B2U) (B1U) (B3U) (AG) (B3G) (B1G) (AG) (B2G)
                 (AG) (B2U) (AG) (B1U) (AG) (B2U) (B1U) (B3U) (B3G)
                 (B1G) (AG) (B1U) (B3U) (B2G) (B2U) (B3G) (AG)
                 (B3U)
       Virtual   (B2U) (B1U) (AG) (B2G) (B3G) (B1G) (AG) (B1U)
                 (B2U) (B3U) (AG) (B3G) (B2G) (AG) (B1U) (B3U)
                 (B2U) (AG) (B1U) (B1U) (AU) (B1G) (AG) (B3U) (B2U)
                 (B2G) (B3G) (B1U) (AG) (AG) (B3U) (B1G) (B3G)
                 (B1U) (B2U) (AG) (B2U) (AG) (AG) (B1U) (AG) (AG)
 The electronic state of the initial guess is 1-AG.
 Keep R1 ints in memory in symmetry-blocked form, NReq=12085889.
 Requested convergence on RMS density matrix=1.00D-08 within 128 cycles.
 Requested convergence on MAX density matrix=1.00D-06.
 Requested convergence on             energy=1.00D-06.
 No special actions if energy rises.
 SCF Done:  E(RHF) =  -8313.08288182     A.U. after   12 cycles
            NFock= 12  Conv=0.22D-08     -V/T= 2.0035
 ExpMin= 1.33D-01 ExpMax= 1.49D+04 ExpMxC= 1.49D+04 IAcc=3 IRadAn=         5 AccDes= 0.00D+00
 HarFok:  IExCor=  205 AccDes= 0.00D+00 IRadAn=         5 IDoV=-2 UseB2=F ITyADJ=14
 ICtDFT= 12500011 ScaDFX=  1.000000  1.000000  1.000000  1.000000
 Defaulting to unpruned grid for atomic number  54.
 GSVD:  LWork=       -1140 too small for GESVD, short by        4950 words or        4950 for optimal perf.
 Range of M.O.s used for correlation:    31    95
 NBasis=    95 NAE=    53 NBE=    53 NFC=    30 NFV=     0
 NROrb=     65 NOA=    23 NOB=    23 NVA=    42 NVB=    42

 **** Warning!!: The largest alpha MO coefficient is  0.20578582D+02

 Fully direct method using O(ONN) memory.
 JobTyp=1 Pass  1:  I=  31 to  53 NPSUse=  8 ParTrn=T ParDer=T DoDerP=T.
 Spin components of T(2) and E(2):
     alpha-alpha T2 =       0.3001548147D-01 E2=     -0.9137231391D-01
     alpha-beta  T2 =       0.1621364898D+00 E2=     -0.4787077900D+00
     beta-beta   T2 =       0.3001548147D-01 E2=     -0.9137231391D-01
 ANorm=    0.1105516826D+01
 E2 =    -0.6614524178D+00 EUMP2 =    -0.83137443342375D+04
          IDoAtm=11111
          Differentiating once with respect to electric field.
                with respect to dipole field.
          Differentiating once with respect to nuclear coordinates.
 Keep R1 ints in memory in symmetry-blocked form, NReq=12087211.
          There are     1 degrees of freedom in the 1st order CPHF.  IDoFFX=0 NUNeed=     1.
 LinEq1:  Iter=  0 NonCon=     1 RMS=6.16D-03 Max=1.76D-01 NDo=     1
 AX will form     1 AO Fock derivatives at one time.
 LinEq1:  Iter=  1 NonCon=     1 RMS=1.40D-03 Max=2.71D-02 NDo=     1
 LinEq1:  Iter=  2 NonCon=     1 RMS=3.65D-04 Max=6.10D-03 NDo=     1
 LinEq1:  Iter=  3 NonCon=     1 RMS=1.00D-04 Max=1.91D-03 NDo=     1
 LinEq1:  Iter=  4 NonCon=     1 RMS=2.02D-05 Max=3.98D-04 NDo=     1
 LinEq1:  Iter=  5 NonCon=     1 RMS=3.38D-06 Max=4.23D-05 NDo=     1
 LinEq1:  Iter=  6 NonCon=     1 RMS=7.43D-07 Max=1.66D-05 NDo=     1
 LinEq1:  Iter=  7 NonCon=     1 RMS=2.11D-07 Max=3.40D-06 NDo=     1
 LinEq1:  Iter=  8 NonCon=     1 RMS=4.38D-08 Max=8.07D-07 NDo=     1
 LinEq1:  Iter=  9 NonCon=     1 RMS=6.13D-09 Max=7.61D-08 NDo=     1
 LinEq1:  Iter= 10 NonCon=     1 RMS=6.35D-10 Max=8.71D-09 NDo=     1
 LinEq1:  Iter= 11 NonCon=     1 RMS=7.71D-11 Max=1.39D-09 NDo=     1
 LinEq1:  Iter= 12 NonCon=     0 RMS=9.34D-12 Max=1.52D-10 NDo=     1
 Linear equations converged to 1.000D-10 1.000D-09 after    12 iterations.
 End of Minotr F.D. properties file   721 does not exist.
 End of Minotr F.D. properties file   722 does not exist.
 End of Minotr F.D. properties file   788 does not exist.

 **********************************************************************

            Population analysis using the SCF Density.

 **********************************************************************

 Orbital symmetries:
       Occupied  (AG) (AG) (B2U) (B1U) (B3U) (B1U) (AG) (AG) (B2U)
                 (B1U) (B3U) (AG) (B3G) (B1G) (B2G) (AG) (AG) (B2U)
                 (B1U) (AG) (AG) (AG) (B1U) (B2U) (B3G) (B3U) (B2G)
                 (B1U) (B2U) (B3U) (AG) (B3G) (B1G) (B2G) (AG)
                 (AG) (B2U) (AG) (B1U) (AG) (B2U) (B1U) (B3U) (B3G)
                 (B1G) (B1U) (AG) (B3U) (B2G) (B2U) (B3G) (B3U)
                 (AG)
       Virtual   (B1U) (B2U) (AG) (B2G) (B3G) (B1G) (AG) (B3U)
                 (B2U) (B1U) (AG) (AG) (B2G) (B3G) (B1U) (B3U)
                 (B2U) (B1U) (AG) (AU) (B1U) (B1G) (AG) (B3U) (B2U)
                 (B2G) (B3G) (B1U) (AG) (AG) (B3U) (B1G) (B3G)
                 (B1U) (B2U) (AG) (B2U) (AG) (AG) (B1U) (AG) (AG)
 The electronic state is 1-AG.
 Alpha  occ. eigenvalues -- **********-188.75483-176.70058-176.70022-176.69756
 Alpha  occ. eigenvalues -- -104.25029-104.25018 -40.34950 -35.08777 -35.08675
 Alpha  occ. eigenvalues --  -35.07745 -26.30316 -26.30103 -26.29214 -26.29081
 Alpha  occ. eigenvalues --  -26.28934 -26.16921 -26.16889 -10.55765 -10.55765
 Alpha  occ. eigenvalues --   -8.12599  -8.02287  -8.02274  -8.01920  -8.01915
 Alpha  occ. eigenvalues --   -8.01909  -8.01903  -6.17144  -6.17114  -6.14784
 Alpha  occ. eigenvalues --   -3.07590  -3.07049  -3.04598  -3.04515  -3.03973
 Alpha  occ. eigenvalues --   -1.59757  -1.58798  -1.20707  -1.14222  -1.01166
 Alpha  occ. eigenvalues --   -0.76962  -0.73017  -0.71978  -0.66642  -0.66234
 Alpha  occ. eigenvalues --   -0.60554  -0.58662  -0.57059  -0.51219  -0.49979
 Alpha  occ. eigenvalues --   -0.49621  -0.45646  -0.41464
 Alpha virt. eigenvalues --    0.00487   0.06253   0.26261   0.35387   0.40757
 Alpha virt. eigenvalues --    0.42906   0.53041   0.54499   0.58693   0.60215
 Alpha virt. eigenvalues --    0.65320   0.76259   0.78630   0.78805   0.79698
 Alpha virt. eigenvalues --    0.80757   0.81289   0.88503   0.92107   1.11162
 Alpha virt. eigenvalues --    1.11165   1.11415   1.11812   1.12187   1.16165
 Alpha virt. eigenvalues --    1.17820   1.18164   1.35752   1.40881   1.66908
 Alpha virt. eigenvalues --    2.23859   2.28869   2.30284   2.31557   2.39360
 Alpha virt. eigenvalues --    2.45410   3.74797   4.03399   4.34260   4.36900
 Alpha virt. eigenvalues --    7.89002 234.00565
          Condensed to atoms (all electrons):
               1          2          3          4          5
     1  Xe  52.185963   0.153213   0.153213   0.004581   0.004581
     2  F    0.153213   9.288618   0.000010  -0.003413  -0.003413
     3  F    0.153213   0.000010   9.288618  -0.003413  -0.003413
     4  Cl   0.004581  -0.003413  -0.003413  17.312506   0.003947
     5  Cl   0.004581  -0.003413  -0.003413   0.003947  17.312506
 Mulliken charges:
               1
     1  Xe   1.498448
     2  F   -0.435016
     3  F   -0.435016
     4  Cl  -0.314209
     5  Cl  -0.314209
 Sum of Mulliken charges =  -0.00000
 Mulliken charges with hydrogens summed into heavy atoms:
               1
     1  Xe   1.498448
     2  F   -0.435016
     3  F   -0.435016
     4  Cl  -0.314209
     5  Cl  -0.314209
 Electronic spatial extent (au):  <R**2>=           1025.4173
 Charge=             -0.0000 electrons
 Dipole moment (field-independent basis, Debye):
    X=              0.0000    Y=              0.0000    Z=             -0.0000  Tot=              0.0000
 Quadrupole moment (field-independent basis, Debye-Ang):
   XX=            -60.8425   YY=            -71.7928   ZZ=            -70.5694
   XY=             -0.0000   XZ=              0.0000   YZ=              0.0000
 Traceless Quadrupole moment (field-independent basis, Debye-Ang):
   XX=              6.8924   YY=             -4.0579   ZZ=             -2.8345
   XY=             -0.0000   XZ=              0.0000   YZ=              0.0000
 Octapole moment (field-independent basis, Debye-Ang**2):
  XXX=             -0.0000  YYY=              0.0000  ZZZ=             -0.0000  XYY=             -0.0000
  XXY=             -0.0000  XXZ=              0.0000  XZZ=             -0.0000  YZZ=             -0.0000
  YYZ=             -0.0000  XYZ=             -0.0000
 Hexadecapole moment (field-independent basis, Debye-Ang**3):
 XXXX=            -59.8069 YYYY=           -305.6665 ZZZZ=           -897.5576 XXXY=             -0.0000
 XXXZ=              0.0000 YYYX=             -0.0000 YYYZ=             -0.0000 ZZZX=              0.0000
 ZZZY=              0.0000 XXYY=            -52.7600 XXZZ=           -161.4544 YYZZ=           -193.5024
 XXYZ=             -0.0000 YYXZ=              0.0000 ZZXY=             -0.0000
 N-N= 8.462202742829D+02 E-N=-2.140323724603D+04  KE= 8.284248549524D+03
 Symmetry AG   KE= 4.488686418515D+03
 Symmetry B1G  KE= 2.091191517022D+02
 Symmetry B2G  KE= 2.481198066028D+02
 Symmetry B3G  KE= 2.543629824866D+02
 Symmetry AU   KE= 7.660302039299D-36
 Symmetry B1U  KE= 1.212127552248D+03
 Symmetry B2U  KE= 9.731723034869D+02
 Symmetry B3U  KE= 8.986603344831D+02
 Calling FoFJK, ICntrl=  10002127 FMM=F ISym2X=1 I1Cent= 0 IOpClX= 0 NMat=1 NMatS=1 NMatT=0.
 ***** Axes restored to original set *****
 -------------------------------------------------------------------
 Center     Atomic                   Forces (Hartrees/Bohr)
 Number     Number              X              Y              Z
 -------------------------------------------------------------------
      1       54           0.000000000   -0.000000000   -0.000000000
      2        9           0.044747015    0.000000000    0.000000000
      3        9          -0.044747015   -0.000000000    0.000000000
      4       17           0.000000000    0.061793208   -0.000000000
      5       17          -0.000000000   -0.061793208   -0.000000000
 -------------------------------------------------------------------
 Cartesian Forces:  Max     0.061793208 RMS     0.027858442

 GradGradGradGradGradGradGradGradGradGradGradGradGradGradGradGradGradGrad
 Berny optimization.
 FormGI is forming the generalized inverse of G from B-inverse, IUseBI=4.
 Internal  Forces:  Max     0.061793208 RMS     0.027858442
 Search for a local minimum.
 Step number   1 out of a maximum of   25
 All quantities printed in internal units (Hartrees-Bohrs-Radians)
 Mixed Optimization -- RFO/linear search
 Second derivative matrix not updated -- first step.
 The second derivative matrix:
                          R1        R2        R3        R4        A1
           R1           0.23912
           R2           0.00000   0.23912
           R3           0.00000   0.00000   0.15637
           R4           0.00000   0.00000   0.00000   0.15637
           A1           0.00000   0.00000   0.00000   0.00000   0.25000
           A2           0.00000   0.00000   0.00000   0.00000   0.00000
           A3           0.00000   0.00000   0.00000   0.00000   0.00000
           A4           0.00000   0.00000   0.00000   0.00000   0.00000
           A5           0.00000   0.00000   0.00000   0.00000   0.00000
           A6           0.00000   0.00000   0.00000   0.00000   0.00000
           A7           0.00000   0.00000   0.00000   0.00000   0.00000
           A8           0.00000   0.00000   0.00000   0.00000   0.00000
           D1           0.00000   0.00000   0.00000   0.00000   0.00000
           D2           0.00000   0.00000   0.00000   0.00000   0.00000
           D3           0.00000   0.00000   0.00000   0.00000   0.00000
                          A2        A3        A4        A5        A6
           A2           0.25000
           A3           0.00000   0.25000
           A4           0.00000   0.00000   0.25000
           A5           0.00000   0.00000   0.00000   0.00230
           A6           0.00000   0.00000   0.00000   0.00000   0.00230
           A7           0.00000   0.00000   0.00000   0.00000   0.00000
           A8           0.00000   0.00000   0.00000   0.00000   0.00000
           D1           0.00000   0.00000   0.00000   0.00000   0.00000
           D2           0.00000   0.00000   0.00000   0.00000   0.00000
           D3           0.00000   0.00000   0.00000   0.00000   0.00000
                          A7        A8        D1        D2        D3
           A7           0.00230
           A8           0.00000   0.00230
           D1           0.00000   0.00000   0.00230
           D2           0.00000   0.00000   0.00000   0.00230
           D3           0.00000   0.00000   0.00000   0.00000   0.00230
 ITU=  0
     Eigenvalues ---    0.00230   0.00230   0.12615   0.12615   0.15637
     Eigenvalues ---    0.15637   0.23912   0.23912   0.25000
 RFO step:  Lambda=-5.06982828D-02 EMin= 2.30000000D-03
 Linear search not attempted -- first point.
 Maximum step size (   0.300) exceeded in Quadratic search.
    -- Step size scaled by   0.631
 Iteration  1 RMS(Cart)=  0.07745967 RMS(Int)=  0.00000000
 Iteration  2 RMS(Cart)=  0.00000000 RMS(Int)=  0.00000000
 ClnCor:  largest displacement from symmetrization is 1.37D-12 for atom     3.
 Variable       Old X    -DE/DX   Delta X   Delta X   Delta X     New X
                                 (Linear)    (Quad)   (Total)
    R1        3.59048   0.04475   0.00000   0.09748   0.09748   3.68796
    R2        3.59048   0.04475   0.00000   0.09748   0.09748   3.68796
    R3        4.34637   0.06179   0.00000   0.18841   0.18841   4.53478
    R4        4.34637   0.06179   0.00000   0.18841   0.18841   4.53478
    A1        1.57080  -0.00000   0.00000  -0.00000   0.00000   1.57080
    A2        1.57080  -0.00000   0.00000  -0.00000   0.00000   1.57080
    A3        1.57080   0.00000   0.00000   0.00000   0.00000   1.57080
    A4        1.57080   0.00000   0.00000   0.00000   0.00000   1.57080
    A5        3.14159  -0.00000   0.00000  -0.00000   0.00000   3.14159
    A6        3.14159   0.00000   0.00000   0.00000   0.00000   3.14159
    A7        3.14159  -0.00000   0.00000  -0.00000   0.00000   3.14159
    A8        3.14159  -0.00000   0.00000  -0.00000   0.00000   3.14159
    D1       -0.00000   0.00000   0.00000   0.00000   0.00000   0.00000
    D2        0.00000  -0.00000   0.00000  -0.00000   0.00000   0.00000
    D3       -0.00000   0.00000   0.00000   0.00000   0.00000   0.00000
         Item               Value     Threshold  Converged?
 Maximum Force            0.061793     0.000450     NO 
 RMS     Force            0.027858     0.000300     NO 
 Maximum Displacement     0.188409     0.001800     NO 
 RMS     Displacement     0.077460     0.001200     NO 
 Predicted change in Energy=-2.418561D-02
 GradGradGradGradGradGradGradGradGradGradGradGradGradGradGradGradGradGrad

                          Input orientation:                          
 ---------------------------------------------------------------------
 Center     Atomic      Atomic             Coordinates (Angstroms)
 Number     Number       Type             X           Y           Z
 ---------------------------------------------------------------------
      1         54           0        0.000000    0.000000    0.000000
      2          9           0        1.951584   -0.000000    0.000000
      3          9           0       -1.951584    0.000000   -0.000000
      4         17           0        0.000000    2.399702   -0.000000
      5         17           0       -0.000000   -2.399702    0.000000
 ---------------------------------------------------------------------
                    Distance matrix (angstroms):
                    1          2          3          4          5
     1  Xe   0.000000
     2  F    1.951584   0.000000
     3  F    1.951584   3.903167   0.000000
     4  Cl   2.399702   3.093097   3.093097   0.000000
     5  Cl   2.399702   3.093097   3.093097   4.799403   0.000000
 Stoichiometry    Cl2F2Xe
 Framework group  D2H[O(Xe),C2'(F.F),C2"(Cl.Cl)]
 Deg. of freedom     2
 Full point group                 D2H     NOp   8
 Largest Abelian subgroup         D2H     NOp   8
 Largest concise Abelian subgroup D2      NOp   4
                         Standard orientation:                         
 ---------------------------------------------------------------------
 Center     Atomic      Atomic             Coordinates (Angstroms)
 Number     Number       Type             X           Y           Z
 ---------------------------------------------------------------------
      1         54           0        0.000000    0.000000    0.000000
      2          9           0        0.000000    1.951584    0.000000
      3          9           0       -0.000000   -1.951584    0.000000
      4         17           0       -0.000000   -0.000000    2.399702
      5         17           0        0.000000   -0.000000   -2.399702
 ---------------------------------------------------------------------
 Rotational constants (GHZ):           3.4921731           1.2548486           0.9231364
 Standard basis: 3-21G* (6D, 7F)
 There are    30 symmetry adapted cartesian basis functions of AG  symmetry.
 There are     6 symmetry adapted cartesian basis functions of B1G symmetry.
 There are     7 symmetry adapted cartesian basis functions of B2G symmetry.
 There are     9 symmetry adapted cartesian basis functions of B3G symmetry.
 There are     1 symmetry adapted cartesian basis functions of AU  symmetry.
 There are    17 symmetry adapted cartesian basis functions of B1U symmetry.
 There are    14 symmetry adapted cartesian basis functions of B2U symmetry.
 There are    11 symmetry adapted cartesian basis functions of B3U symmetry.
 There are    30 symmetry adapted basis functions of AG  symmetry.
 There are     6 symmetry adapted basis functions of B1G symmetry.
 There are     7 symmetry adapted basis functions of B2G symmetry.
 There are     9 symmetry adapted basis functions of B3G symmetry.
 There are     1 symmetry adapted basis functions of AU  symmetry.
 There are    17 symmetry adapted basis functions of B1U symmetry.
 There are    14 symmetry adapted basis functions of B2U symmetry.
 There are    11 symmetry adapted basis functions of B3U symmetry.
    95 basis functions,   189 primitive gaussians,    95 cartesian basis functions
    53 alpha electrons       53 beta electrons
       nuclear repulsion energy       815.9808574397 Hartrees.
 NAtoms=    5 NActive=    5 NUniq=    3 SFac= 2.78D+00 NAtFMM=   60 NAOKFM=F Big=F
 Integral buffers will be    131072 words long.
 Raffenetti 1 integral format.
 Two-electron integral symmetry is turned on.
 One-electron integrals computed using PRISM.
 NBasis=    95 RedAO= T EigKep=  1.17D-03  NBF=    30     6     7     9     1    17    14    11
 NBsUse=    95 1.00D-06 EigRej= -1.00D+00 NBFU=    30     6     7     9     1    17    14    11
 Initial guess from the checkpoint file:  "XeF2Cl2.chk"
 B after Tr=     0.000000    0.000000    0.000000
         Rot=    1.000000   -0.000000   -0.000000    0.000000 Ang=   0.00 deg.
 Initial guess orbital symmetries:
       Occupied  (AG) (AG) (B2U) (B1U) (B3U) (B1U) (AG) (AG) (B2U)
                 (B1U) (B3U) (AG) (B3G) (B1G) (B2G) (AG) (AG) (B2U)
                 (B1U) (AG) (AG) (AG) (B1U) (B2U) (B3G) (B3U) (B2G)
                 (B1U) (B2U) (B3U) (AG) (B3G) (B1G) (B2G) (AG)
                 (AG) (B2U) (AG) (B1U) (AG) (B2U) (B1U) (B3U) (B3G)
                 (B1G) (B1U) (AG) (B3U) (B2G) (B2U) (B3G) (B3U)
                 (AG)
       Virtual   (B1U) (B2U) (AG) (B2G) (B3G) (B1G) (AG) (B3U)
                 (B2U) (B1U) (AG) (AG) (B2G) (B3G) (B1U) (B3U)
                 (B2U) (B1U) (AG) (AU) (B1U) (B1G) (AG) (B3U) (B2U)
                 (B2G) (B3G) (B1U) (AG) (AG) (B3U) (B1G) (B3G)
                 (B1U) (B2U) (AG) (B2U) (AG) (AG) (B1U) (AG) (AG)
 ExpMin= 1.33D-01 ExpMax= 1.49D+04 ExpMxC= 1.49D+04 IAcc=3 IRadAn=         5 AccDes= 0.00D+00
 Harris functional with IExCor=  205 and IRadAn=       5 diagonalized for initial guess.
 HarFok:  IExCor=  205 AccDes= 0.00D+00 IRadAn=         5 IDoV= 1 UseB2=F ITyADJ=14
 ICtDFT=  3500011 ScaDFX=  1.000000  1.000000  1.000000  1.000000
 Defaulting to unpruned grid for atomic number  54.
 FoFCou: FMM=F IPFlag=           0 FMFlag=      100000 FMFlg1=           0
         NFxFlg=           0 DoJE=T BraDBF=F KetDBF=T FulRan=T
         wScrn=  0.000000 ICntrl=       500 IOpCl=  0 I1Cent=   200000004 NGrid=           0
         NMat0=    1 NMatS0=      1 NMatT0=    0 NMatD0=    1 NMtDS0=    0 NMtDT0=    0
 Petite list used in FoFCou.
 Keep R1 ints in memory in symmetry-blocked form, NReq=12085573.
 Requested convergence on RMS density matrix=1.00D-08 within 128 cycles.
 Requested convergence on MAX density matrix=1.00D-06.
 Requested convergence on             energy=1.00D-06.
 No special actions if energy rises.
 SCF Done:  E(RHF) =  -8313.09646821     A.U. after   11 cycles
            NFock= 11  Conv=0.59D-08     -V/T= 2.0036
 ExpMin= 1.33D-01 ExpMax= 1.49D+04 ExpMxC= 1.49D+04 IAcc=3 IRadAn=         5 AccDes= 0.00D+00
 HarFok:  IExCor=  205 AccDes= 0.00D+00 IRadAn=         5 IDoV=-2 UseB2=F ITyADJ=14
 ICtDFT= 12500011 ScaDFX=  1.000000  1.000000  1.000000  1.000000
 Defaulting to unpruned grid for atomic number  54.
 GSVD:  LWork=       -1140 too small for GESVD, short by        4950 words or        4950 for optimal perf.
 Range of M.O.s used for correlation:    31    95
 NBasis=    95 NAE=    53 NBE=    53 NFC=    30 NFV=     0
 NROrb=     65 NOA=    23 NOB=    23 NVA=    42 NVB=    42

 **** Warning!!: The largest alpha MO coefficient is  0.20578667D+02

 Fully direct method using O(ONN) memory.
 JobTyp=1 Pass  1:  I=  31 to  53 NPSUse=  8 ParTrn=T ParDer=T DoDerP=T.
 Spin components of T(2) and E(2):
     alpha-alpha T2 =       0.3068494336D-01 E2=     -0.9165896562D-01
     alpha-beta  T2 =       0.1729336591D+00 E2=     -0.4862150877D+00
     beta-beta   T2 =       0.3068494336D-01 E2=     -0.9165896562D-01
 ANorm=    0.1110992145D+01
 E2 =    -0.6695330190D+00 EUMP2 =    -0.83137660012272D+04
          IDoAtm=11111
          Differentiating once with respect to electric field.
                with respect to dipole field.
          Differentiating once with respect to nuclear coordinates.
 Keep R1 ints in memory in symmetry-blocked form, NReq=12086967.
          There are     1 degrees of freedom in the 1st order CPHF.  IDoFFX=0 NUNeed=     1.
 LinEq1:  Iter=  0 NonCon=     1 RMS=6.75D-03 Max=1.97D-01 NDo=     1
 AX will form     1 AO Fock derivatives at one time.
 LinEq1:  Iter=  1 NonCon=     1 RMS=1.57D-03 Max=3.12D-02 NDo=     1
 LinEq1:  Iter=  2 NonCon=     1 RMS=4.18D-04 Max=6.64D-03 NDo=     1
 LinEq1:  Iter=  3 NonCon=     1 RMS=1.13D-04 Max=2.13D-03 NDo=     1
 LinEq1:  Iter=  4 NonCon=     1 RMS=2.11D-05 Max=4.06D-04 NDo=     1
 LinEq1:  Iter=  5 NonCon=     1 RMS=3.38D-06 Max=4.69D-05 NDo=     1
 LinEq1:  Iter=  6 NonCon=     1 RMS=7.03D-07 Max=1.64D-05 NDo=     1
 LinEq1:  Iter=  7 NonCon=     1 RMS=1.97D-07 Max=3.20D-06 NDo=     1
 LinEq1:  Iter=  8 NonCon=     1 RMS=4.92D-08 Max=1.14D-06 NDo=     1
 LinEq1:  Iter=  9 NonCon=     1 RMS=7.74D-09 Max=9.32D-08 NDo=     1
 LinEq1:  Iter= 10 NonCon=     1 RMS=8.04D-10 Max=1.17D-08 NDo=     1
 LinEq1:  Iter= 11 NonCon=     1 RMS=8.21D-11 Max=1.37D-09 NDo=     1
 LinEq1:  Iter= 12 NonCon=     0 RMS=8.93D-12 Max=1.12D-10 NDo=     1
 Linear equations converged to 1.000D-10 1.000D-09 after    12 iterations.
 End of Minotr F.D. properties file   721 does not exist.
 End of Minotr F.D. properties file   722 does not exist.
 End of Minotr F.D. properties file   788 does not exist.
 Calling FoFJK, ICntrl=  10002127 FMM=F ISym2X=1 I1Cent= 0 IOpClX= 0 NMat=1 NMatS=1 NMatT=0.
 ***** Axes restored to original set *****
 -------------------------------------------------------------------
 Center     Atomic                   Forces (Hartrees/Bohr)
 Number     Number              X              Y              Z
 -------------------------------------------------------------------
      1       54           0.000000000    0.000000000   -0.000000000
      2        9           0.012471278   -0.000000000    0.000000000
      3        9          -0.012471278    0.000000000    0.000000000
      4       17          -0.000000000    0.027083409   -0.000000000
      5       17          -0.000000000   -0.027083409   -0.000000000
 -------------------------------------------------------------------
 Cartesian Forces:  Max     0.027083409 RMS     0.010887570

 GradGradGradGradGradGradGradGradGradGradGradGradGradGradGradGradGradGrad
 Berny optimization.
 Using GEDIIS/GDIIS optimizer.
 FormGI is forming the generalized inverse of G from B-inverse, IUseBI=4.
 Internal  Forces:  Max     0.027083409 RMS     0.010887570
 Search for a local minimum.
 Step number   2 out of a maximum of   25
 All quantities printed in internal units (Hartrees-Bohrs-Radians)
 Mixed Optimization -- RFO/linear search
 Update second derivatives using D2CorX and points    1    2
 DE= -2.17D-02 DEPred=-2.42D-02 R= 8.96D-01
 TightC=F SS=  1.41D+00  RLast= 3.00D-01 DXNew= 5.0454D-01 9.0000D-01
 Trust test= 8.96D-01 RLast= 3.00D-01 DXMaxT set to 5.05D-01
 The second derivative matrix:
                          R1        R2        R3        R4        A1
           R1           0.25817
           R2           0.01905   0.25817
           R3           0.01394   0.01394   0.16309
           R4           0.01394   0.01394   0.00672   0.16309
           A1           0.00000   0.00000   0.00000   0.00000   0.25000
           A2          -0.00000  -0.00000  -0.00000  -0.00000  -0.00000
           A3           0.00000   0.00000   0.00000   0.00000   0.00000
           A4          -0.00000  -0.00000  -0.00000  -0.00000  -0.00000
           A5          -0.00000  -0.00000  -0.00000  -0.00000  -0.00000
           A6          -0.00000  -0.00000  -0.00000  -0.00000  -0.00000
           A7          -0.00000  -0.00000  -0.00000  -0.00000  -0.00000
           A8          -0.00000  -0.00000  -0.00000  -0.00000  -0.00000
           D1           0.00000   0.00000   0.00000   0.00000   0.00000
           D2          -0.00000  -0.00000  -0.00000  -0.00000  -0.00000
           D3           0.00000   0.00000   0.00000   0.00000   0.00000
                          A2        A3        A4        A5        A6
           A2           0.25000
           A3          -0.00000   0.25000
           A4           0.00000  -0.00000   0.25000
           A5           0.00000  -0.00000   0.00000   0.00230
           A6           0.00000  -0.00000   0.00000   0.00000   0.00230
           A7           0.00000  -0.00000   0.00000   0.00000   0.00000
           A8           0.00000  -0.00000   0.00000   0.00000   0.00000
           D1          -0.00000   0.00000  -0.00000  -0.00000  -0.00000
           D2           0.00000  -0.00000   0.00000   0.00000   0.00000
           D3          -0.00000   0.00000  -0.00000  -0.00000  -0.00000
                          A7        A8        D1        D2        D3
           A7           0.00230
           A8           0.00000   0.00230
           D1          -0.00000  -0.00000   0.00230
           D2           0.00000   0.00000  -0.00000   0.00230
           D3          -0.00000  -0.00000   0.00000  -0.00000   0.00230
 ITU=  1  0
 Use linear search instead of GDIIS.
     Eigenvalues ---    0.00230   0.00230   0.12615   0.12615   0.15637
     Eigenvalues ---    0.16300   0.23912   0.25000   0.28402
 RFO step:  Lambda=-1.94786290D-03 EMin= 2.30000000D-03
 Quartic linear search produced a step of  1.03606.
 Iteration  1 RMS(Cart)=  0.07527824 RMS(Int)=  0.01547902
 Iteration  2 RMS(Cart)=  0.01547902 RMS(Int)=  0.00000000
 Iteration  3 RMS(Cart)=  0.00000000 RMS(Int)=  0.00000000
 ClnCor:  largest displacement from symmetrization is 4.08D-11 for atom     3.
 Variable       Old X    -DE/DX   Delta X   Delta X   Delta X     New X
                                 (Linear)    (Quad)   (Total)
    R1        3.68796   0.01247   0.10099  -0.05098   0.05001   3.73797
    R2        3.68796   0.01247   0.10099  -0.05098   0.05001   3.73797
    R3        4.53478   0.02708   0.19520   0.04719   0.24239   4.77717
    R4        4.53478   0.02708   0.19520   0.04719   0.24239   4.77717
    A1        1.57080  -0.00000   0.00000  -0.00000   0.00000   1.57080
    A2        1.57080   0.00000   0.00000   0.00000   0.00000   1.57080
    A3        1.57080  -0.00000   0.00000  -0.00000   0.00000   1.57080
    A4        1.57080   0.00000   0.00000   0.00000   0.00000   1.57080
    A5        3.14159   0.00000   0.00000   0.00000   0.00000   3.14159
    A6        3.14159   0.00000   0.00000   0.00000   0.00000   3.14159
    A7        3.14159  -0.00000   0.00000  -0.00000   0.00000   3.14159
    A8        3.14159  -0.00000   0.00000  -0.00000   0.00000   3.14159
    D1       -0.00000   0.00000   0.00000   0.00000   0.00000   0.00000
    D2        0.00000  -0.00000   0.00000  -0.00000   0.00000   0.00000
    D3       -0.00000   0.00000   0.00000   0.00000   0.00000   0.00000
         Item               Value     Threshold  Converged?
 Maximum Force            0.027083     0.000450     NO 
 RMS     Force            0.010888     0.000300     NO 
 Maximum Displacement     0.242391     0.001800     NO 
 RMS     Displacement     0.090373     0.001200     NO 
 Predicted change in Energy=-3.031243D-03
 GradGradGradGradGradGradGradGradGradGradGradGradGradGradGradGradGradGrad

                          Input orientation:                          
 ---------------------------------------------------------------------
 Center     Atomic      Atomic             Coordinates (Angstroms)
 Number     Number       Type             X           Y           Z
 ---------------------------------------------------------------------
      1         54           0        0.000000    0.000000    0.000000
      2          9           0        1.978048   -0.000000    0.000000
      3          9           0       -1.978048    0.000000   -0.000000
      4         17           0        0.000000    2.527969   -0.000000
      5         17           0       -0.000000   -2.527969    0.000000
 ---------------------------------------------------------------------
                    Distance matrix (angstroms):
                    1          2          3          4          5
     1  Xe   0.000000
     2  F    1.978048   0.000000
     3  F    1.978048   3.956097   0.000000
     4  Cl   2.527969   3.209876   3.209876   0.000000
     5  Cl   2.527969   3.209876   3.209876   5.055939   0.000000
 Stoichiometry    Cl2F2Xe
 Framework group  D2H[O(Xe),C2'(F.F),C2"(Cl.Cl)]
 Deg. of freedom     2
 Full point group                 D2H     NOp   8
 Largest Abelian subgroup         D2H     NOp   8
 Largest concise Abelian subgroup D2      NOp   4
                         Standard orientation:                         
 ---------------------------------------------------------------------
 Center     Atomic      Atomic             Coordinates (Angstroms)
 Number     Number       Type             X           Y           Z
 ---------------------------------------------------------------------
      1         54           0        0.000000    0.000000    0.000000
      2          9           0        0.000000    1.978048    0.000000
      3          9           0       -0.000000   -1.978048    0.000000
      4         17           0       -0.000000   -0.000000    2.527969
      5         17           0        0.000000   -0.000000   -2.527969
 ---------------------------------------------------------------------
 Rotational constants (GHZ):           3.3993534           1.1307385           0.8484993
 Standard basis: 3-21G* (6D, 7F)
 There are    30 symmetry adapted cartesian basis functions of AG  symmetry.
 There are     6 symmetry adapted cartesian basis functions of B1G symmetry.
 There are     7 symmetry adapted cartesian basis functions of B2G symmetry.
 There are     9 symmetry adapted cartesian basis functions of B3G symmetry.
 There are     1 symmetry adapted cartesian basis functions of AU  symmetry.
 There are    17 symmetry adapted cartesian basis functions of B1U symmetry.
 There are    14 symmetry adapted cartesian basis functions of B2U symmetry.
 There are    11 symmetry adapted cartesian basis functions of B3U symmetry.
 There are    30 symmetry adapted basis functions of AG  symmetry.
 There are     6 symmetry adapted basis functions of B1G symmetry.
 There are     7 symmetry adapted basis functions of B2G symmetry.
 There are     9 symmetry adapted basis functions of B3G symmetry.
 There are     1 symmetry adapted basis functions of AU  symmetry.
 There are    17 symmetry adapted basis functions of B1U symmetry.
 There are    14 symmetry adapted basis functions of B2U symmetry.
 There are    11 symmetry adapted basis functions of B3U symmetry.
    95 basis functions,   189 primitive gaussians,    95 cartesian basis functions
    53 alpha electrons       53 beta electrons
       nuclear repulsion energy       786.3387409223 Hartrees.
 NAtoms=    5 NActive=    5 NUniq=    3 SFac= 2.78D+00 NAtFMM=   60 NAOKFM=F Big=F
 Integral buffers will be    131072 words long.
 Raffenetti 1 integral format.
 Two-electron integral symmetry is turned on.
 One-electron integrals computed using PRISM.
 NBasis=    95 RedAO= T EigKep=  1.17D-03  NBF=    30     6     7     9     1    17    14    11
 NBsUse=    95 1.00D-06 EigRej= -1.00D+00 NBFU=    30     6     7     9     1    17    14    11
 Initial guess from the checkpoint file:  "XeF2Cl2.chk"
 B after Tr=     0.000000    0.000000    0.000000
         Rot=    1.000000    0.000000    0.000000    0.000000 Ang=   0.00 deg.
 Initial guess orbital symmetries:
       Occupied  (AG) (AG) (B2U) (B1U) (B3U) (B1U) (AG) (AG) (B2U)
                 (B1U) (B3U) (AG) (B3G) (B1G) (B2G) (AG) (AG) (B2U)
                 (B1U) (AG) (AG) (AG) (B1U) (B2U) (B3G) (B3U) (B2G)
                 (B2U) (B1U) (B3U) (AG) (B3G) (B1G) (B2G) (AG)
                 (AG) (B2U) (AG) (B1U) (AG) (B2U) (B1U) (B3U) (B3G)
                 (B1G) (B1U) (AG) (B3U) (B2G) (B2U) (B3G) (B3U)
                 (AG)
       Virtual   (B1U) (B2U) (AG) (B2G) (B3G) (B1G) (AG) (B3U)
                 (B2U) (B1U) (AG) (AG) (B2G) (B3G) (B3U) (B2U)
                 (B1U) (B1U) (AG) (AU) (B1U) (B1G) (AG) (B3U) (B2G)
                 (B2U) (B3G) (B1U) (AG) (AG) (B3U) (B1G) (B3G)
                 (B1U) (B2U) (AG) (B2U) (AG) (AG) (B1U) (AG) (AG)
 ExpMin= 1.33D-01 ExpMax= 1.49D+04 ExpMxC= 1.49D+04 IAcc=3 IRadAn=         5 AccDes= 0.00D+00
 Harris functional with IExCor=  205 and IRadAn=       5 diagonalized for initial guess.
 HarFok:  IExCor=  205 AccDes= 0.00D+00 IRadAn=         5 IDoV= 1 UseB2=F ITyADJ=14
 ICtDFT=  3500011 ScaDFX=  1.000000  1.000000  1.000000  1.000000
 Defaulting to unpruned grid for atomic number  54.
 FoFCou: FMM=F IPFlag=           0 FMFlag=      100000 FMFlg1=           0
         NFxFlg=           0 DoJE=T BraDBF=F KetDBF=T FulRan=T
         wScrn=  0.000000 ICntrl=       500 IOpCl=  0 I1Cent=   200000004 NGrid=           0
         NMat0=    1 NMatS0=      1 NMatT0=    0 NMatD0=    1 NMtDS0=    0 NMtDT0=    0
 Petite list used in FoFCou.
 Keep R1 ints in memory in symmetry-blocked form, NReq=12085181.
 Requested convergence on RMS density matrix=1.00D-08 within 128 cycles.
 Requested convergence on MAX density matrix=1.00D-06.
 Requested convergence on             energy=1.00D-06.
 No special actions if energy rises.
 SCF Done:  E(RHF) =  -8313.09532245     A.U. after   11 cycles
            NFock= 11  Conv=0.64D-08     -V/T= 2.0036
 ExpMin= 1.33D-01 ExpMax= 1.49D+04 ExpMxC= 1.49D+04 IAcc=3 IRadAn=         5 AccDes= 0.00D+00
 HarFok:  IExCor=  205 AccDes= 0.00D+00 IRadAn=         5 IDoV=-2 UseB2=F ITyADJ=14
 ICtDFT= 12500011 ScaDFX=  1.000000  1.000000  1.000000  1.000000
 Defaulting to unpruned grid for atomic number  54.
 GSVD:  LWork=       -1140 too small for GESVD, short by        4950 words or        4950 for optimal perf.
 Range of M.O.s used for correlation:    31    95
 NBasis=    95 NAE=    53 NBE=    53 NFC=    30 NFV=     0
 NROrb=     65 NOA=    23 NOB=    23 NVA=    42 NVB=    42

 **** Warning!!: The largest alpha MO coefficient is  0.20578664D+02

 Fully direct method using O(ONN) memory.
 JobTyp=1 Pass  1:  I=  31 to  53 NPSUse=  8 ParTrn=T ParDer=T DoDerP=T.
 Spin components of T(2) and E(2):
     alpha-alpha T2 =       0.3125041457D-01 E2=     -0.9171416511D-01
     alpha-beta  T2 =       0.1871700221D+00 E2=     -0.4940701731D+00
     beta-beta   T2 =       0.3125041457D-01 E2=     -0.9171416511D-01
 ANorm=    0.1117886779D+01
 E2 =    -0.6774985033D+00 EUMP2 =    -0.83137728209508D+04
          IDoAtm=11111
          Differentiating once with respect to electric field.
                with respect to dipole field.
          Differentiating once with respect to nuclear coordinates.
 Keep R1 ints in memory in symmetry-blocked form, NReq=12086613.
          There are     1 degrees of freedom in the 1st order CPHF.  IDoFFX=0 NUNeed=     1.
 LinEq1:  Iter=  0 NonCon=     1 RMS=7.32D-03 Max=2.08D-01 NDo=     1
 AX will form     1 AO Fock derivatives at one time.
 LinEq1:  Iter=  1 NonCon=     1 RMS=1.71D-03 Max=3.60D-02 NDo=     1
 LinEq1:  Iter=  2 NonCon=     1 RMS=4.70D-04 Max=8.05D-03 NDo=     1
 LinEq1:  Iter=  3 NonCon=     1 RMS=1.28D-04 Max=1.78D-03 NDo=     1
 LinEq1:  Iter=  4 NonCon=     1 RMS=2.31D-05 Max=3.61D-04 NDo=     1
 LinEq1:  Iter=  5 NonCon=     1 RMS=4.04D-06 Max=7.39D-05 NDo=     1
 LinEq1:  Iter=  6 NonCon=     1 RMS=8.16D-07 Max=1.24D-05 NDo=     1
 LinEq1:  Iter=  7 NonCon=     1 RMS=1.27D-07 Max=1.40D-06 NDo=     1
 LinEq1:  Iter=  8 NonCon=     1 RMS=2.32D-08 Max=3.63D-07 NDo=     1
 LinEq1:  Iter=  9 NonCon=     1 RMS=8.75D-09 Max=1.98D-07 NDo=     1
 LinEq1:  Iter= 10 NonCon=     1 RMS=9.46D-10 Max=1.31D-08 NDo=     1
 LinEq1:  Iter= 11 NonCon=     1 RMS=9.02D-11 Max=1.30D-09 NDo=     1
 LinEq1:  Iter= 12 NonCon=     0 RMS=9.61D-12 Max=1.80D-10 NDo=     1
 Linear equations converged to 1.000D-10 1.000D-09 after    12 iterations.
 End of Minotr F.D. properties file   721 does not exist.
 End of Minotr F.D. properties file   722 does not exist.
 End of Minotr F.D. properties file   788 does not exist.
 Calling FoFJK, ICntrl=  10002127 FMM=F ISym2X=1 I1Cent= 0 IOpClX= 0 NMat=1 NMatS=1 NMatT=0.
 ***** Axes restored to original set *****
 -------------------------------------------------------------------
 Center     Atomic                   Forces (Hartrees/Bohr)
 Number     Number              X              Y              Z
 -------------------------------------------------------------------
      1       54           0.000000000   -0.000000000   -0.000000000
      2        9          -0.001239803    0.000000000    0.000000000
      3        9           0.001239803    0.000000000    0.000000000
      4       17          -0.000000000    0.001651003   -0.000000000
      5       17          -0.000000000   -0.001651003   -0.000000000
 -------------------------------------------------------------------
 Cartesian Forces:  Max     0.001651003 RMS     0.000753916

 GradGradGradGradGradGradGradGradGradGradGradGradGradGradGradGradGradGrad
 Berny optimization.
 Using GEDIIS/GDIIS optimizer.
 FormGI is forming the generalized inverse of G from B-inverse, IUseBI=4.
 Internal  Forces:  Max     0.001651003 RMS     0.000753916
 Search for a local minimum.
 Step number   3 out of a maximum of   25
 All quantities printed in internal units (Hartrees-Bohrs-Radians)
 Mixed Optimization -- En-DIIS/RFO-DIIS
 Update second derivatives using D2CorX and points    2    3
 DE= -6.82D-03 DEPred=-3.03D-03 R= 2.25D+00
 TightC=F SS=  1.41D+00  RLast= 3.50D-01 DXNew= 8.4853D-01 1.0500D+00
 Trust test= 2.25D+00 RLast= 3.50D-01 DXMaxT set to 8.49D-01
 The second derivative matrix:
                          R1        R2        R3        R4        A1
           R1           0.25315
           R2           0.01403   0.25315
           R3           0.00072   0.00072   0.13050
           R4           0.00072   0.00072  -0.02587   0.13050
           A1          -0.00000  -0.00000  -0.00000  -0.00000   0.25000
           A2           0.00000   0.00000   0.00000   0.00000  -0.00000
           A3          -0.00000  -0.00000  -0.00000  -0.00000   0.00000
           A4           0.00000   0.00000   0.00000   0.00000  -0.00000
           A5           0.00000   0.00000   0.00000   0.00000  -0.00000
           A6           0.00000   0.00000   0.00000   0.00000  -0.00000
           A7          -0.00000  -0.00000  -0.00000  -0.00000   0.00000
           A8          -0.00000  -0.00000  -0.00000  -0.00000   0.00000
           D1           0.00000   0.00000   0.00000   0.00000  -0.00000
           D2          -0.00000  -0.00000  -0.00000  -0.00000   0.00000
           D3           0.00000   0.00000   0.00000   0.00000  -0.00000
                          A2        A3        A4        A5        A6
           A2           0.25000
           A3          -0.00000   0.25000
           A4           0.00000  -0.00000   0.25000
           A5           0.00000  -0.00000   0.00000   0.00230
           A6           0.00000  -0.00000   0.00000   0.00000   0.00230
           A7          -0.00000   0.00000  -0.00000  -0.00000  -0.00000
           A8          -0.00000   0.00000  -0.00000  -0.00000  -0.00000
           D1           0.00000  -0.00000   0.00000   0.00000   0.00000
           D2          -0.00000   0.00000  -0.00000  -0.00000  -0.00000
           D3           0.00000  -0.00000   0.00000   0.00000   0.00000
                          A7        A8        D1        D2        D3
           A7           0.00230
           A8           0.00000   0.00230
           D1          -0.00000  -0.00000   0.00230
           D2           0.00000   0.00000  -0.00000   0.00230
           D3          -0.00000  -0.00000   0.00000  -0.00000   0.00230
 ITU=  1  1  0
 Use linear search instead of GDIIS.
     Eigenvalues ---    0.00230   0.00230   0.10461   0.12615   0.12615
     Eigenvalues ---    0.15637   0.23912   0.25000   0.26719
 RFO step:  Lambda=-3.67376953D-05 EMin= 2.30000000D-03
 Quartic linear search produced a step of  0.07176.
 Iteration  1 RMS(Cart)=  0.00805539 RMS(Int)=  0.00000000
 Iteration  2 RMS(Cart)=  0.00000000 RMS(Int)=  0.00000000
 ClnCor:  largest displacement from symmetrization is 4.60D-11 for atom     3.
 Variable       Old X    -DE/DX   Delta X   Delta X   Delta X     New X
                                 (Linear)    (Quad)   (Total)
    R1        3.73797  -0.00124   0.00359  -0.00788  -0.00429   3.73368
    R2        3.73797  -0.00124   0.00359  -0.00788  -0.00429   3.73368
    R3        4.77717   0.00165   0.01739   0.00425   0.02164   4.79881
    R4        4.77717   0.00165   0.01739   0.00425   0.02164   4.79881
    A1        1.57080   0.00000   0.00000   0.00000   0.00000   1.57080
    A2        1.57080  -0.00000   0.00000  -0.00000   0.00000   1.57080
    A3        1.57080   0.00000   0.00000   0.00000   0.00000   1.57080
    A4        1.57080  -0.00000   0.00000  -0.00000   0.00000   1.57080
    A5        3.14159  -0.00000   0.00000  -0.00000   0.00000   3.14159
    A6        3.14159  -0.00000   0.00000  -0.00000   0.00000   3.14159
    A7        3.14159  -0.00000   0.00000  -0.00000   0.00000   3.14159
    A8        3.14159  -0.00000   0.00000  -0.00000   0.00000   3.14159
    D1       -0.00000   0.00000   0.00000   0.00000   0.00000   0.00000
    D2        0.00000  -0.00000   0.00000  -0.00000   0.00000   0.00000
    D3       -0.00000   0.00000   0.00000   0.00000   0.00000   0.00000
         Item               Value     Threshold  Converged?
 Maximum Force            0.001651     0.000450     NO 
 RMS     Force            0.000754     0.000300     NO 
 Maximum Displacement     0.021640     0.001800     NO 
 RMS     Displacement     0.008055     0.001200     NO 
 Predicted change in Energy=-2.844714D-05
 GradGradGradGradGradGradGradGradGradGradGradGradGradGradGradGradGradGrad

                          Input orientation:                          
 ---------------------------------------------------------------------
 Center     Atomic      Atomic             Coordinates (Angstroms)
 Number     Number       Type             X           Y           Z
 ---------------------------------------------------------------------
      1         54           0       -0.000000    0.000000    0.000000
      2          9           0        1.975780   -0.000000    0.000000
      3          9           0       -1.975780    0.000000   -0.000000
      4         17           0        0.000000    2.539421   -0.000000
      5         17           0       -0.000000   -2.539421    0.000000
 ---------------------------------------------------------------------
                    Distance matrix (angstroms):
                    1          2          3          4          5
     1  Xe   0.000000
     2  F    1.975780   0.000000
     3  F    1.975780   3.951559   0.000000
     4  Cl   2.539421   3.217509   3.217509   0.000000
     5  Cl   2.539421   3.217509   3.217509   5.078842   0.000000
 Stoichiometry    Cl2F2Xe
 Framework group  D2H[O(Xe),C2'(F.F),C2"(Cl.Cl)]
 Deg. of freedom     2
 Full point group                 D2H     NOp   8
 Largest Abelian subgroup         D2H     NOp   8
 Largest concise Abelian subgroup D2      NOp   4
                         Standard orientation:                         
 ---------------------------------------------------------------------
 Center     Atomic      Atomic             Coordinates (Angstroms)
 Number     Number       Type             X           Y           Z
 ---------------------------------------------------------------------
      1         54           0        0.000000    0.000000    0.000000
      2          9           0        0.000000    1.975780    0.000000
      3          9           0       -0.000000   -1.975780    0.000000
      4         17           0       -0.000000   -0.000000    2.539421
      5         17           0        0.000000   -0.000000   -2.539421
 ---------------------------------------------------------------------
 Rotational constants (GHZ):           3.4071642           1.1205635           0.8432362
 Standard basis: 3-21G* (6D, 7F)
 There are    30 symmetry adapted cartesian basis functions of AG  symmetry.
 There are     6 symmetry adapted cartesian basis functions of B1G symmetry.
 There are     7 symmetry adapted cartesian basis functions of B2G symmetry.
 There are     9 symmetry adapted cartesian basis functions of B3G symmetry.
 There are     1 symmetry adapted cartesian basis functions of AU  symmetry.
 There are    17 symmetry adapted cartesian basis functions of B1U symmetry.
 There are    14 symmetry adapted cartesian basis functions of B2U symmetry.
 There are    11 symmetry adapted cartesian basis functions of B3U symmetry.
 There are    30 symmetry adapted basis functions of AG  symmetry.
 There are     6 symmetry adapted basis functions of B1G symmetry.
 There are     7 symmetry adapted basis functions of B2G symmetry.
 There are     9 symmetry adapted basis functions of B3G symmetry.
 There are     1 symmetry adapted basis functions of AU  symmetry.
 There are    17 symmetry adapted basis functions of B1U symmetry.
 There are    14 symmetry adapted basis functions of B2U symmetry.
 There are    11 symmetry adapted basis functions of B3U symmetry.
    95 basis functions,   189 primitive gaussians,    95 cartesian basis functions
    53 alpha electrons       53 beta electrons
       nuclear repulsion energy       784.5408970868 Hartrees.
 NAtoms=    5 NActive=    5 NUniq=    3 SFac= 2.78D+00 NAtFMM=   60 NAOKFM=F Big=F
 Integral buffers will be    131072 words long.
 Raffenetti 1 integral format.
 Two-electron integral symmetry is turned on.
 One-electron integrals computed using PRISM.
 NBasis=    95 RedAO= T EigKep=  1.17D-03  NBF=    30     6     7     9     1    17    14    11
 NBsUse=    95 1.00D-06 EigRej= -1.00D+00 NBFU=    30     6     7     9     1    17    14    11
 Initial guess from the checkpoint file:  "XeF2Cl2.chk"
 B after Tr=     0.000000    0.000000    0.000000
         Rot=    1.000000   -0.000000   -0.000000    0.000000 Ang=   0.00 deg.
 Initial guess orbital symmetries:
       Occupied  (AG) (AG) (B2U) (B1U) (B3U) (B1U) (AG) (AG) (B2U)
                 (B1U) (B3U) (AG) (B3G) (B1G) (B2G) (AG) (AG) (B2U)
                 (B1U) (AG) (AG) (B1U) (AG) (B2U) (B3G) (B3U) (B2G)
                 (B2U) (B1U) (B3U) (AG) (B3G) (B1G) (B2G) (AG)
                 (AG) (B2U) (AG) (B1U) (AG) (B2U) (B1U) (B3U) (B1G)
                 (B3G) (B1U) (B3U) (AG) (B2G) (B2U) (B3G) (B3U)
                 (AG)
       Virtual   (B1U) (B2U) (AG) (B2G) (B3G) (B1G) (AG) (B3U)
                 (B2U) (B1U) (AG) (AG) (B2G) (B3G) (B3U) (B1U)
                 (B2U) (B1U) (AG) (AU) (B1U) (B1G) (AG) (B3U) (B2G)
                 (B3G) (B2U) (B1U) (AG) (AG) (B3U) (B1G) (B3G)
                 (B1U) (B2U) (AG) (B2U) (AG) (AG) (B1U) (AG) (AG)
 ExpMin= 1.33D-01 ExpMax= 1.49D+04 ExpMxC= 1.49D+04 IAcc=3 IRadAn=         5 AccDes= 0.00D+00
 Harris functional with IExCor=  205 and IRadAn=       5 diagonalized for initial guess.
 HarFok:  IExCor=  205 AccDes= 0.00D+00 IRadAn=         5 IDoV= 1 UseB2=F ITyADJ=14
 ICtDFT=  3500011 ScaDFX=  1.000000  1.000000  1.000000  1.000000
 Defaulting to unpruned grid for atomic number  54.
 FoFCou: FMM=F IPFlag=           0 FMFlag=      100000 FMFlg1=           0
         NFxFlg=           0 DoJE=T BraDBF=F KetDBF=T FulRan=T
         wScrn=  0.000000 ICntrl=       500 IOpCl=  0 I1Cent=   200000004 NGrid=           0
         NMat0=    1 NMatS0=      1 NMatT0=    0 NMatD0=    1 NMtDS0=    0 NMtDT0=    0
 Petite list used in FoFCou.
 Keep R1 ints in memory in symmetry-blocked form, NReq=12085181.
 Requested convergence on RMS density matrix=1.00D-08 within 128 cycles.
 Requested convergence on MAX density matrix=1.00D-06.
 Requested convergence on             energy=1.00D-06.
 No special actions if energy rises.
 SCF Done:  E(RHF) =  -8313.09505789     A.U. after    9 cycles
            NFock=  9  Conv=0.33D-08     -V/T= 2.0036
 ExpMin= 1.33D-01 ExpMax= 1.49D+04 ExpMxC= 1.49D+04 IAcc=3 IRadAn=         5 AccDes= 0.00D+00
 HarFok:  IExCor=  205 AccDes= 0.00D+00 IRadAn=         5 IDoV=-2 UseB2=F ITyADJ=14
 ICtDFT= 12500011 ScaDFX=  1.000000  1.000000  1.000000  1.000000
 Defaulting to unpruned grid for atomic number  54.
 GSVD:  LWork=       -1140 too small for GESVD, short by        4950 words or        4950 for optimal perf.
 Range of M.O.s used for correlation:    31    95
 NBasis=    95 NAE=    53 NBE=    53 NFC=    30 NFV=     0
 NROrb=     65 NOA=    23 NOB=    23 NVA=    42 NVB=    42

 **** Warning!!: The largest alpha MO coefficient is  0.20578659D+02

 Fully direct method using O(ONN) memory.
 JobTyp=1 Pass  1:  I=  31 to  53 NPSUse=  8 ParTrn=T ParDer=T DoDerP=T.
 Spin components of T(2) and E(2):
     alpha-alpha T2 =       0.3126683275D-01 E2=     -0.9168308079D-01
     alpha-beta  T2 =       0.1882034294D+00 E2=     -0.4944429077D+00
     beta-beta   T2 =       0.3126683275D-01 E2=     -0.9168308079D-01
 ANorm=    0.1118363579D+01
 E2 =    -0.6778090693D+00 EUMP2 =    -0.83137728669573D+04
          IDoAtm=11111
          Differentiating once with respect to electric field.
                with respect to dipole field.
          Differentiating once with respect to nuclear coordinates.
 Keep R1 ints in memory in symmetry-blocked form, NReq=12086613.
          There are     1 degrees of freedom in the 1st order CPHF.  IDoFFX=0 NUNeed=     1.
 LinEq1:  Iter=  0 NonCon=     1 RMS=7.34D-03 Max=2.07D-01 NDo=     1
 AX will form     1 AO Fock derivatives at one time.
 LinEq1:  Iter=  1 NonCon=     1 RMS=1.71D-03 Max=3.63D-02 NDo=     1
 LinEq1:  Iter=  2 NonCon=     1 RMS=4.73D-04 Max=8.29D-03 NDo=     1
 LinEq1:  Iter=  3 NonCon=     1 RMS=1.29D-04 Max=1.79D-03 NDo=     1
 LinEq1:  Iter=  4 NonCon=     1 RMS=2.36D-05 Max=3.68D-04 NDo=     1
 LinEq1:  Iter=  5 NonCon=     1 RMS=4.29D-06 Max=7.83D-05 NDo=     1
 LinEq1:  Iter=  6 NonCon=     1 RMS=8.76D-07 Max=1.25D-05 NDo=     1
 LinEq1:  Iter=  7 NonCon=     1 RMS=1.35D-07 Max=1.40D-06 NDo=     1
 LinEq1:  Iter=  8 NonCon=     1 RMS=3.55D-08 Max=6.07D-07 NDo=     1
 LinEq1:  Iter=  9 NonCon=     1 RMS=9.88D-09 Max=1.70D-07 NDo=     1
 LinEq1:  Iter= 10 NonCon=     1 RMS=9.46D-10 Max=1.28D-08 NDo=     1
 LinEq1:  Iter= 11 NonCon=     1 RMS=8.93D-11 Max=1.22D-09 NDo=     1
 LinEq1:  Iter= 12 NonCon=     0 RMS=9.40D-12 Max=1.70D-10 NDo=     1
 Linear equations converged to 1.000D-10 1.000D-09 after    12 iterations.
 End of Minotr F.D. properties file   721 does not exist.
 End of Minotr F.D. properties file   722 does not exist.
 End of Minotr F.D. properties file   788 does not exist.
 Calling FoFJK, ICntrl=  10002127 FMM=F ISym2X=1 I1Cent= 0 IOpClX= 0 NMat=1 NMatS=1 NMatT=0.
 ***** Axes restored to original set *****
 -------------------------------------------------------------------
 Center     Atomic                   Forces (Hartrees/Bohr)
 Number     Number              X              Y              Z
 -------------------------------------------------------------------
      1       54           0.000000000   -0.000000000   -0.000000000
      2        9          -0.000379887   -0.000000000    0.000000000
      3        9           0.000379887    0.000000000    0.000000000
      4       17          -0.000000000    0.000170055   -0.000000000
      5       17          -0.000000000   -0.000170055   -0.000000000
 -------------------------------------------------------------------
 Cartesian Forces:  Max     0.000379887 RMS     0.000151979

 GradGradGradGradGradGradGradGradGradGradGradGradGradGradGradGradGradGrad
 Berny optimization.
 Using GEDIIS/GDIIS optimizer.
 FormGI is forming the generalized inverse of G from B-inverse, IUseBI=4.
 Internal  Forces:  Max     0.000379887 RMS     0.000151979
 Search for a local minimum.
 Step number   4 out of a maximum of   25
 All quantities printed in internal units (Hartrees-Bohrs-Radians)
 Mixed Optimization -- En-DIIS/RFO-DIIS
 Swapping is turned off.
 Update second derivatives using D2CorX and points    2    3    4
 DE= -4.60D-05 DEPred=-2.84D-05 R= 1.62D+00
 TightC=F SS=  1.41D+00  RLast= 3.12D-02 DXNew= 1.4270D+00 9.3595D-02
 Trust test= 1.62D+00 RLast= 3.12D-02 DXMaxT set to 8.49D-01
 The second derivative matrix:
                          R1        R2        R3        R4        A1
           R1           0.25247
           R2           0.01335   0.25247
           R3           0.00646   0.00646   0.11368
           R4           0.00646   0.00646  -0.04269   0.11368
           A1          -0.00000  -0.00000   0.00000   0.00000   0.25000
           A2           0.00000   0.00000  -0.00000  -0.00000  -0.00000
           A3          -0.00000  -0.00000   0.00000   0.00000   0.00000
           A4           0.00000   0.00000  -0.00000  -0.00000  -0.00000
           A5           0.00000   0.00000  -0.00000  -0.00000  -0.00000
           A6           0.00000   0.00000  -0.00000  -0.00000  -0.00000
           A7          -0.00000  -0.00000   0.00000   0.00000   0.00000
           A8          -0.00000  -0.00000  -0.00000  -0.00000  -0.00000
           D1           0.00000   0.00000   0.00000   0.00000  -0.00000
           D2          -0.00000  -0.00000  -0.00000  -0.00000   0.00000
           D3           0.00000   0.00000   0.00000   0.00000   0.00000
                          A2        A3        A4        A5        A6
           A2           0.25000
           A3          -0.00000   0.25000
           A4           0.00000  -0.00000   0.25000
           A5           0.00000  -0.00000   0.00000   0.00230
           A6           0.00000  -0.00000   0.00000   0.00000   0.00230
           A7          -0.00000   0.00000  -0.00000  -0.00000  -0.00000
           A8           0.00000  -0.00000   0.00000   0.00000   0.00000
           D1           0.00000  -0.00000   0.00000   0.00000   0.00000
           D2          -0.00000   0.00000  -0.00000  -0.00000  -0.00000
           D3          -0.00000   0.00000  -0.00000  -0.00000  -0.00000
                          A7        A8        D1        D2        D3
           A7           0.00230
           A8          -0.00000   0.00230
           D1          -0.00000  -0.00000   0.00230
           D2           0.00000   0.00000  -0.00000   0.00230
           D3          -0.00000  -0.00000   0.00000  -0.00000   0.00230
 ITU=  1  1  1  0
     Eigenvalues ---    0.00230   0.00230   0.07014   0.12615   0.12615
     Eigenvalues ---    0.15637   0.23912   0.25000   0.26667
 En-DIIS/RFO-DIIS/Sim-DIIS IScMMF=       -3 using points:     4    3
 RFO step:  Lambda=-2.09596219D-06.
 DidBck=F Rises=F RFO-DIIS coefs:    1.13287   -0.13287
 Iteration  1 RMS(Cart)=  0.00113193 RMS(Int)=  0.00000000
 Iteration  2 RMS(Cart)=  0.00000000 RMS(Int)=  0.00000000
 ClnCor:  largest displacement from symmetrization is 4.68D-11 for atom     3.
 Variable       Old X    -DE/DX   Delta X   Delta X   Delta X     New X
                                 (Linear)    (Quad)   (Total)
    R1        3.73368  -0.00038  -0.00057  -0.00099  -0.00156   3.73212
    R2        3.73368  -0.00038  -0.00057  -0.00099  -0.00156   3.73212
    R3        4.79881   0.00017   0.00288  -0.00020   0.00268   4.80149
    R4        4.79881   0.00017   0.00288  -0.00020   0.00268   4.80149
    A1        1.57080  -0.00000   0.00000  -0.00000   0.00000   1.57080
    A2        1.57080   0.00000   0.00000   0.00000   0.00000   1.57080
    A3        1.57080  -0.00000   0.00000  -0.00000   0.00000   1.57080
    A4        1.57080   0.00000   0.00000   0.00000   0.00000   1.57080
    A5        3.14159   0.00000   0.00000   0.00000   0.00000   3.14159
    A6        3.14159   0.00000   0.00000   0.00000   0.00000   3.14159
    A7        3.14159  -0.00000   0.00000  -0.00000   0.00000   3.14159
    A8        3.14159  -0.00000   0.00000  -0.00000   0.00000   3.14159
    D1       -0.00000   0.00000   0.00000   0.00000   0.00000   0.00000
    D2        0.00000  -0.00000   0.00000  -0.00000   0.00000   0.00000
    D3       -0.00000   0.00000   0.00000   0.00000   0.00000   0.00000
         Item               Value     Threshold  Converged?
 Maximum Force            0.000380     0.000450     YES
 RMS     Force            0.000152     0.000300     YES
 Maximum Displacement     0.002679     0.001800     NO 
 RMS     Displacement     0.001132     0.001200     YES
 Predicted change in Energy=-1.047996D-06
 GradGradGradGradGradGradGradGradGradGradGradGradGradGradGradGradGradGrad

                          Input orientation:                          
 ---------------------------------------------------------------------
 Center     Atomic      Atomic             Coordinates (Angstroms)
 Number     Number       Type             X           Y           Z
 ---------------------------------------------------------------------
      1         54           0       -0.000000    0.000000    0.000000
      2          9           0        1.974955   -0.000000    0.000000
      3          9           0       -1.974955    0.000000   -0.000000
      4         17           0        0.000000    2.540839   -0.000000
      5         17           0       -0.000000   -2.540839    0.000000
 ---------------------------------------------------------------------
                    Distance matrix (angstroms):
                    1          2          3          4          5
     1  Xe   0.000000
     2  F    1.974955   0.000000
     3  F    1.974955   3.949909   0.000000
     4  Cl   2.540839   3.218121   3.218121   0.000000
     5  Cl   2.540839   3.218121   3.218121   5.081677   0.000000
 Stoichiometry    Cl2F2Xe
 Framework group  D2H[O(Xe),C2'(F.F),C2"(Cl.Cl)]
 Deg. of freedom     2
 Full point group                 D2H     NOp   8
 Largest Abelian subgroup         D2H     NOp   8
 Largest concise Abelian subgroup D2      NOp   4
                         Standard orientation:                         
 ---------------------------------------------------------------------
 Center     Atomic      Atomic             Coordinates (Angstroms)
 Number     Number       Type             X           Y           Z
 ---------------------------------------------------------------------
      1         54           0        0.000000    0.000000    0.000000
      2          9           0        0.000000    1.974955    0.000000
      3          9           0       -0.000000   -1.974955    0.000000
      4         17           0       -0.000000   -0.000000    2.540839
      5         17           0        0.000000   -0.000000   -2.540839
 ---------------------------------------------------------------------
 Rotational constants (GHZ):           3.4100120           1.1193133           0.8427021
 Standard basis: 3-21G* (6D, 7F)
 There are    30 symmetry adapted cartesian basis functions of AG  symmetry.
 There are     6 symmetry adapted cartesian basis functions of B1G symmetry.
 There are     7 symmetry adapted cartesian basis functions of B2G symmetry.
 There are     9 symmetry adapted cartesian basis functions of B3G symmetry.
 There are     1 symmetry adapted cartesian basis functions of AU  symmetry.
 There are    17 symmetry adapted cartesian basis functions of B1U symmetry.
 There are    14 symmetry adapted cartesian basis functions of B2U symmetry.
 There are    11 symmetry adapted cartesian basis functions of B3U symmetry.
 There are    30 symmetry adapted basis functions of AG  symmetry.
 There are     6 symmetry adapted basis functions of B1G symmetry.
 There are     7 symmetry adapted basis functions of B2G symmetry.
 There are     9 symmetry adapted basis functions of B3G symmetry.
 There are     1 symmetry adapted basis functions of AU  symmetry.
 There are    17 symmetry adapted basis functions of B1U symmetry.
 There are    14 symmetry adapted basis functions of B2U symmetry.
 There are    11 symmetry adapted basis functions of B3U symmetry.
    95 basis functions,   189 primitive gaussians,    95 cartesian basis functions
    53 alpha electrons       53 beta electrons
       nuclear repulsion energy       784.4047617714 Hartrees.
 NAtoms=    5 NActive=    5 NUniq=    3 SFac= 2.78D+00 NAtFMM=   60 NAOKFM=F Big=F
 Integral buffers will be    131072 words long.
 Raffenetti 1 integral format.
 Two-electron integral symmetry is turned on.
 One-electron integrals computed using PRISM.
 NBasis=    95 RedAO= T EigKep=  1.17D-03  NBF=    30     6     7     9     1    17    14    11
 NBsUse=    95 1.00D-06 EigRej= -1.00D+00 NBFU=    30     6     7     9     1    17    14    11
 Initial guess from the checkpoint file:  "XeF2Cl2.chk"
 B after Tr=     0.000000   -0.000000   -0.000000
         Rot=    1.000000    0.000000    0.000000   -0.000000 Ang=   0.00 deg.
 Initial guess orbital symmetries:
       Occupied  (AG) (AG) (B2U) (B1U) (B3U) (B1U) (AG) (AG) (B2U)
                 (B1U) (B3U) (AG) (B3G) (B1G) (B2G) (AG) (AG) (B2U)
                 (B1U) (AG) (AG) (B1U) (AG) (B2U) (B3G) (B3U) (B2G)
                 (B2U) (B1U) (B3U) (AG) (B3G) (B1G) (B2G) (AG)
                 (AG) (B2U) (AG) (B1U) (AG) (B2U) (B1U) (B3U) (B1G)
                 (B3G) (B1U) (B3U) (AG) (B2G) (B2U) (B3G) (B3U)
                 (AG)
       Virtual   (B1U) (B2U) (AG) (B2G) (B3G) (B1G) (AG) (B3U)
                 (B2U) (B1U) (AG) (AG) (B2G) (B3G) (B3U) (B1U)
                 (B2U) (B1U) (AG) (AU) (B1U) (B1G) (AG) (B3U) (B2G)
                 (B3G) (B2U) (B1U) (AG) (AG) (B3U) (B1G) (B3G)
                 (B1U) (B2U) (AG) (B2U) (AG) (AG) (B1U) (AG) (AG)
 Keep R1 ints in memory in symmetry-blocked form, NReq=12085181.
 Requested convergence on RMS density matrix=1.00D-08 within 128 cycles.
 Requested convergence on MAX density matrix=1.00D-06.
 Requested convergence on             energy=1.00D-06.
 No special actions if energy rises.
 SCF Done:  E(RHF) =  -8313.09507667     A.U. after    8 cycles
            NFock=  8  Conv=0.38D-08     -V/T= 2.0036
 ExpMin= 1.33D-01 ExpMax= 1.49D+04 ExpMxC= 1.49D+04 IAcc=3 IRadAn=         5 AccDes= 0.00D+00
 HarFok:  IExCor=  205 AccDes= 0.00D+00 IRadAn=         5 IDoV=-2 UseB2=F ITyADJ=14
 ICtDFT= 12500011 ScaDFX=  1.000000  1.000000  1.000000  1.000000
 Defaulting to unpruned grid for atomic number  54.
 GSVD:  LWork=       -1140 too small for GESVD, short by        4950 words or        4950 for optimal perf.
 Range of M.O.s used for correlation:    31    95
 NBasis=    95 NAE=    53 NBE=    53 NFC=    30 NFV=     0
 NROrb=     65 NOA=    23 NOB=    23 NVA=    42 NVB=    42

 **** Warning!!: The largest alpha MO coefficient is  0.20578659D+02

 Fully direct method using O(ONN) memory.
 JobTyp=1 Pass  1:  I=  31 to  53 NPSUse=  8 ParTrn=T ParDer=T DoDerP=T.
 Spin components of T(2) and E(2):
     alpha-alpha T2 =       0.3126488401D-01 E2=     -0.9167471390D-01
     alpha-beta  T2 =       0.1882769878D+00 E2=     -0.4944419599D+00
     beta-beta   T2 =       0.3126488401D-01 E2=     -0.9167471390D-01
 ANorm=    0.1118394723D+01
 E2 =    -0.6777913877D+00 EUMP2 =    -0.83137728680605D+04
          IDoAtm=11111
          Differentiating once with respect to electric field.
                with respect to dipole field.
          Differentiating once with respect to nuclear coordinates.
 Keep R1 ints in memory in symmetry-blocked form, NReq=12086613.
          There are     1 degrees of freedom in the 1st order CPHF.  IDoFFX=0 NUNeed=     1.
 LinEq1:  Iter=  0 NonCon=     1 RMS=7.34D-03 Max=2.07D-01 NDo=     1
 AX will form     1 AO Fock derivatives at one time.
 LinEq1:  Iter=  1 NonCon=     1 RMS=1.71D-03 Max=3.64D-02 NDo=     1
 LinEq1:  Iter=  2 NonCon=     1 RMS=4.73D-04 Max=8.33D-03 NDo=     1
 LinEq1:  Iter=  3 NonCon=     1 RMS=1.29D-04 Max=1.79D-03 NDo=     1
 LinEq1:  Iter=  4 NonCon=     1 RMS=2.37D-05 Max=3.72D-04 NDo=     1
 LinEq1:  Iter=  5 NonCon=     1 RMS=4.32D-06 Max=7.89D-05 NDo=     1
 LinEq1:  Iter=  6 NonCon=     1 RMS=8.84D-07 Max=1.26D-05 NDo=     1
 LinEq1:  Iter=  7 NonCon=     1 RMS=1.37D-07 Max=1.46D-06 NDo=     1
 LinEq1:  Iter=  8 NonCon=     1 RMS=3.72D-08 Max=6.40D-07 NDo=     1
 LinEq1:  Iter=  9 NonCon=     1 RMS=9.93D-09 Max=1.64D-07 NDo=     1
 LinEq1:  Iter= 10 NonCon=     1 RMS=9.44D-10 Max=1.28D-08 NDo=     1
 LinEq1:  Iter= 11 NonCon=     1 RMS=8.91D-11 Max=1.21D-09 NDo=     1
 LinEq1:  Iter= 12 NonCon=     0 RMS=9.37D-12 Max=1.69D-10 NDo=     1
 Linear equations converged to 1.000D-10 1.000D-09 after    12 iterations.
 End of Minotr F.D. properties file   721 does not exist.
 End of Minotr F.D. properties file   722 does not exist.
 End of Minotr F.D. properties file   788 does not exist.
 Calling FoFJK, ICntrl=  10002127 FMM=F ISym2X=1 I1Cent= 0 IOpClX= 0 NMat=1 NMatS=1 NMatT=0.
 ***** Axes restored to original set *****
 -------------------------------------------------------------------
 Center     Atomic                   Forces (Hartrees/Bohr)
 Number     Number              X              Y              Z
 -------------------------------------------------------------------
      1       54           0.000000000   -0.000000000   -0.000000000
      2        9          -0.000040402    0.000000000    0.000000000
      3        9           0.000040402    0.000000000    0.000000000
      4       17          -0.000000000   -0.000002156   -0.000000000
      5       17           0.000000000    0.000002156   -0.000000000
 -------------------------------------------------------------------
 Cartesian Forces:  Max     0.000040402 RMS     0.000014774

 GradGradGradGradGradGradGradGradGradGradGradGradGradGradGradGradGradGrad
 Berny optimization.
 Using GEDIIS/GDIIS optimizer.
 FormGI is forming the generalized inverse of G from B-inverse, IUseBI=4.
 Internal  Forces:  Max     0.000040402 RMS     0.000014774
 Search for a local minimum.
 Step number   5 out of a maximum of   25
 All quantities printed in internal units (Hartrees-Bohrs-Radians)
 Mixed Optimization -- En-DIIS/RFO-DIIS
 Swapping is turned off.
 Update second derivatives using D2CorX and points    2    3    4    5
 DE= -1.10D-06 DEPred=-1.05D-06 R= 1.05D+00
 TightC=F SS=  1.41D+00  RLast= 4.38D-03 DXNew= 1.4270D+00 1.3152D-02
 Trust test= 1.05D+00 RLast= 4.38D-03 DXMaxT set to 8.49D-01
 The second derivative matrix:
                          R1        R2        R3        R4        A1
           R1           0.23954
           R2           0.00042   0.23954
           R3           0.00648   0.00648   0.11409
           R4           0.00648   0.00648  -0.04228   0.11409
           A1           0.00000   0.00000  -0.00000  -0.00000   0.25000
           A2          -0.00000  -0.00000   0.00000   0.00000  -0.00000
           A3           0.00000   0.00000  -0.00000  -0.00000   0.00000
           A4          -0.00000  -0.00000   0.00000   0.00000  -0.00000
           A5          -0.00000  -0.00000   0.00000   0.00000  -0.00000
           A6           0.00000   0.00000  -0.00000  -0.00000   0.00000
           A7          -0.00000  -0.00000   0.00000   0.00000  -0.00000
           A8          -0.00000  -0.00000  -0.00000  -0.00000   0.00000
           D1           0.00000   0.00000   0.00000   0.00000   0.00000
           D2          -0.00000  -0.00000  -0.00000  -0.00000  -0.00000
           D3           0.00000   0.00000   0.00000   0.00000  -0.00000
                          A2        A3        A4        A5        A6
           A2           0.25000
           A3          -0.00000   0.25000
           A4           0.00000  -0.00000   0.25000
           A5           0.00000  -0.00000   0.00000   0.00230
           A6          -0.00000   0.00000  -0.00000  -0.00000   0.00230
           A7           0.00000  -0.00000   0.00000   0.00000  -0.00000
           A8          -0.00000   0.00000  -0.00000  -0.00000   0.00000
           D1          -0.00000   0.00000  -0.00000  -0.00000   0.00000
           D2           0.00000  -0.00000   0.00000   0.00000  -0.00000
           D3           0.00000  -0.00000   0.00000   0.00000  -0.00000
                          A7        A8        D1        D2        D3
           A7           0.00230
           A8          -0.00000   0.00230
           D1          -0.00000  -0.00000   0.00230
           D2           0.00000   0.00000  -0.00000   0.00230
           D3          -0.00000  -0.00000   0.00000  -0.00000   0.00230
 ITU=  1  1  1  1  0
     Eigenvalues ---    0.00230   0.00230   0.07083   0.12615   0.12615
     Eigenvalues ---    0.15637   0.23912   0.24095   0.25000
 En-DIIS/RFO-DIIS/Sim-DIIS IScMMF=       -3 using points:     5    4    3
 RFO step:  Lambda=-1.13505127D-08.
 DidBck=F Rises=F RFO-DIIS coefs:    1.17393   -0.19561    0.02168
 Iteration  1 RMS(Cart)=  0.00006511 RMS(Int)=  0.00000000
 Iteration  2 RMS(Cart)=  0.00000000 RMS(Int)=  0.00000000
 ClnCor:  largest displacement from symmetrization is 4.69D-11 for atom     3.
 Variable       Old X    -DE/DX   Delta X   Delta X   Delta X     New X
                                 (Linear)    (Quad)   (Total)
    R1        3.73212  -0.00004  -0.00018  -0.00000  -0.00018   3.73194
    R2        3.73212  -0.00004  -0.00018   0.00000  -0.00018   3.73194
    R3        4.80149  -0.00000  -0.00000   0.00000  -0.00000   4.80149
    R4        4.80149  -0.00000  -0.00000  -0.00000  -0.00000   4.80149
    A1        1.57080   0.00000   0.00000   0.00000   0.00000   1.57080
    A2        1.57080  -0.00000   0.00000  -0.00000   0.00000   1.57080
    A3        1.57080   0.00000   0.00000   0.00000   0.00000   1.57080
    A4        1.57080  -0.00000   0.00000  -0.00000   0.00000   1.57080
    A5        3.14159  -0.00000   0.00000  -0.00000   0.00000   3.14159
    A6        3.14159   0.00000   0.00000   0.00000   0.00000   3.14159
    A7        3.14159  -0.00000   0.00000  -0.00000   0.00000   3.14159
    A8        3.14159  -0.00000   0.00000  -0.00000   0.00000   3.14159
    D1       -0.00000   0.00000   0.00000   0.00000   0.00000   0.00000
    D2        0.00000  -0.00000   0.00000  -0.00000   0.00000   0.00000
    D3       -0.00000   0.00000   0.00000   0.00000   0.00000   0.00000
         Item               Value     Threshold  Converged?
 Maximum Force            0.000040     0.000450     YES
 RMS     Force            0.000015     0.000300     YES
 Maximum Displacement     0.000178     0.001800     YES
 RMS     Displacement     0.000065     0.001200     YES
 Predicted change in Energy=-6.776991D-09
 Optimization completed.
    -- Stationary point found.
                           ----------------------------
                           !   Optimized Parameters   !
                           ! (Angstroms and Degrees)  !
 --------------------------                            --------------------------
 ! Name  Definition              Value          Derivative Info.                !
 --------------------------------------------------------------------------------
 ! R1    R(1,2)                  1.975          -DE/DX =    0.0                 !
 ! R2    R(1,3)                  1.975          -DE/DX =    0.0                 !
 ! R3    R(1,4)                  2.5408         -DE/DX =    0.0                 !
 ! R4    R(1,5)                  2.5408         -DE/DX =    0.0                 !
 ! A1    A(2,1,4)               90.0            -DE/DX =    0.0                 !
 ! A2    A(2,1,5)               90.0            -DE/DX =    0.0                 !
 ! A3    A(3,1,4)               90.0            -DE/DX =    0.0                 !
 ! A4    A(3,1,5)               90.0            -DE/DX =    0.0                 !
 ! A5    L(2,1,3,5,-1)         180.0            -DE/DX =    0.0                 !
 ! A6    L(4,1,5,3,-1)         180.0            -DE/DX =    0.0                 !
 ! A7    L(2,1,3,5,-2)         180.0            -DE/DX =    0.0                 !
 ! A8    L(4,1,5,3,-2)         180.0            -DE/DX =    0.0                 !
 ! D1    D(1,2,4,3)              0.0            -DE/DX =    0.0                 !
 ! D2    D(1,2,5,3)              0.0            -DE/DX =    0.0                 !
 ! D3    D(1,2,5,4)              0.0            -DE/DX =    0.0                 !
 --------------------------------------------------------------------------------
 GradGradGradGradGradGradGradGradGradGradGradGradGradGradGradGradGradGrad

                          Input orientation:                          
 ---------------------------------------------------------------------
 Center     Atomic      Atomic             Coordinates (Angstroms)
 Number     Number       Type             X           Y           Z
 ---------------------------------------------------------------------
      1         54           0       -0.000000    0.000000    0.000000
      2          9           0        1.974955   -0.000000    0.000000
      3          9           0       -1.974955    0.000000   -0.000000
      4         17           0        0.000000    2.540839   -0.000000
      5         17           0       -0.000000   -2.540839    0.000000
 ---------------------------------------------------------------------
                    Distance matrix (angstroms):
                    1          2          3          4          5
     1  Xe   0.000000
     2  F    1.974955   0.000000
     3  F    1.974955   3.949909   0.000000
     4  Cl   2.540839   3.218121   3.218121   0.000000
     5  Cl   2.540839   3.218121   3.218121   5.081677   0.000000
 Stoichiometry    Cl2F2Xe
 Framework group  D2H[O(Xe),C2'(F.F),C2"(Cl.Cl)]
 Deg. of freedom     2
 Full point group                 D2H     NOp   8
 Largest Abelian subgroup         D2H     NOp   8
 Largest concise Abelian subgroup D2      NOp   4
                         Standard orientation:                         
 ---------------------------------------------------------------------
 Center     Atomic      Atomic             Coordinates (Angstroms)
 Number     Number       Type             X           Y           Z
 ---------------------------------------------------------------------
      1         54           0        0.000000    0.000000    0.000000
      2          9           0        0.000000    1.974955    0.000000
      3          9           0       -0.000000   -1.974955    0.000000
      4         17           0       -0.000000   -0.000000    2.540839
      5         17           0        0.000000   -0.000000   -2.540839
 ---------------------------------------------------------------------
 Rotational constants (GHZ):           3.4100120           1.1193133           0.8427021

 **********************************************************************

            Population analysis using the SCF Density.

 **********************************************************************

 Orbital symmetries:
       Occupied  (AG) (AG) (B2U) (B1U) (B3U) (B1U) (AG) (AG) (B2U)
                 (B1U) (B3U) (AG) (B3G) (B1G) (B2G) (AG) (AG) (B2U)
                 (B1U) (AG) (AG) (B1U) (AG) (B2U) (B3G) (B3U) (B2G)
                 (B2U) (B1U) (B3U) (AG) (B3G) (B1G) (B2G) (AG)
                 (AG) (B2U) (AG) (B1U) (AG) (B2U) (B1U) (B3U) (B1G)
                 (B3G) (B1U) (B3U) (AG) (B2G) (B2U) (B3G) (B3U)
                 (AG)
       Virtual   (B1U) (B2U) (AG) (B2G) (B3G) (B1G) (AG) (B3U)
                 (B2U) (B1U) (AG) (AG) (B2G) (B3G) (B3U) (B1U)
                 (B2U) (B1U) (AG) (AU) (B1U) (B1G) (AG) (B3U) (B2G)
                 (B3G) (B2U) (B1U) (AG) (AG) (B3U) (B1G) (B3G)
                 (B1U) (B2U) (AG) (B2U) (AG) (AG) (B1U) (AG) (AG)
 The electronic state is 1-AG.
 Alpha  occ. eigenvalues -- **********-188.77522-176.72098-176.72055-176.71834
 Alpha  occ. eigenvalues -- -104.26123-104.26117 -40.36868 -35.10690 -35.10527
 Alpha  occ. eigenvalues --  -35.09772 -26.32145 -26.31965 -26.31221 -26.31032
 Alpha  occ. eigenvalues --  -26.30916 -26.17214 -26.17191 -10.56291 -10.56291
 Alpha  occ. eigenvalues --   -8.14047  -8.02799  -8.02797  -8.02454  -8.02450
 Alpha  occ. eigenvalues --   -8.02448  -8.02445  -6.18493  -6.18311  -6.16486
 Alpha  occ. eigenvalues --   -3.08491  -3.08132  -3.06168  -3.05874  -3.05451
 Alpha  occ. eigenvalues --   -1.57711  -1.56995  -1.16632  -1.10393  -1.03772
 Alpha  occ. eigenvalues --   -0.75101  -0.70966  -0.70472  -0.65503  -0.65317
 Alpha  occ. eigenvalues --   -0.59009  -0.56796  -0.56499  -0.49781  -0.49102
 Alpha  occ. eigenvalues --   -0.49003  -0.47364  -0.41889
 Alpha virt. eigenvalues --   -0.09578   0.01583   0.26934   0.34437   0.39255
 Alpha virt. eigenvalues --    0.40873   0.47074   0.52638   0.56935   0.60615
 Alpha virt. eigenvalues --    0.67174   0.72749   0.80147   0.80180   0.80616
 Alpha virt. eigenvalues --    0.81955   0.82197   0.86377   0.86723   1.11966
 Alpha virt. eigenvalues --    1.11970   1.12022   1.12087   1.12485   1.13467
 Alpha virt. eigenvalues --    1.13621   1.14960   1.30642   1.33452   1.55173
 Alpha virt. eigenvalues --    2.23349   2.27250   2.27813   2.30011   2.37514
 Alpha virt. eigenvalues --    2.46099   3.68412   3.91145   4.32473   4.34281
 Alpha virt. eigenvalues --    7.84862 233.98295
          Condensed to atoms (all electrons):
               1          2          3          4          5
     1  Xe  52.074519   0.163292   0.163292   0.065543   0.065543
     2  F    0.163292   9.257510   0.000005  -0.002306  -0.002306
     3  F    0.163292   0.000005   9.257510  -0.002306  -0.002306
     4  Cl   0.065543  -0.002306  -0.002306  17.255388   0.001391
     5  Cl   0.065543  -0.002306  -0.002306   0.001391  17.255388
 Mulliken charges:
               1
     1  Xe   1.467811
     2  F   -0.416195
     3  F   -0.416195
     4  Cl  -0.317710
     5  Cl  -0.317710
 Sum of Mulliken charges =   0.00000
 Mulliken charges with hydrogens summed into heavy atoms:
               1
     1  Xe   1.467811
     2  F   -0.416195
     3  F   -0.416195
     4  Cl  -0.317710
     5  Cl  -0.317710
 Electronic spatial extent (au):  <R**2>=           1188.4321
 Charge=             -0.0000 electrons
 Dipole moment (field-independent basis, Debye):
    X=              0.0000    Y=              0.0000    Z=             -0.0000  Tot=              0.0000
 Quadrupole moment (field-independent basis, Debye-Ang):
   XX=            -61.0613   YY=            -72.9095   ZZ=            -72.9877
   XY=             -0.0000   XZ=              0.0000   YZ=              0.0000
 Traceless Quadrupole moment (field-independent basis, Debye-Ang):
   XX=              7.9249   YY=             -3.9233   ZZ=             -4.0016
   XY=             -0.0000   XZ=              0.0000   YZ=              0.0000
 Octapole moment (field-independent basis, Debye-Ang**2):
  XXX=             -0.0000  YYY=              0.0000  ZZZ=              0.0000  XYY=             -0.0000
  XXY=              0.0000  XXZ=             -0.0000  XZZ=             -0.0000  YZZ=             -0.0000
  YYZ=              0.0000  XYZ=             -0.0000
 Hexadecapole moment (field-independent basis, Debye-Ang**3):
 XXXX=            -60.0710 YYYY=           -326.9833 ZZZZ=          -1089.4036 XXXY=             -0.0000
 XXXZ=              0.0000 YYYX=             -0.0000 YYYZ=             -0.0000 ZZZX=              0.0000
 ZZZY=              0.0000 XXYY=            -55.8295 XXZZ=           -194.4582 YYZZ=           -229.7464
 XXYZ=             -0.0000 YYXZ=              0.0000 ZZXY=             -0.0000
 N-N= 7.844047617714D+02 E-N=-2.127802946001D+04  KE= 8.283153967761D+03
 Symmetry AG   KE= 4.487968119868D+03
 Symmetry B1G  KE= 2.091664321563D+02
 Symmetry B2G  KE= 2.481627533692D+02
 Symmetry B3G  KE= 2.543994772645D+02
 Symmetry AU   KE= 2.440942371620D-36
 Symmetry B1U  KE= 1.211878648755D+03
 Symmetry B2U  KE= 9.730229834561D+02
 Symmetry B3U  KE= 8.985555528914D+02
 Unable to Open any file for archive entry.
 1\1\GINC-BS001\FOpt\RMP2-FC\3-21G*\Cl2F2Xe1\PNATT\07-Aug-2026\0\\# opt
  freq=hpmodes mp2/3-21g* geom=connectivity\\trans-XeF2Cl2 - size1_D2h 
 (hypothetical test compound)\\0,1\Xe,0.,0.,0.\F,1.9749545049,0.,0.\F,-
 1.9749545049,0.,0.\Cl,0.,2.5408385561,0.\Cl,0.,-2.5408385561,0.\\Versi
 on=ES64L-G16RevC.01\State=1-AG\HF=-8313.0950767\MP2=-8313.7728681\RMSD
 =3.822e-09\RMSF=1.477e-05\Dipole=0.,0.,0.\PG=D02H [O(Xe1),C2'(F1.F1),C
 2"(Cl1.Cl1)]\\@
 The archive entry for this job was punched.


 THE CAUTIOUS SELDOM ERR...CONFUCIUS                   
 Job cpu time:       0 days  0 hours  1 minutes 53.6 seconds.
 Elapsed time:       0 days  0 hours  0 minutes 14.4 seconds.
 File lengths (MBytes):  RWF=     10 Int=      0 D2E=      0 Chk=      2 Scr=      1
 Normal termination of Gaussian 16 at Fri Aug  7 15:50:13 2026.
 Link1:  Proceeding to internal job step number  2.
 --------------------------------------------------------------------
 #N Geom=AllCheck Guess=TCheck SCRF=Check GenChk RMP2(FC)/3-21G* Freq
 --------------------------------------------------------------------
 1/10=4,29=7,30=1,38=1,40=1/1,3;
 2/12=2,40=1/2;
 3/5=5,7=1,11=1,14=-4,25=1,30=1,70=2,71=2,116=1,140=1/1,2,3;
 4/5=101/1;
 5/5=2,38=6,98=1/2;
 8/6=3,8=1,10=1,19=11,30=-1/1;
 9/15=3,16=-3/6;
 11/6=1,8=1,15=11,17=12,24=-1,27=1,28=-2,29=300,32=6,42=3/1,2,10;
 10/6=2,21=1/2;
 8/6=4,8=1,10=1,19=11,30=-1/11,4;
 10/5=1,20=4/2;
 11/12=2,14=11,16=1,17=2,28=-2,42=3,76=2/2,10,12;
 6/7=2,8=2,9=2,10=2/1;
 7/8=11,10=1,12=2,25=1,44=2/1,2,3,16;
 1/10=4,30=1/3;
 99//99;
 Structure from the checkpoint file:  "XeF2Cl2.chk"
 ------------------------------------------------------
 trans-XeF2Cl2 - size1_D2h (hypothetical test compound)
 ------------------------------------------------------
 Charge =  0 Multiplicity = 1
 Redundant internal coordinates found in file.  (old form).
 Xe,0,0.,0.,0.
 F,0,1.9749545049,0.,0.
 F,0,-1.9749545049,0.,0.
 Cl,0,0.,2.5408385561,0.
 Cl,0,0.,-2.5408385561,0.
 Recover connectivity data from disk.

 GradGradGradGradGradGradGradGradGradGradGradGradGradGradGradGradGradGrad
 Berny optimization.
 Initialization pass.
                           ----------------------------
                           !    Initial Parameters    !
                           ! (Angstroms and Degrees)  !
 --------------------------                            --------------------------
 ! Name  Definition              Value          Derivative Info.                !
 --------------------------------------------------------------------------------
 ! R1    R(1,2)                  1.975          calculate D2E/DX2 analytically  !
 ! R2    R(1,3)                  1.975          calculate D2E/DX2 analytically  !
 ! R3    R(1,4)                  2.5408         calculate D2E/DX2 analytically  !
 ! R4    R(1,5)                  2.5408         calculate D2E/DX2 analytically  !
 ! A1    A(2,1,4)               90.0            calculate D2E/DX2 analytically  !
 ! A2    A(2,1,5)               90.0            calculate D2E/DX2 analytically  !
 ! A3    A(3,1,4)               90.0            calculate D2E/DX2 analytically  !
 ! A4    A(3,1,5)               90.0            calculate D2E/DX2 analytically  !
 ! A5    L(2,1,3,5,-1)         180.0            calculate D2E/DX2 analytically  !
 ! A6    L(4,1,5,3,-1)         180.0            calculate D2E/DX2 analytically  !
 ! A7    L(2,1,3,5,-2)         180.0            calculate D2E/DX2 analytically  !
 ! A8    L(4,1,5,3,-2)         180.0            calculate D2E/DX2 analytically  !
 ! D1    D(1,2,4,3)              0.0            calculate D2E/DX2 analytically  !
 ! D2    D(1,2,5,3)              0.0            calculate D2E/DX2 analytically  !
 ! D3    D(1,2,5,4)              0.0            calculate D2E/DX2 analytically  !
 --------------------------------------------------------------------------------
 Trust Radius=3.00D-01 FncErr=1.00D-07 GrdErr=1.00D-07 EigMax=2.50D+02 EigMin=1.00D-04
 Number of steps in this run=      2 maximum allowed number of steps=      2.
 GradGradGradGradGradGradGradGradGradGradGradGradGradGradGradGradGradGrad

                          Input orientation:                          
 ---------------------------------------------------------------------
 Center     Atomic      Atomic             Coordinates (Angstroms)
 Number     Number       Type             X           Y           Z
 ---------------------------------------------------------------------
      1         54           0       -0.000000    0.000000    0.000000
      2          9           0        1.974955   -0.000000    0.000000
      3          9           0       -1.974955    0.000000   -0.000000
      4         17           0        0.000000    2.540839   -0.000000
      5         17           0       -0.000000   -2.540839    0.000000
 ---------------------------------------------------------------------
                    Distance matrix (angstroms):
                    1          2          3          4          5
     1  Xe   0.000000
     2  F    1.974955   0.000000
     3  F    1.974955   3.949909   0.000000
     4  Cl   2.540839   3.218121   3.218121   0.000000
     5  Cl   2.540839   3.218121   3.218121   5.081677   0.000000
 Stoichiometry    Cl2F2Xe
 Framework group  D2H[O(Xe),C2'(F.F),C2"(Cl.Cl)]
 Deg. of freedom     2
 Full point group                 D2H     NOp   8
 Largest Abelian subgroup         D2H     NOp   8
 Largest concise Abelian subgroup D2      NOp   4
                         Standard orientation:                         
 ---------------------------------------------------------------------
 Center     Atomic      Atomic             Coordinates (Angstroms)
 Number     Number       Type             X           Y           Z
 ---------------------------------------------------------------------
      1         54           0        0.000000    0.000000    0.000000
      2          9           0        0.000000    1.974955    0.000000
      3          9           0       -0.000000   -1.974955    0.000000
      4         17           0       -0.000000   -0.000000    2.540839
      5         17           0        0.000000   -0.000000   -2.540839
 ---------------------------------------------------------------------
 Rotational constants (GHZ):           3.4100120           1.1193133           0.8427021
 Standard basis: 3-21G* (6D, 7F)
 There are    30 symmetry adapted cartesian basis functions of AG  symmetry.
 There are     6 symmetry adapted cartesian basis functions of B1G symmetry.
 There are     7 symmetry adapted cartesian basis functions of B2G symmetry.
 There are     9 symmetry adapted cartesian basis functions of B3G symmetry.
 There are     1 symmetry adapted cartesian basis functions of AU  symmetry.
 There are    17 symmetry adapted cartesian basis functions of B1U symmetry.
 There are    14 symmetry adapted cartesian basis functions of B2U symmetry.
 There are    11 symmetry adapted cartesian basis functions of B3U symmetry.
 There are    30 symmetry adapted basis functions of AG  symmetry.
 There are     6 symmetry adapted basis functions of B1G symmetry.
 There are     7 symmetry adapted basis functions of B2G symmetry.
 There are     9 symmetry adapted basis functions of B3G symmetry.
 There are     1 symmetry adapted basis functions of AU  symmetry.
 There are    17 symmetry adapted basis functions of B1U symmetry.
 There are    14 symmetry adapted basis functions of B2U symmetry.
 There are    11 symmetry adapted basis functions of B3U symmetry.
    95 basis functions,   189 primitive gaussians,    95 cartesian basis functions
    53 alpha electrons       53 beta electrons
       nuclear repulsion energy       784.4047617714 Hartrees.
 NAtoms=    5 NActive=    5 NUniq=    3 SFac= 2.78D+00 NAtFMM=   60 NAOKFM=F Big=F
 Integral buffers will be    131072 words long.
 Raffenetti 1 integral format.
 Two-electron integral symmetry is turned on.
 One-electron integrals computed using PRISM.
 NBasis=    95 RedAO= T EigKep=  1.17D-03  NBF=    30     6     7     9     1    17    14    11
 NBsUse=    95 1.00D-06 EigRej= -1.00D+00 NBFU=    30     6     7     9     1    17    14    11
 Initial guess from the checkpoint file:  "XeF2Cl2.chk"
 B after Tr=     0.000000    0.000000    0.000000
         Rot=    1.000000    0.000000    0.000000    0.000000 Ang=   0.00 deg.
 Initial guess orbital symmetries:
       Occupied  (AG) (AG) (B2U) (B1U) (B3U) (B1U) (AG) (AG) (B2U)
                 (B1U) (B3U) (AG) (B3G) (B1G) (B2G) (AG) (AG) (B2U)
                 (B1U) (AG) (AG) (B1U) (AG) (B2U) (B3G) (B3U) (B2G)
                 (B2U) (B1U) (B3U) (AG) (B3G) (B1G) (B2G) (AG)
                 (AG) (B2U) (AG) (B1U) (AG) (B2U) (B1U) (B3U) (B1G)
                 (B3G) (B1U) (B3U) (AG) (B2G) (B2U) (B3G) (B3U)
                 (AG)
       Virtual   (B1U) (B2U) (AG) (B2G) (B3G) (B1G) (AG) (B3U)
                 (B2U) (B1U) (AG) (AG) (B2G) (B3G) (B3U) (B1U)
                 (B2U) (B1U) (AG) (AU) (B1U) (B1G) (AG) (B3U) (B2G)
                 (B3G) (B2U) (B1U) (AG) (AG) (B3U) (B1G) (B3G)
                 (B1U) (B2U) (AG) (B2U) (AG) (AG) (B1U) (AG) (AG)
 Keep R1 ints in memory in symmetry-blocked form, NReq=12085181.
 Requested convergence on RMS density matrix=1.00D-08 within 128 cycles.
 Requested convergence on MAX density matrix=1.00D-06.
 Requested convergence on             energy=1.00D-06.
 No special actions if energy rises.
 SCF Done:  E(RHF) =  -8313.09507667     A.U. after    1 cycles
            NFock=  1  Conv=0.23D-09     -V/T= 2.0036
 ExpMin= 1.33D-01 ExpMax= 1.49D+04 ExpMxC= 1.49D+04 IAcc=3 IRadAn=         5 AccDes= 0.00D+00
 HarFok:  IExCor=  205 AccDes= 0.00D+00 IRadAn=         5 IDoV=-2 UseB2=F ITyADJ=14
 ICtDFT= 12500011 ScaDFX=  1.000000  1.000000  1.000000  1.000000
 Defaulting to unpruned grid for atomic number  54.
 GSVD:  LWork=       -1140 too small for GESVD, short by        4950 words or        4950 for optimal perf.
 Range of M.O.s used for correlation:    31    95
 NBasis=    95 NAE=    53 NBE=    53 NFC=    30 NFV=     0
 NROrb=     65 NOA=    23 NOB=    23 NVA=    42 NVB=    42

 **** Warning!!: The largest alpha MO coefficient is  0.20578659D+02

 Disk-based method using ON**2 memory for 23 occupieds at a time.
 Permanent disk used for amplitudes=     6141534 words.
 Estimated scratch disk usage=    21168369 words.
 Actual    scratch disk usage=    19675377 words.
 JobTyp=1 Pass  1:  I=  31 to  53 NPSUse=  8 ParTrn=T ParDer=T DoDerP=T.
 (rs|ai) integrals will be sorted in core.
 Spin components of T(2) and E(2):
     alpha-alpha T2 =       0.3126488394D-01 E2=     -0.9167471382D-01
     alpha-beta  T2 =       0.1882769871D+00 E2=     -0.4944419594D+00
     beta-beta   T2 =       0.3126488394D-01 E2=     -0.9167471382D-01
 ANorm=    0.1118394722D+01
 E2 =    -0.6777913870D+00 EUMP2 =    -0.83137728680598D+04
 G2DrvN: will do     6 centers at a time, making    1 passes.
 Calling FoFCou, ICntrl=  3107 FMM=F I1Cent=   0 AccDes= 0.00D+00.
 End of G2Drv F.D. properties file   721 does not exist.
 End of G2Drv F.D. properties file   722 does not exist.
 End of G2Drv F.D. properties file   788 does not exist.
          IDoAtm=11111
          Differentiating once with respect to electric field.
                with respect to dipole field.
          Differentiating once with respect to nuclear coordinates.
 Keep R1 ints in memory in symmetry-blocked form, NReq=12085735.
          There are    18 degrees of freedom in the 1st order CPHF.  IDoFFX=6 NUNeed=    18.
     15 vectors produced by pass  0 Test12= 1.24D-14 5.56D-09 XBig12= 1.14D+02 1.02D+01.
 AX will form    15 AO Fock derivatives at one time.
     15 vectors produced by pass  1 Test12= 1.24D-14 5.56D-09 XBig12= 8.55D+00 9.88D-01.
     15 vectors produced by pass  2 Test12= 1.24D-14 5.56D-09 XBig12= 4.32D-01 3.03D-01.
     15 vectors produced by pass  3 Test12= 1.24D-14 5.56D-09 XBig12= 1.12D-02 6.36D-02.
     15 vectors produced by pass  4 Test12= 1.24D-14 5.56D-09 XBig12= 1.29D-04 3.24D-03.
     15 vectors produced by pass  5 Test12= 1.24D-14 5.56D-09 XBig12= 7.26D-07 2.25D-04.
     15 vectors produced by pass  6 Test12= 1.24D-14 5.56D-09 XBig12= 6.01D-09 1.89D-05.
     10 vectors produced by pass  7 Test12= 1.24D-14 5.56D-09 XBig12= 4.04D-11 2.27D-06.
      3 vectors produced by pass  8 Test12= 1.24D-14 5.56D-09 XBig12= 2.92D-13 1.49D-07.
      1 vectors produced by pass  9 Test12= 1.24D-14 5.56D-09 XBig12= 1.18D-15 8.48D-09.
 InvSVY:  IOpt=1 It=  1 EMax= 4.44D-16
 Solved reduced A of dimension   119 with    15 vectors.
 End of Minotr F.D. properties file   721 does not exist.
 End of Minotr F.D. properties file   722 does not exist.
 End of Minotr F.D. properties file   788 does not exist.
 MDV=  1073741824.
 Form MO integral derivatives with frozen-active canonical formalism.
 Discarding MO integrals.
 Reordered first order wavefunction length =      9910152
 In DefCFB: NBatch=  1 ICI= 53 ICA= 42 LFMax= 53
            Large arrays: LIAPS=    80358600 LIARS=    57731310 words.
 Semi-Direct transformation.
 ModeAB=           4 MOrb=            53 LenV=    1073424900
 LASXX=     12075679 LTotXX=    12075679 LenRXX=    25566193
 LTotAB=    13490514 MaxLAS=    12441485 LenRXY=           0
 NonZer=    37641872 LenScr=    57222656 LnRSAI=    12441485
 LnScr1=    19430400 LExtra=           0 Total=    114660734
 MaxDsk=          -1 SrtSym=           T ITran=            4
 JobTyp=0 Pass  1:  I=   1 to  53.
 (rs|ai) integrals will be sorted in core.
 Spin components of T(2) and E(2):
     alpha-alpha T2 =       0.3126488394D-01 E2=     -0.9167471382D-01
     alpha-beta  T2 =       0.1882769871D+00 E2=     -0.4944419594D+00
     beta-beta   T2 =       0.3126488394D-01 E2=     -0.9167471382D-01
 ANorm=    0.1581648984D+01
 E2 =    -0.6777913870D+00 EUMP2 =    -0.83137728680598D+04
          IDoAtm=11111
          Differentiating once with respect to electric field.
                with respect to dipole field.
          Differentiating once with respect to nuclear coordinates.
          There are     1 degrees of freedom in the 1st order CPHF.  IDoFFX=0 NUNeed=     1.
 LinEq1:  Iter=  0 NonCon=     1 RMS=7.34D-03 Max=2.07D-01 NDo=     1
 LinEq1:  Iter=  1 NonCon=     1 RMS=1.71D-03 Max=3.64D-02 NDo=     1
 LinEq1:  Iter=  2 NonCon=     1 RMS=4.73D-04 Max=8.33D-03 NDo=     1
 LinEq1:  Iter=  3 NonCon=     1 RMS=1.29D-04 Max=1.79D-03 NDo=     1
 LinEq1:  Iter=  4 NonCon=     1 RMS=2.37D-05 Max=3.72D-04 NDo=     1
 LinEq1:  Iter=  5 NonCon=     1 RMS=4.32D-06 Max=7.89D-05 NDo=     1
 LinEq1:  Iter=  6 NonCon=     1 RMS=8.84D-07 Max=1.26D-05 NDo=     1
 LinEq1:  Iter=  7 NonCon=     1 RMS=1.37D-07 Max=1.46D-06 NDo=     1
 LinEq1:  Iter=  8 NonCon=     1 RMS=3.72D-08 Max=6.40D-07 NDo=     1
 LinEq1:  Iter=  9 NonCon=     1 RMS=9.93D-09 Max=1.64D-07 NDo=     1
 LinEq1:  Iter= 10 NonCon=     1 RMS=9.44D-10 Max=1.28D-08 NDo=     1
 LinEq1:  Iter= 11 NonCon=     1 RMS=8.91D-11 Max=1.21D-09 NDo=     1
 LinEq1:  Iter= 12 NonCon=     0 RMS=9.37D-12 Max=1.69D-10 NDo=     1
 Linear equations converged to 1.000D-10 1.000D-09 after    12 iterations.
 End of Minotr F.D. properties file   721 does not exist.
 End of Minotr F.D. properties file   722 does not exist.
 End of Minotr F.D. properties file   788 does not exist.
 Symmetrizing basis deriv contribution to polar:
 IMax=3 JMax=2 DiffMx= 0.00D+00
 G2DrvN: will do     6 centers at a time, making    1 passes.
 Calling FoFCou, ICntrl=  3107 FMM=F I1Cent=   0 AccDes= 0.00D+00.
 End of G2Drv F.D. properties file   721 does not exist.
 End of G2Drv F.D. properties file   722 does not exist.
 End of G2Drv F.D. properties file   788 does not exist.
 R2 and R3 integrals will be kept in memory, NReq=    21618160.
 DD1Dir will call FoFMem   1 times, MxPair=      2862
 NAB=  1431 NAA=     0 NBB=     0.
 Discarding MO integrals.

 **********************************************************************

            Population analysis using the SCF Density.

 **********************************************************************

 Orbital symmetries:
       Occupied  (AG) (AG) (B2U) (B1U) (B3U) (B1U) (AG) (AG) (B2U)
                 (B1U) (B3U) (AG) (B3G) (B1G) (B2G) (AG) (AG) (B2U)
                 (B1U) (AG) (AG) (B1U) (AG) (B2U) (B3G) (B3U) (B2G)
                 (B2U) (B1U) (B3U) (AG) (B3G) (B1G) (B2G) (AG)
                 (AG) (B2U) (AG) (B1U) (AG) (B2U) (B1U) (B3U) (B1G)
                 (B3G) (B1U) (B3U) (AG) (B2G) (B2U) (B3G) (B3U)
                 (AG)
       Virtual   (B1U) (B2U) (AG) (B2G) (B3G) (B1G) (AG) (B3U)
                 (B2U) (B1U) (AG) (AG) (B2G) (B3G) (B3U) (B1U)
                 (B2U) (B1U) (AG) (AU) (B1U) (B1G) (AG) (B3U) (B2G)
                 (B3G) (B2U) (B1U) (AG) (AG) (B3U) (B1G) (B3G)
                 (B1U) (B2U) (AG) (B2U) (AG) (AG) (B1U) (AG) (AG)
 The electronic state is 1-AG.
 Alpha  occ. eigenvalues -- **********-188.77522-176.72098-176.72055-176.71834
 Alpha  occ. eigenvalues -- -104.26123-104.26117 -40.36868 -35.10690 -35.10527
 Alpha  occ. eigenvalues --  -35.09772 -26.32145 -26.31965 -26.31221 -26.31032
 Alpha  occ. eigenvalues --  -26.30916 -26.17214 -26.17191 -10.56291 -10.56291
 Alpha  occ. eigenvalues --   -8.14047  -8.02799  -8.02797  -8.02454  -8.02450
 Alpha  occ. eigenvalues --   -8.02448  -8.02445  -6.18493  -6.18311  -6.16486
 Alpha  occ. eigenvalues --   -3.08491  -3.08132  -3.06168  -3.05874  -3.05451
 Alpha  occ. eigenvalues --   -1.57711  -1.56995  -1.16632  -1.10393  -1.03772
 Alpha  occ. eigenvalues --   -0.75101  -0.70966  -0.70472  -0.65503  -0.65317
 Alpha  occ. eigenvalues --   -0.59009  -0.56796  -0.56499  -0.49781  -0.49102
 Alpha  occ. eigenvalues --   -0.49003  -0.47364  -0.41889
 Alpha virt. eigenvalues --   -0.09578   0.01583   0.26934   0.34437   0.39255
 Alpha virt. eigenvalues --    0.40873   0.47074   0.52638   0.56935   0.60615
 Alpha virt. eigenvalues --    0.67174   0.72749   0.80147   0.80180   0.80616
 Alpha virt. eigenvalues --    0.81955   0.82197   0.86377   0.86723   1.11966
 Alpha virt. eigenvalues --    1.11970   1.12022   1.12087   1.12485   1.13467
 Alpha virt. eigenvalues --    1.13621   1.14960   1.30642   1.33452   1.55173
 Alpha virt. eigenvalues --    2.23349   2.27250   2.27813   2.30011   2.37514
 Alpha virt. eigenvalues --    2.46099   3.68412   3.91145   4.32473   4.34281
 Alpha virt. eigenvalues --    7.84862 233.98295
          Condensed to atoms (all electrons):
               1          2          3          4          5
     1  Xe  52.074519   0.163292   0.163292   0.065543   0.065543
     2  F    0.163292   9.257510   0.000005  -0.002306  -0.002306
     3  F    0.163292   0.000005   9.257510  -0.002306  -0.002306
     4  Cl   0.065543  -0.002306  -0.002306  17.255388   0.001391
     5  Cl   0.065543  -0.002306  -0.002306   0.001391  17.255388
 Mulliken charges:
               1
     1  Xe   1.467811
     2  F   -0.416195
     3  F   -0.416195
     4  Cl  -0.317710
     5  Cl  -0.317710
 Sum of Mulliken charges =  -0.00000
 Mulliken charges with hydrogens summed into heavy atoms:
               1
     1  Xe   1.467811
     2  F   -0.416195
     3  F   -0.416195
     4  Cl  -0.317710
     5  Cl  -0.317710
 APT charges:
               1
     1  Xe   1.829866
     2  F   -0.447954
     3  F   -0.447954
     4  Cl  -0.466979
     5  Cl  -0.466979
 Sum of APT charges =   0.00000
 APT charges with hydrogens summed into heavy atoms:
               1
     1  Xe   1.829866
     2  F   -0.447954
     3  F   -0.447954
     4  Cl  -0.466979
     5  Cl  -0.466979
 Electronic spatial extent (au):  <R**2>=           1188.4321
 Charge=             -0.0000 electrons
 Dipole moment (field-independent basis, Debye):
    X=              0.0000    Y=              0.0000    Z=              0.0000  Tot=              0.0000
 Quadrupole moment (field-independent basis, Debye-Ang):
   XX=            -61.0613   YY=            -72.9095   ZZ=            -72.9877
   XY=             -0.0000   XZ=              0.0000   YZ=              0.0000
 Traceless Quadrupole moment (field-independent basis, Debye-Ang):
   XX=              7.9249   YY=             -3.9233   ZZ=             -4.0016
   XY=             -0.0000   XZ=              0.0000   YZ=              0.0000
 Octapole moment (field-independent basis, Debye-Ang**2):
  XXX=             -0.0000  YYY=              0.0000  ZZZ=             -0.0000  XYY=             -0.0000
  XXY=              0.0000  XXZ=             -0.0000  XZZ=             -0.0000  YZZ=              0.0000
  YYZ=             -0.0000  XYZ=              0.0000
 Hexadecapole moment (field-independent basis, Debye-Ang**3):
 XXXX=            -60.0710 YYYY=           -326.9833 ZZZZ=          -1089.4036 XXXY=             -0.0000
 XXXZ=              0.0000 YYYX=             -0.0000 YYYZ=             -0.0000 ZZZX=              0.0000
 ZZZY=              0.0000 XXYY=            -55.8295 XXZZ=           -194.4582 YYZZ=           -229.7464
 XXYZ=             -0.0000 YYXZ=              0.0000 ZZXY=             -0.0000
 N-N= 7.844047617714D+02 E-N=-2.127802945970D+04  KE= 8.283153967670D+03
 Symmetry AG   KE= 4.487968119830D+03
 Symmetry B1G  KE= 2.091664321512D+02
 Symmetry B2G  KE= 2.481627533667D+02
 Symmetry B3G  KE= 2.543994772598D+02
 Symmetry AU   KE= 2.440942382131D-36
 Symmetry B1U  KE= 1.211878648736D+03
 Symmetry B2U  KE= 9.730229834548D+02
 Symmetry B3U  KE= 8.985555528717D+02
  Exact polarizability:      22.541       0.000      48.532      -0.000       0.000     122.868
 Approx polarizability:      21.588       0.000      52.613      -0.000      -0.000     162.287
 Calling FoFJK, ICntrl=  10100127 FMM=F ISym2X=1 I1Cent= 0 IOpClX= 0 NMat=1 NMatS=1 NMatT=0.
 Full mass-weighted force constant matrix:
 Low frequencies ---   -0.0253    0.0030    0.0165    0.5650    1.9931    3.8807
 Low frequencies ---   86.2832   98.1742  153.0795
 Diagonal vibrational polarizability:
       12.8460562      16.1018018      23.6756494
 Harmonic frequencies (cm**-1), IR intensities (KM/Mole), Raman scattering
 activities (A**4/AMU), depolarization ratios for plane and unpolarized
 incident light, reduced masses (AMU), force constants (mDyne/A),
 and normal coordinates:
                           1         2         3         4         5
                          B2U       B3U       B3G       B1U       AG
       Frequencies ---    86.2832   98.1742  153.0795  185.5812  223.9080
    Reduced masses ---    38.9979   33.7467   21.4154   21.1623   34.9612
   Force constants ---     0.1711    0.1916    0.2957    0.4294    1.0327
    IR Intensities ---     2.7651    1.7736    0.0000    0.5172    0.0000
 Coord Atom Element:
   1     1    54         -0.00000  -0.19279  -0.00000   0.00000   0.00000
   2     1    54         -0.25574   0.00000   0.00000   0.00000   0.00000
   3     1    54         -0.00000   0.00000  -0.00000  -0.08711  -0.00000
   1     2     9         -0.00000  -0.38867  -0.00000   0.00000   0.00000
   2     2     9         -0.26897   0.00000   0.00000   0.00000  -0.01552
   3     2     9          0.00000   0.00000   0.65140   0.67474   0.00000
   1     3     9         -0.00000  -0.38867  -0.00000   0.00000   0.00000
   2     3     9         -0.26897   0.00000   0.00000  -0.00000   0.01552
   3     3     9         -0.00000   0.00000  -0.65140   0.67474   0.00000
   1     4    17          0.00000   0.57477   0.00000  -0.00000  -0.00000
   2     4    17          0.62846  -0.00000   0.27508  -0.00000  -0.00000
   3     4    17          0.00000   0.00000  -0.00000  -0.20230   0.70694
   1     5    17          0.00000   0.57477   0.00000  -0.00000  -0.00000
   2     5    17          0.62846  -0.00000  -0.27508   0.00000  -0.00000
   3     5    17         -0.00000  -0.00000  -0.00000  -0.20230  -0.70694
                           6         7         8         9
                          B3U       B1U       AG        B2U
       Frequencies ---   249.4400  335.4075  560.0966  674.4876
    Reduced masses ---    26.0863   48.2791   19.0007   23.6270
   Force constants ---     0.9563    3.2000    3.5119    6.3330
    IR Intensities ---    18.2513   97.2831    0.0000  103.2323
 Coord Atom Element:
   1     1    54         -0.24550   0.00000  -0.00000   0.00000
   2     1    54         -0.00000   0.00000   0.00000  -0.20245
   3     1    54          0.00000   0.38394   0.00000   0.00000
   1     2     9          0.67897  -0.00000   0.00000  -0.00000
   2     2     9         -0.00000  -0.00000   0.70706   0.69244
   3     2     9         -0.00000  -0.17506   0.00000  -0.00000
   1     3     9          0.67897  -0.00000   0.00000  -0.00000
   2     3     9          0.00000   0.00000  -0.70706   0.69244
   3     3     9         -0.00000  -0.17506   0.00000   0.00000
   1     4    17          0.09414  -0.00000  -0.00000   0.00000
   2     4    17          0.00000   0.00000  -0.00000   0.00563
   3     4    17         -0.00000  -0.62901   0.00843   0.00000
   1     5    17          0.09414  -0.00000  -0.00000   0.00000
   2     5    17          0.00000  -0.00000  -0.00000   0.00563
   3     5    17          0.00000  -0.62901  -0.00843  -0.00000
 Harmonic frequencies (cm**-1), IR intensities (KM/Mole), Raman scattering
 activities (A**4/AMU), depolarization ratios for plane and unpolarized
 incident light, reduced masses (AMU), force constants (mDyne/A),
 and normal coordinates:
                      1                      2                      3
                     B2U                    B3U                    B3G
 Frequencies --     86.2832                98.1742               153.0795
 Red. masses --     38.9979                33.7467                21.4154
 Frc consts  --      0.1711                 0.1916                 0.2957
 IR Inten    --      2.7651                 1.7736                 0.0000
  Atom  AN      X      Y      Z        X      Y      Z        X      Y      Z
     1  54    -0.00  -0.26  -0.00    -0.19   0.00   0.00    -0.00   0.00  -0.00
     2   9    -0.00  -0.27   0.00    -0.39   0.00   0.00    -0.00   0.00   0.65
     3   9    -0.00  -0.27  -0.00    -0.39   0.00   0.00    -0.00   0.00  -0.65
     4  17     0.00   0.63   0.00     0.57  -0.00   0.00     0.00   0.28  -0.00
     5  17     0.00   0.63  -0.00     0.57  -0.00  -0.00     0.00  -0.28  -0.00
                      4                      5                      6
                     B1U                    AG                     B3U
 Frequencies --    185.5812               223.9080               249.4400
 Red. masses --     21.1623                34.9612                26.0863
 Frc consts  --      0.4294                 1.0327                 0.9563
 IR Inten    --      0.5172                 0.0000                18.2513
  Atom  AN      X      Y      Z        X      Y      Z        X      Y      Z
     1  54     0.00   0.00  -0.09     0.00   0.00  -0.00    -0.25  -0.00   0.00
     2   9     0.00   0.00   0.67     0.00  -0.02   0.00     0.68  -0.00  -0.00
     3   9     0.00  -0.00   0.67     0.00   0.02   0.00     0.68   0.00  -0.00
     4  17    -0.00  -0.00  -0.20    -0.00  -0.00   0.71     0.09   0.00  -0.00
     5  17    -0.00   0.00  -0.20    -0.00  -0.00  -0.71     0.09   0.00   0.00
                      7                      8                      9
                     B1U                    AG                     B2U
 Frequencies --    335.4075               560.0966               674.4876
 Red. masses --     48.2791                19.0007                23.6270
 Frc consts  --      3.2000                 3.5119                 6.3330
 IR Inten    --     97.2831                 0.0000               103.2323
  Atom  AN      X      Y      Z        X      Y      Z        X      Y      Z
     1  54     0.00   0.00   0.38    -0.00   0.00   0.00     0.00  -0.20   0.00
     2   9    -0.00  -0.00  -0.18     0.00   0.71   0.00    -0.00   0.69  -0.00
     3   9    -0.00   0.00  -0.18     0.00  -0.71   0.00    -0.00   0.69   0.00
     4  17    -0.00   0.00  -0.63    -0.00  -0.00   0.01     0.00   0.01   0.00
     5  17    -0.00  -0.00  -0.63    -0.00  -0.00  -0.01     0.00   0.01  -0.00

 -------------------
 - Thermochemistry -
 -------------------
 Temperature   298.150 Kelvin.  Pressure   1.00000 Atm.
 Atom     1 has atomic number 54 and mass 131.90420
 Atom     2 has atomic number  9 and mass  18.99840
 Atom     3 has atomic number  9 and mass  18.99840
 Atom     4 has atomic number 17 and mass  34.96885
 Atom     5 has atomic number 17 and mass  34.96885
 Molecular mass:   239.83871 amu.
 Principal axes and moments of inertia in atomic units:
                           1         2         3
     Eigenvalues --   529.247751612.364602141.61236
           X            0.00000  -0.00000   1.00000
           Y            0.00000   1.00000  -0.00000
           Z            1.00000  -0.00000  -0.00000
 This molecule is an asymmetric top.
 Rotational symmetry number  4.
 Warning -- assumption of classical behavior for rotation
           may cause significant error
 Rotational temperatures (Kelvin)      0.16365     0.05372     0.04044
 Rotational constants (GHZ):           3.41001     1.11931     0.84270
 Zero-point vibrational energy      15350.8 (Joules/Mol)
                                    3.66894 (Kcal/Mol)
 Warning -- explicit consideration of   8 degrees of freedom as
           vibrations may cause significant error
 Vibrational temperatures:    124.14   141.25   220.25   267.01   322.15
          (Kelvin)            358.89   482.58   805.85   970.44
 
 Zero-point correction=                           0.005847 (Hartree/Particle)
 Thermal correction to Energy=                    0.013096
 Thermal correction to Enthalpy=                  0.014040
 Thermal correction to Gibbs Free Energy=        -0.027039
 Sum of electronic and zero-point Energies=          -8313.767021
 Sum of electronic and thermal Energies=             -8313.759772
 Sum of electronic and thermal Enthalpies=           -8313.758828
 Sum of electronic and thermal Free Energies=        -8313.799907
 
                     E (Thermal)             CV                S
                      KCal/Mol        Cal/Mol-Kelvin    Cal/Mol-Kelvin
 Total                    8.218             20.799             86.459
 Electronic               0.000              0.000              0.000
 Translational            0.889              2.981             42.326
 Rotational               0.889              2.981             26.238
 Vibrational              6.441             14.838             17.895
 Vibration     1          0.601              1.959              3.743
 Vibration     2          0.604              1.950              3.490
 Vibration     3          0.619              1.899              2.634
 Vibration     4          0.632              1.860              2.272
 Vibration     5          0.649              1.805              1.927
 Vibration     6          0.662              1.764              1.735
 Vibration     7          0.717              1.605              1.234
 Vibration     8          0.916              1.118              0.524
                       Q            Log10(Q)             Ln(Q)
 Total Bot       0.273520D+13         12.436989         28.637226
 Total V=0       0.133764D+16         15.126338         34.829680
 Vib (Bot)       0.154860D+00         -0.810061         -1.865233
 Vib (Bot)    1  0.238442D+01          0.377382          0.868955
 Vib (Bot)    2  0.209117D+01          0.320390          0.737725
 Vib (Bot)    3  0.132341D+01          0.121694          0.280211
 Vib (Bot)    4  0.108017D+01          0.033490          0.077114
 Vib (Bot)    5  0.881956D+00         -0.054553         -0.125613
 Vib (Bot)    6  0.782646D+00         -0.106435         -0.245075
 Vib (Bot)    7  0.555209D+00         -0.255544         -0.588411
 Vib (Bot)    8  0.277466D+00         -0.556791         -1.282058
 Vib (V=0)       0.757335D+02          1.879288          4.327221
 Vib (V=0)    1  0.293628D+01          0.467797          1.077142
 Vib (V=0)    2  0.265012D+01          0.423265          0.974604
 Vib (V=0)    3  0.191471D+01          0.282104          0.649568
 Vib (V=0)    4  0.169028D+01          0.227958          0.524892
 Vib (V=0)    5  0.151383D+01          0.180076          0.414641
 Vib (V=0)    6  0.142873D+01          0.154949          0.356784
 Vib (V=0)    7  0.124717D+01          0.095924          0.220874
 Vib (V=0)    8  0.107183D+01          0.030125          0.069366
 Electronic      0.100000D+01          0.000000          0.000000
 Translational   0.145993D+09          8.164333         18.799071
 Rotational      0.120981D+06          5.082717         11.703389
 ***** Axes restored to original set *****
 -------------------------------------------------------------------
 Center     Atomic                   Forces (Hartrees/Bohr)
 Number     Number              X              Y              Z
 -------------------------------------------------------------------
      1       54           0.000000000    0.000000000   -0.000000000
      2        9          -0.000040402    0.000000000   -0.000000000
      3        9           0.000040402    0.000000000    0.000000000
      4       17          -0.000000000   -0.000002156   -0.000000000
      5       17          -0.000000000    0.000002156   -0.000000000
 -------------------------------------------------------------------
 Cartesian Forces:  Max     0.000040402 RMS     0.000014774
 FormGI is forming the generalized inverse of G from B-inverse, IUseBI=4.

 GradGradGradGradGradGradGradGradGradGradGradGradGradGradGradGradGradGrad
 Berny optimization.
 Internal  Forces:  Max     0.000040402 RMS     0.000014774
 Search for a local minimum.
 Step number   1 out of a maximum of    2
 All quantities printed in internal units (Hartrees-Bohrs-Radians)
 Second derivative matrix not updated -- analytic derivatives used.
 The second derivative matrix:
                          R1        R2        R3        R4        A1
           R1           0.23904
           R2          -0.01354   0.23904
           R3           0.00208   0.00208   0.07896
           R4           0.00208   0.00208  -0.01253   0.07896
           A1          -0.00129   0.00129  -0.00081   0.00081   0.03680
           A2          -0.00129   0.00129   0.00081  -0.00081  -0.02666
           A3           0.00129  -0.00129  -0.00081   0.00081  -0.01749
           A4           0.00129  -0.00129   0.00081  -0.00081   0.00735
           A5           0.00000   0.00000   0.00162  -0.00162  -0.01931
           A6           0.00258  -0.00258  -0.00000  -0.00000  -0.01014
           A7           0.00000  -0.00000   0.00000  -0.00000   0.00000
           A8          -0.00000  -0.00000   0.00000  -0.00000   0.00000
           D1          -0.00000   0.00000  -0.00000   0.00000  -0.00000
           D2           0.00000  -0.00000   0.00000  -0.00000   0.00000
           D3           0.00000   0.00000  -0.00000   0.00000  -0.00000
                          A2        A3        A4        A5        A6
           A2           0.03680
           A3           0.00735   0.03680
           A4          -0.01749  -0.02666   0.03680
           A5           0.01931  -0.01931   0.01931   0.03862
           A6          -0.01014   0.01014   0.01014  -0.00000   0.02027
           A7           0.00000  -0.00000  -0.00000  -0.00000  -0.00000
           A8           0.00000  -0.00000   0.00000   0.00000  -0.00000
           D1          -0.00000   0.00000   0.00000   0.00000   0.00000
           D2           0.00000  -0.00000  -0.00000  -0.00000  -0.00000
           D3          -0.00000   0.00000  -0.00000  -0.00000   0.00000
                          A7        A8        D1        D2        D3
           A7           0.06692
           A8          -0.01332   0.04451
           D1          -0.04238   0.00844   0.02684
           D2           0.04238  -0.00844  -0.02684   0.02684
           D3           0.01085  -0.03626  -0.00687   0.00687   0.02954
 ITU=  0
     Eigenvalues ---    0.04042   0.06456   0.06633   0.07654   0.08829
     Eigenvalues ---    0.09219   0.13009   0.22560   0.25271
 Angle between quadratic step and forces=   3.73 degrees.
 Linear search not attempted -- first point.
 Iteration  1 RMS(Cart)=  0.00006574 RMS(Int)=  0.00000000
 Iteration  2 RMS(Cart)=  0.00000000 RMS(Int)=  0.00000000
 ClnCor:  largest displacement from symmetrization is 8.61D-12 for atom     3.
 Variable       Old X    -DE/DX   Delta X   Delta X   Delta X     New X
                                 (Linear)    (Quad)   (Total)
    R1        3.73212  -0.00004   0.00000  -0.00018  -0.00018   3.73194
    R2        3.73212  -0.00004   0.00000  -0.00018  -0.00018   3.73194
    R3        4.80149  -0.00000   0.00000  -0.00002  -0.00002   4.80147
    R4        4.80149  -0.00000   0.00000  -0.00002  -0.00002   4.80147
    A1        1.57080   0.00000   0.00000   0.00000   0.00000   1.57080
    A2        1.57080   0.00000   0.00000   0.00000   0.00000   1.57080
    A3        1.57080  -0.00000   0.00000  -0.00000   0.00000   1.57080
    A4        1.57080  -0.00000   0.00000  -0.00000   0.00000   1.57080
    A5        3.14159  -0.00000   0.00000  -0.00000   0.00000   3.14159
    A6        3.14159  -0.00000   0.00000  -0.00000   0.00000   3.14159
    A7        3.14159  -0.00000   0.00000  -0.00000   0.00000   3.14159
    A8        3.14159  -0.00000   0.00000  -0.00000   0.00000   3.14159
    D1       -0.00000   0.00000   0.00000   0.00000   0.00000   0.00000
    D2        0.00000  -0.00000   0.00000  -0.00000   0.00000   0.00000
    D3       -0.00000   0.00000   0.00000   0.00000   0.00000   0.00000
         Item               Value     Threshold  Converged?
 Maximum Force            0.000040     0.000450     YES
 RMS     Force            0.000015     0.000300     YES
 Maximum Displacement     0.000179     0.001800     YES
 RMS     Displacement     0.000066     0.001200     YES
 Predicted change in Energy=-7.268761D-09
 Optimization completed.
    -- Stationary point found.
                           ----------------------------
                           !   Optimized Parameters   !
                           ! (Angstroms and Degrees)  !
 --------------------------                            --------------------------
 ! Name  Definition              Value          Derivative Info.                !
 --------------------------------------------------------------------------------
 ! R1    R(1,2)                  1.975          -DE/DX =    0.0                 !
 ! R2    R(1,3)                  1.975          -DE/DX =    0.0                 !
 ! R3    R(1,4)                  2.5408         -DE/DX =    0.0                 !
 ! R4    R(1,5)                  2.5408         -DE/DX =    0.0                 !
 ! A1    A(2,1,4)               90.0            -DE/DX =    0.0                 !
 ! A2    A(2,1,5)               90.0            -DE/DX =    0.0                 !
 ! A3    A(3,1,4)               90.0            -DE/DX =    0.0                 !
 ! A4    A(3,1,5)               90.0            -DE/DX =    0.0                 !
 ! A5    L(2,1,3,5,-1)         180.0            -DE/DX =    0.0                 !
 ! A6    L(4,1,5,3,-1)         180.0            -DE/DX =    0.0                 !
 ! A7    L(2,1,3,5,-2)         180.0            -DE/DX =    0.0                 !
 ! A8    L(4,1,5,3,-2)         180.0            -DE/DX =    0.0                 !
 ! D1    D(1,2,4,3)              0.0            -DE/DX =    0.0                 !
 ! D2    D(1,2,5,3)              0.0            -DE/DX =    0.0                 !
 ! D3    D(1,2,5,4)              0.0            -DE/DX =    0.0                 !
 --------------------------------------------------------------------------------
 GradGradGradGradGradGradGradGradGradGradGradGradGradGradGradGradGradGrad

 Dipole is zero, so no output in dipole orientation.

 ----------------------------------------------------------------------

 Electric dipole moment (input orientation):
 (Debye = 10**-18 statcoulomb cm , SI units = C m)
                  (au)            (Debye)         (10**-30 SI)
   Tot        0.000000D+00      0.000000D+00      0.000000D+00
   x          0.000000D+00      0.000000D+00      0.000000D+00
   y          0.000000D+00      0.000000D+00      0.000000D+00
   z          0.000000D+00      0.000000D+00      0.000000D+00

 Dipole polarizability, Alpha (input orientation).
 (esu units = cm**3 , SI units = C**2 m**2 J**-1)
 Alpha(0;0):
               (au)            (10**-24 esu)      (10**-40 SI)
   iso        0.646470D+02      0.957970D+01      0.106589D+02
   aniso      0.901852D+02      0.133641D+02      0.148695D+02
   xx         0.485318D+02      0.719168D+01      0.800182D+01
   yx         0.000000D+00      0.000000D+00      0.000000D+00
   yy         0.122868D+03      0.182071D+02      0.202582D+02
   zx         0.000000D+00      0.000000D+00      0.000000D+00
   zy         0.000000D+00      0.000000D+00      0.000000D+00
   zz         0.225413D+02      0.334028D+01      0.371657D+01

 ----------------------------------------------------------------------
 Unable to Open any file for archive entry.
 1\1\GINC-BS001\Freq\RMP2-FC\3-21G*\Cl2F2Xe1\PNATT\07-Aug-2026\0\\#N Ge
 om=AllCheck Guess=TCheck SCRF=Check GenChk RMP2(FC)/3-21G* Freq\\trans
 -XeF2Cl2 - size1_D2h (hypothetical test compound)\\0,1\Xe,0.,0.,0.\F,1
 .9749545049,0.,0.\F,-1.9749545049,0.,0.\Cl,0.,2.5408385561,0.\Cl,0.,-2
 .5408385561,0.\\Version=ES64L-G16RevC.01\State=1-AG\HF=-8313.0950767\M
 P2=-8313.7728681\RMSD=2.348e-10\RMSF=1.477e-05\ZeroPoint=0.0058468\The
 rmal=0.0130962\ETot=-8313.7597718\HTot=-8313.7588276\GTot=-8313.799906
 9\Dipole=0.,0.,0.\DipoleDeriv=2.0754336,0.,0.,0.,2.359941,0.,0.,0.,1.0
 542246,-0.8371203,0.,0.,0.,-0.2153899,0.,0.,0.,-0.2913519,-0.8371203,0
 .,0.,0.,-0.2153899,0.,0.,0.,-0.2913519,-0.2005965,0.,0.,0.,-0.9645806,
 0.,0.,0.,-0.2357604,-0.2005965,0.,0.,0.,-0.9645806,0.,0.,0.,-0.2357604
 \Polar=48.5318322,0.,122.8678535,0.,0.,22.5413427\PG=D02H [O(Xe1),C2'(
 F1.F1),C2"(Cl1.Cl1)]\NImag=0\\0.52784523,0.,0.23429136,0.,0.,0.1016417
 6,-0.25473696,0.,0.,0.23904100,0.,-0.02392378,0.,0.,0.01744055,0.,0.,-
 0.03567473,0.,0.,0.01561399,-0.25473696,0.,0.,0.01354499,0.,0.,0.23904
 100,0.,-0.02392378,0.,0.,0.00475166,0.,0.,0.01744055,0.,0.,-0.03567474
 ,0.,0.,0.01560316,0.,0.,0.01561399,-0.00918565,0.,0.,0.00107549,0.0049
 2723,0.,0.00107549,-0.00492723,0.,0.00734743,0.,-0.09322190,0.,0.00207
 960,0.00086578,0.,-0.00207960,0.00086578,0.,0.,0.07896362,0.,0.,-0.015
 14615,0.,0.,0.00222879,0.,0.,0.00222879,0.,0.,0.00534449,-0.00918565,0
 .,0.,0.00107549,-0.00492723,0.,0.00107549,0.00492723,0.,-0.00031275,0.
 ,0.,0.00734743,0.,-0.09322190,0.,-0.00207960,0.00086578,0.,0.00207960,
 0.00086578,0.,0.,0.01252672,0.,0.,0.07896362,0.,0.,-0.01514615,0.,0.,0
 .00222879,0.,0.,0.00222879,0.,0.,0.00534407,0.,0.,0.00534449\\0.,0.,0.
 ,0.00004040,0.,0.,-0.00004040,0.,0.,0.,0.00000216,0.,0.,-0.00000216,0.
 \\\@
 The archive entry for this job was punched.


 WHEN IT COMES TO CASH FLOW, IT SEEMS LIKE THE TIDE IS ALWAYS GOING OUT.
 Job cpu time:       0 days  0 hours  4 minutes 33.5 seconds.
 Elapsed time:       0 days  0 hours  0 minutes 34.2 seconds.
 File lengths (MBytes):  RWF=   1196 Int=      0 D2E=      0 Chk=      2 Scr=      1
 Normal termination of Gaussian 16 at Fri Aug  7 15:50:48 2026.
