 Entering Gaussian System, Link 0=g16
 Input=Naphthalene.com
 Output=Naphthalene.log
 Initial command:
 /opt/g16/g16/l1.exe "/home/pnatt/scratch/Gau-2531107.inp" -scrdir="/home/pnatt/scratch/"
 Entering Link 1 = /opt/g16/g16/l1.exe PID=   2531136.
  
 Copyright (c) 1988-2019, Gaussian, Inc.  All Rights Reserved.
  
 This is part of the Gaussian(R) 16 program.  It is based on
 the Gaussian(R) 09 system (copyright 2009, Gaussian, Inc.),
 the Gaussian(R) 03 system (copyright 2003, Gaussian, Inc.),
 the Gaussian(R) 98 system (copyright 1998, Gaussian, Inc.),
 the Gaussian(R) 94 system (copyright 1995, Gaussian, Inc.),
 the Gaussian 92(TM) system (copyright 1992, Gaussian, Inc.),
 the Gaussian 90(TM) system (copyright 1990, Gaussian, Inc.),
 the Gaussian 88(TM) system (copyright 1988, Gaussian, Inc.),
 the Gaussian 86(TM) system (copyright 1986, Carnegie Mellon
 University), and the Gaussian 82(TM) system (copyright 1983,
 Carnegie Mellon University). Gaussian is a federally registered
 trademark of Gaussian, Inc.
  
 This software contains proprietary and confidential information,
 including trade secrets, belonging to Gaussian, Inc.
  
 This software is provided under written license and may be
 used, copied, transmitted, or stored only in accord with that
 written license.
  
 The following legend is applicable only to US Government
 contracts under FAR:
  
                    RESTRICTED RIGHTS LEGEND
  
 Use, reproduction and disclosure by the US Government is
 subject to restrictions as set forth in subparagraphs (a)
 and (c) of the Commercial Computer Software - Restricted
 Rights clause in FAR 52.227-19.
  
 Gaussian, Inc.
 340 Quinnipiac St., Bldg. 40, Wallingford CT 06492
  
  
 ---------------------------------------------------------------
 Warning -- This program may not be used in any manner that
 competes with the business of Gaussian, Inc. or will provide
 assistance to any competitor of Gaussian, Inc.  The licensee
 of this program is prohibited from giving any competitor of
 Gaussian, Inc. access to this program.  By using this program,
 the user acknowledges that Gaussian, Inc. is engaged in the
 business of creating and licensing software in the field of
 computational chemistry and represents and warrants to the
 licensee that it is not a competitor of Gaussian, Inc. and that
 it will not use this program in any manner prohibited above.
 ---------------------------------------------------------------
  

 Cite this work as:
 Gaussian 16, Revision C.01,
 M. J. Frisch, G. W. Trucks, H. B. Schlegel, G. E. Scuseria, 
 M. A. Robb, J. R. Cheeseman, G. Scalmani, V. Barone, 
 G. A. Petersson, H. Nakatsuji, X. Li, M. Caricato, A. V. Marenich, 
 J. Bloino, B. G. Janesko, R. Gomperts, B. Mennucci, H. P. Hratchian, 
 J. V. Ortiz, A. F. Izmaylov, J. L. Sonnenberg, D. Williams-Young, 
 F. Ding, F. Lipparini, F. Egidi, J. Goings, B. Peng, A. Petrone, 
 T. Henderson, D. Ranasinghe, V. G. Zakrzewski, J. Gao, N. Rega, 
 G. Zheng, W. Liang, M. Hada, M. Ehara, K. Toyota, R. Fukuda, 
 J. Hasegawa, M. Ishida, T. Nakajima, Y. Honda, O. Kitao, H. Nakai, 
 T. Vreven, K. Throssell, J. A. Montgomery, Jr., J. E. Peralta, 
 F. Ogliaro, M. J. Bearpark, J. J. Heyd, E. N. Brothers, K. N. Kudin, 
 V. N. Staroverov, T. A. Keith, R. Kobayashi, J. Normand, 
 K. Raghavachari, A. P. Rendell, J. C. Burant, S. S. Iyengar, 
 J. Tomasi, M. Cossi, J. M. Millam, M. Klene, C. Adamo, R. Cammi, 
 J. W. Ochterski, R. L. Martin, K. Morokuma, O. Farkas, 
 J. B. Foresman, and D. J. Fox, Gaussian, Inc., Wallingford CT, 2019.
 
 ******************************************
 Gaussian 16:  ES64L-G16RevC.01  3-Jul-2019
                14-Aug-2026 
 ******************************************
 %mem=8GB
 %nprocshared=8
 Will use up to    8 processors via shared memory.
 %chk=Naphthalene.chk
 -------------------------------------------------------------
 # opt freq=hpmodes mp2/3-21g geom=connectivity symmetry=loose
 -------------------------------------------------------------
 1/18=20,19=15,38=1,57=2/1,3;
 2/9=110,12=2,17=4,18=3,40=1/2;
 3/5=5,11=9,25=1,30=1,71=1/1,2,3;
 4//1;
 5/5=2,38=5/2;
 8/6=4,10=1/1;
 9/15=2,16=-3/6;
 10/5=1/2;
 6/7=2,8=2,9=2,10=2/1;
 7/12=2/1,2,3,16;
 1/18=20,19=15/3(2);
 2/9=110/2;
 99//99;
 2/9=110/2;
 3/5=5,11=9,25=1,30=1,71=1/1,2,3;
 4/5=5,16=3,69=1/1;
 5/5=2,38=5/2;
 8/6=4,10=1/1;
 9/15=2,16=-3/6;
 10/5=1/2;
 7/12=2/1,2,3,16;
 1/18=20,19=15/3(-8);
 2/9=110/2;
 6/7=2,8=2,9=2,10=2/1;
 99/9=10/99;
 ---------------------------------
 Naphthalene C10H8 - size6to10_D2h
 ---------------------------------
 Symbolic Z-matrix:
 Charge =  0 Multiplicity = 1
 C                    -0.8457    0.13848  -2.67925 
 C                    -0.14454   1.33704  -2.58452 
 C                     0.51782   1.66625  -1.4007 
 C                     0.48694   0.79969  -0.29593 
 C                     1.14783   1.11565   0.90231 
 C                     1.10718   0.24312   1.99114 
 C                     0.40602  -0.95544   1.89641 
 C                    -0.25635  -1.28464   0.71259 
 C                    -0.22546  -0.41809  -0.39218 
 C                    -0.88636  -0.73405  -1.59042 
 H                    -1.36178  -0.1189   -3.60041 
 H                    -0.11218   2.01716  -3.43158 
 H                     1.06041   2.60719  -1.34569 
 H                     1.70082   2.04751   0.99533 
 H                     1.62325   0.5005    2.9123 
 H                     0.37366  -1.63556   2.74347 
 H                    -0.79894  -2.22558   0.65758 
 H                    -1.43936  -1.6659   -1.68344 
 

 GradGradGradGradGradGradGradGradGradGradGradGradGradGradGradGradGradGrad
 Berny optimization.
 Initialization pass.
                           ----------------------------
                           !    Initial Parameters    !
                           ! (Angstroms and Degrees)  !
 --------------------------                            --------------------------
 ! Name  Definition              Value          Derivative Info.                !
 --------------------------------------------------------------------------------
 ! R1    R(1,2)                  1.3918         estimate D2E/DX2                !
 ! R2    R(1,10)                 1.3959         estimate D2E/DX2                !
 ! R3    R(1,11)                 1.0868         estimate D2E/DX2                !
 ! R4    R(2,3)                  1.3959         estimate D2E/DX2                !
 ! R5    R(2,12)                 1.0868         estimate D2E/DX2                !
 ! R6    R(3,4)                  1.4044         estimate D2E/DX2                !
 ! R7    R(3,13)                 1.0876         estimate D2E/DX2                !
 ! R8    R(4,5)                  1.4044         estimate D2E/DX2                !
 ! R9    R(4,9)                  1.4141         estimate D2E/DX2                !
 ! R10   R(5,6)                  1.3959         estimate D2E/DX2                !
 ! R11   R(5,14)                 1.0876         estimate D2E/DX2                !
 ! R12   R(6,7)                  1.3918         estimate D2E/DX2                !
 ! R13   R(6,15)                 1.0868         estimate D2E/DX2                !
 ! R14   R(7,8)                  1.3959         estimate D2E/DX2                !
 ! R15   R(7,16)                 1.0868         estimate D2E/DX2                !
 ! R16   R(8,9)                  1.4044         estimate D2E/DX2                !
 ! R17   R(8,17)                 1.0876         estimate D2E/DX2                !
 ! R18   R(9,10)                 1.4044         estimate D2E/DX2                !
 ! R19   R(10,18)                1.0876         estimate D2E/DX2                !
 ! A1    A(2,1,10)             119.9906         estimate D2E/DX2                !
 ! A2    A(2,1,11)             120.0567         estimate D2E/DX2                !
 ! A3    A(10,1,11)            119.9527         estimate D2E/DX2                !
 ! A4    A(1,2,3)              119.9907         estimate D2E/DX2                !
 ! A5    A(1,2,12)             120.0567         estimate D2E/DX2                !
 ! A6    A(3,2,12)             119.9526         estimate D2E/DX2                !
 ! A7    A(2,3,4)              120.7423         estimate D2E/DX2                !
 ! A8    A(2,3,13)             118.9253         estimate D2E/DX2                !
 ! A9    A(4,3,13)             120.3324         estimate D2E/DX2                !
 ! A10   A(3,4,5)              121.466          estimate D2E/DX2                !
 ! A11   A(3,4,9)              119.267          estimate D2E/DX2                !
 ! A12   A(5,4,9)              119.267          estimate D2E/DX2                !
 ! A13   A(4,5,6)              120.7423         estimate D2E/DX2                !
 ! A14   A(4,5,14)             120.3324         estimate D2E/DX2                !
 ! A15   A(6,5,14)             118.9252         estimate D2E/DX2                !
 ! A16   A(5,6,7)              119.9907         estimate D2E/DX2                !
 ! A17   A(5,6,15)             119.9526         estimate D2E/DX2                !
 ! A18   A(7,6,15)             120.0567         estimate D2E/DX2                !
 ! A19   A(6,7,8)              119.9907         estimate D2E/DX2                !
 ! A20   A(6,7,16)             120.0567         estimate D2E/DX2                !
 ! A21   A(8,7,16)             119.9526         estimate D2E/DX2                !
 ! A22   A(7,8,9)              120.7423         estimate D2E/DX2                !
 ! A23   A(7,8,17)             118.9251         estimate D2E/DX2                !
 ! A24   A(9,8,17)             120.3326         estimate D2E/DX2                !
 ! A25   A(4,9,8)              119.2671         estimate D2E/DX2                !
 ! A26   A(4,9,10)             119.267          estimate D2E/DX2                !
 ! A27   A(8,9,10)             121.466          estimate D2E/DX2                !
 ! A28   A(1,10,9)             120.7424         estimate D2E/DX2                !
 ! A29   A(1,10,18)            118.9251         estimate D2E/DX2                !
 ! A30   A(9,10,18)            120.3325         estimate D2E/DX2                !
 ! D1    D(10,1,2,3)            -0.0001         estimate D2E/DX2                !
 ! D2    D(10,1,2,12)         -179.9999         estimate D2E/DX2                !
 ! D3    D(11,1,2,3)           179.9998         estimate D2E/DX2                !
 ! D4    D(11,1,2,12)            0.0            estimate D2E/DX2                !
 ! D5    D(2,1,10,9)            -0.0001         estimate D2E/DX2                !
 ! D6    D(2,1,10,18)          179.9997         estimate D2E/DX2                !
 ! D7    D(11,1,10,9)          180.0            estimate D2E/DX2                !
 ! D8    D(11,1,10,18)          -0.0002         estimate D2E/DX2                !
 ! D9    D(1,2,3,4)              0.0003         estimate D2E/DX2                !
 ! D10   D(1,2,3,13)          -179.9996         estimate D2E/DX2                !
 ! D11   D(12,2,3,4)          -179.9999         estimate D2E/DX2                !
 ! D12   D(12,2,3,13)            0.0002         estimate D2E/DX2                !
 ! D13   D(2,3,4,5)            179.9999         estimate D2E/DX2                !
 ! D14   D(2,3,4,9)             -0.0002         estimate D2E/DX2                !
 ! D15   D(13,3,4,5)            -0.0002         estimate D2E/DX2                !
 ! D16   D(13,3,4,9)           179.9997         estimate D2E/DX2                !
 ! D17   D(3,4,5,6)            179.9998         estimate D2E/DX2                !
 ! D18   D(3,4,5,14)            -0.0001         estimate D2E/DX2                !
 ! D19   D(9,4,5,6)             -0.0001         estimate D2E/DX2                !
 ! D20   D(9,4,5,14)          -180.0            estimate D2E/DX2                !
 ! D21   D(3,4,9,8)           -179.9998         estimate D2E/DX2                !
 ! D22   D(3,4,9,10)             0.0            estimate D2E/DX2                !
 ! D23   D(5,4,9,8)              0.0001         estimate D2E/DX2                !
 ! D24   D(5,4,9,10)           179.9998         estimate D2E/DX2                !
 ! D25   D(4,5,6,7)              0.0001         estimate D2E/DX2                !
 ! D26   D(4,5,6,15)          -179.9998         estimate D2E/DX2                !
 ! D27   D(14,5,6,7)           180.0            estimate D2E/DX2                !
 ! D28   D(14,5,6,15)            0.0001         estimate D2E/DX2                !
 ! D29   D(5,6,7,8)              0.0            estimate D2E/DX2                !
 ! D30   D(5,6,7,16)           180.0            estimate D2E/DX2                !
 ! D31   D(15,6,7,8)           179.9998         estimate D2E/DX2                !
 ! D32   D(15,6,7,16)           -0.0001         estimate D2E/DX2                !
 ! D33   D(6,7,8,9)              0.0001         estimate D2E/DX2                !
 ! D34   D(6,7,8,17)          -179.9998         estimate D2E/DX2                !
 ! D35   D(16,7,8,9)          -179.9999         estimate D2E/DX2                !
 ! D36   D(16,7,8,17)            0.0002         estimate D2E/DX2                !
 ! D37   D(7,8,9,4)             -0.0001         estimate D2E/DX2                !
 ! D38   D(7,8,9,10)          -179.9998         estimate D2E/DX2                !
 ! D39   D(17,8,9,4)           179.9998         estimate D2E/DX2                !
 ! D40   D(17,8,9,10)            0.0001         estimate D2E/DX2                !
 ! D41   D(4,9,10,1)             0.0002         estimate D2E/DX2                !
 ! D42   D(4,9,10,18)         -179.9997         estimate D2E/DX2                !
 ! D43   D(8,9,10,1)           180.0            estimate D2E/DX2                !
 ! D44   D(8,9,10,18)            0.0001         estimate D2E/DX2                !
 --------------------------------------------------------------------------------
 Trust Radius=3.00D-01 FncErr=1.00D-07 GrdErr=1.00D-07 EigMax=2.50D+02 EigMin=1.00D-04
 Number of steps in this run=    103 maximum allowed number of steps=    108.
 GradGradGradGradGradGradGradGradGradGradGradGradGradGradGradGradGradGrad

                          Input orientation:                          
 ---------------------------------------------------------------------
 Center     Atomic      Atomic             Coordinates (Angstroms)
 Number     Number       Type             X           Y           Z
 ---------------------------------------------------------------------
      1          6           0       -0.845703    0.138483   -2.679251
      2          6           0       -0.144543    1.337042   -2.584516
      3          6           0        0.517817    1.666245   -1.400698
      4          6           0        0.486939    0.799691   -0.295929
      5          6           0        1.147832    1.115654    0.902309
      6          6           0        1.107176    0.243121    1.991140
      7          6           0        0.406017   -0.955439    1.896405
      8          6           0       -0.256345   -1.284641    0.712587
      9          6           0       -0.225463   -0.418089   -0.392183
     10          6           0       -0.886358   -0.734050   -1.590419
     11          1           0       -1.361781   -0.118895   -3.600413
     12          1           0       -0.112184    2.017159   -3.431577
     13          1           0        1.060405    2.607187   -1.345689
     14          1           0        1.700824    2.047506    0.995330
     15          1           0        1.623250    0.500501    2.912304
     16          1           0        0.373657   -1.635555    2.743467
     17          1           0       -0.798940   -2.225580    0.657583
     18          1           0       -1.439355   -1.665899   -1.683439
 ---------------------------------------------------------------------
                    Distance matrix (angstroms):
                    1          2          3          4          5
     1  C    0.000000
     2  C    1.391813   0.000000
     3  C    2.414113   1.395894   0.000000
     4  C    2.809511   2.434162   1.404416   0.000000
     5  C    4.213860   3.725211   2.450288   1.404417   0.000000
     6  C    5.063323   4.868274   3.725210   2.434163   1.395894
     7  C    4.868274   5.063323   4.213860   2.809512   2.414113
     8  C    3.725210   4.213859   3.711203   2.431875   2.787315
     9  C    2.434163   2.809512   2.431875   1.414132   2.431875
    10  C    1.395895   2.414113   2.787314   2.431874   3.711203
    11  H    1.086793   2.152549   3.399759   3.896303   5.300639
    12  H    2.152549   1.086793   2.155113   3.416645   4.602491
    13  H    3.392069   2.144729   1.087566   2.167464   2.699224
    14  H    4.861246   4.089674   2.699225   2.167466   1.087567
    15  H    6.123093   5.834374   4.602491   3.416647   2.155114
    16  H    5.834374   6.123093   5.300639   3.896304   3.399759
    17  H    4.089675   4.861246   4.595288   3.422709   3.874746
    18  H    2.144728   3.392069   3.874745   3.422707   4.595287
                    6          7          8          9         10
     6  C    0.000000
     7  C    1.391813   0.000000
     8  C    2.414114   1.395895   0.000000
     9  C    2.809511   2.434162   1.404415   0.000000
    10  C    4.213859   3.725210   2.450286   1.404416   0.000000
    11  H    6.123093   5.834374   4.602491   3.416647   2.155115
    12  H    5.834373   6.123093   5.300638   3.896303   3.399759
    13  H    4.089673   4.861245   4.595286   3.422707   3.874744
    14  H    2.144729   3.392070   3.874746   3.422708   4.595287
    15  H    1.086793   2.152549   3.399759   3.896304   5.300638
    16  H    2.152550   1.086793   2.155114   3.416646   4.602490
    17  H    3.392070   2.144728   1.087567   2.167466   2.699225
    18  H    4.861246   4.089674   2.699224   2.167465   1.087567
                   11         12         13         14         15
    11  H    0.000000
    12  H    2.480469   0.000000
    13  H    4.287457   2.464554   0.000000
    14  H    5.932428   4.783871   2.490733   0.000000
    15  H    7.190935   6.749578   4.783871   2.464555   0.000000
    16  H    6.749579   7.190934   5.932426   4.287458   2.480468
    17  H    4.783873   5.932428   5.552108   4.962072   4.287457
    18  H    2.464554   4.287457   4.962070   5.552108   5.932427
                   16         17         18
    16  H    0.000000
    17  H    2.464554   0.000000
    18  H    4.783872   2.490734   0.000000
 Stoichiometry    C10H8
 Framework group  D2H[C2'(C.C),SG"(C8H8)]
 Deg. of freedom     9
 Full point group                 D2H     NOp   8
 Largest Abelian subgroup         D2H     NOp   8
 Largest concise Abelian subgroup D2      NOp   4
                         Standard orientation:                         
 ---------------------------------------------------------------------
 Center     Atomic      Atomic             Coordinates (Angstroms)
 Number     Number       Type             X           Y           Z
 ---------------------------------------------------------------------
      1          6           0       -2.434137    0.695907    0.000000
      2          6           0       -2.434137   -0.695907   -0.000000
      3          6           0       -1.225144   -1.393657    0.000000
      4          6           0        0.000000   -0.707066    0.000000
      5          6           0        1.225144   -1.393657    0.000000
      6          6           0        2.434137   -0.695907    0.000000
      7          6           0        2.434137    0.695907   -0.000000
      8          6           0        1.225144    1.393657   -0.000000
      9          6           0       -0.000000    0.707066   -0.000000
     10          6           0       -1.225144    1.393657    0.000000
     11          1           0       -3.374790    1.240234    0.000000
     12          1           0       -3.374790   -1.240234   -0.000000
     13          1           0       -1.245366   -2.481035    0.000000
     14          1           0        1.245366   -2.481035    0.000000
     15          1           0        3.374790   -1.240234    0.000000
     16          1           0        3.374790    1.240234   -0.000000
     17          1           0        1.245366    2.481035   -0.000000
     18          1           0       -1.245366    2.481035    0.000000
 ---------------------------------------------------------------------
 Rotational constants (GHZ):           3.1687300           1.2368137           0.8895903
 Standard basis: 3-21G (6D, 7F)
 There are    23 symmetry adapted cartesian basis functions of AG  symmetry.
 There are    20 symmetry adapted cartesian basis functions of B1G symmetry.
 There are     4 symmetry adapted cartesian basis functions of B2G symmetry.
 There are     6 symmetry adapted cartesian basis functions of B3G symmetry.
 There are     4 symmetry adapted cartesian basis functions of AU  symmetry.
 There are     6 symmetry adapted cartesian basis functions of B1U symmetry.
 There are    23 symmetry adapted cartesian basis functions of B2U symmetry.
 There are    20 symmetry adapted cartesian basis functions of B3U symmetry.
 There are    23 symmetry adapted basis functions of AG  symmetry.
 There are    20 symmetry adapted basis functions of B1G symmetry.
 There are     4 symmetry adapted basis functions of B2G symmetry.
 There are     6 symmetry adapted basis functions of B3G symmetry.
 There are     4 symmetry adapted basis functions of AU  symmetry.
 There are     6 symmetry adapted basis functions of B1U symmetry.
 There are    23 symmetry adapted basis functions of B2U symmetry.
 There are    20 symmetry adapted basis functions of B3U symmetry.
   106 basis functions,   174 primitive gaussians,   106 cartesian basis functions
    34 alpha electrons       34 beta electrons
       nuclear repulsion energy       459.0847309493 Hartrees.
 NAtoms=   18 NActive=   18 NUniq=    5 SFac= 4.00D+00 NAtFMM=   60 NAOKFM=F Big=F
 Integral buffers will be    131072 words long.
 Raffenetti 1 integral format.
 Two-electron integral symmetry is turned on.
 One-electron integrals computed using PRISM.
 NBasis=   106 RedAO= T EigKep=  1.02D-03  NBF=    23    20     4     6     4     6    23    20
 NBsUse=   106 1.00D-06 EigRej= -1.00D+00 NBFU=    23    20     4     6     4     6    23    20
 ExpMin= 1.83D-01 ExpMax= 1.72D+02 ExpMxC= 1.72D+02 IAcc=3 IRadAn=         5 AccDes= 0.00D+00
 Harris functional with IExCor=  205 and IRadAn=       5 diagonalized for initial guess.
 HarFok:  IExCor=  205 AccDes= 0.00D+00 IRadAn=         5 IDoV= 1 UseB2=F ITyADJ=14
 ICtDFT=  3500011 ScaDFX=  1.000000  1.000000  1.000000  1.000000
 FoFCou: FMM=F IPFlag=           0 FMFlag=      100000 FMFlg1=           0
         NFxFlg=           0 DoJE=T BraDBF=F KetDBF=T FulRan=T
         wScrn=  0.000000 ICntrl=       500 IOpCl=  0 I1Cent=   200000004 NGrid=           0
         NMat0=    1 NMatS0=      1 NMatT0=    0 NMatD0=    1 NMtDS0=    0 NMtDT0=    0
 Petite list used in FoFCou.
 Initial guess orbital symmetries:
       Occupied  (B2U) (B1G) (AG) (B3U) (B2U) (B1G) (AG) (B3U)
                 (B2U) (AG) (AG) (B3U) (B2U) (AG) (B1G) (B3U) (B2U)
                 (AG) (B3U) (AG) (B1G) (AG) (B3U) (B2U) (B1G) (B2U)
                 (B1U) (B3U) (B1G) (AG) (B2G) (B3G) (B1U) (AU)
       Virtual   (B2G) (B3G) (B1U) (AU) (AG) (B3U) (B2U) (B3G)
                 (B3U) (AG) (B1G) (B2U) (B1G) (B2U) (AG) (B2U)
                 (B3U) (B1G) (AG) (B3U) (B1G) (B2U) (B2U) (B1G)
                 (AG) (B1U) (B3U) (B2U) (B2G) (B3U) (AG) (B3G)
                 (B1G) (AG) (B1U) (AU) (B2U) (B3G) (B3U) (B2G)
                 (B1U) (AG) (AU) (B2U) (B1G) (B3G) (AG) (B3U) (B2U)
                 (B1G) (B3U) (B1G) (B2U) (AG) (B3U) (AG) (B1G)
                 (B3U) (B2U) (B1G) (B3U) (AG) (B2U) (B1G) (B2U)
                 (AG) (B1G) (B3U) (B2U) (AG) (B1G) (B2U)
 The electronic state of the initial guess is 1-AG.
 Keep R1 ints in memory in symmetry-blocked form, NReq=18426781.
 Requested convergence on RMS density matrix=1.00D-08 within 128 cycles.
 Requested convergence on MAX density matrix=1.00D-06.
 Requested convergence on             energy=1.00D-06.
 No special actions if energy rises.
 SCF Done:  E(RHF) =  -381.208441846     A.U. after   11 cycles
            NFock= 11  Conv=0.35D-08     -V/T= 2.0026
 ExpMin= 1.83D-01 ExpMax= 1.72D+02 ExpMxC= 1.72D+02 IAcc=3 IRadAn=         5 AccDes= 0.00D+00
 HarFok:  IExCor=  205 AccDes= 0.00D+00 IRadAn=         5 IDoV=-2 UseB2=F ITyADJ=14
 ICtDFT= 12500011 ScaDFX=  1.000000  1.000000  1.000000  1.000000
 Range of M.O.s used for correlation:    11   106
 NBasis=   106 NAE=    34 NBE=    34 NFC=    10 NFV=     0
 NROrb=     96 NOA=    24 NOB=    24 NVA=    72 NVB=    72
 Fully direct method using O(ONN) memory.
 JobTyp=1 Pass  1:  I=  11 to  34 NPSUse=  8 ParTrn=T ParDer=T DoDerP=T.
 Spin components of T(2) and E(2):
     alpha-alpha T2 =       0.4935994176D-01 E2=     -0.1123574311D+00
     alpha-beta  T2 =       0.2662913065D+00 E2=     -0.6412193997D+00
     beta-beta   T2 =       0.4935994176D-01 E2=     -0.1123574311D+00
 ANorm=    0.1168336933D+01
 E2 =    -0.8659342618D+00 EUMP2 =    -0.38207437610823D+03
          IDoAtm=111111111111111111
          Differentiating once with respect to electric field.
                with respect to dipole field.
          Differentiating once with respect to nuclear coordinates.
 Keep R1 ints in memory in symmetry-blocked form, NReq=18428931.
          There are     1 degrees of freedom in the 1st order CPHF.  IDoFFX=0 NUNeed=     1.
 LinEq1:  Iter=  0 NonCon=     1 RMS=4.47D-03 Max=9.41D-02 NDo=     1
 AX will form     1 AO Fock derivatives at one time.
 LinEq1:  Iter=  1 NonCon=     1 RMS=1.09D-03 Max=1.51D-02 NDo=     1
 LinEq1:  Iter=  2 NonCon=     1 RMS=2.04D-04 Max=5.74D-03 NDo=     1
 LinEq1:  Iter=  3 NonCon=     1 RMS=7.88D-05 Max=2.61D-03 NDo=     1
 LinEq1:  Iter=  4 NonCon=     1 RMS=3.01D-05 Max=7.70D-04 NDo=     1
 LinEq1:  Iter=  5 NonCon=     1 RMS=7.76D-06 Max=1.21D-04 NDo=     1
 LinEq1:  Iter=  6 NonCon=     1 RMS=2.28D-06 Max=2.69D-05 NDo=     1
 LinEq1:  Iter=  7 NonCon=     1 RMS=2.64D-07 Max=3.43D-06 NDo=     1
 LinEq1:  Iter=  8 NonCon=     1 RMS=2.38D-08 Max=3.01D-07 NDo=     1
 LinEq1:  Iter=  9 NonCon=     1 RMS=3.76D-09 Max=6.02D-08 NDo=     1
 LinEq1:  Iter= 10 NonCon=     1 RMS=3.42D-10 Max=5.52D-09 NDo=     1
 LinEq1:  Iter= 11 NonCon=     0 RMS=3.83D-11 Max=5.61D-10 NDo=     1
 Linear equations converged to 1.000D-10 1.000D-09 after    11 iterations.
 End of Minotr F.D. properties file   721 does not exist.
 End of Minotr F.D. properties file   722 does not exist.
 End of Minotr F.D. properties file   788 does not exist.

 **********************************************************************

            Population analysis using the SCF Density.

 **********************************************************************

 Orbital symmetries:
       Occupied  (B2U) (AG) (B1G) (B3U) (B2U) (AG) (B1G) (B2U)
                 (B3U) (AG) (AG) (B3U) (B2U) (AG) (B1G) (B3U) (B2U)
                 (AG) (B3U) (B1G) (AG) (B2U) (AG) (B3U) (B1G) (B2U)
                 (B1U) (B3U) (B1G) (AG) (B2G) (B3G) (B1U) (AU)
       Virtual   (B2G) (B3G) (B1U) (AG) (B3U) (AU) (B2U) (AG) (B1G)
                 (B2U) (B3U) (B1G) (B3G) (B2U) (AG) (B2U) (B1G)
                 (B3U) (AG) (B3U) (B1G) (B2U) (B2U) (AG) (B1G)
                 (B3U) (B1U) (AG) (B2G) (B3U) (B2U) (B3G) (B1G)
                 (B1U) (AG) (AU) (B2U) (B3U) (B3G) (B2G) (AG) (B1U)
                 (AU) (B3G) (B2U) (B1G) (AG) (B3U) (B2U) (B1G)
                 (B3U) (B1G) (B2U) (AG) (AG) (B3U) (B1G) (B3U)
                 (B2U) (B1G) (AG) (B2U) (B3U) (B1G) (B2U) (AG)
                 (B1G) (B3U) (B2U) (AG) (B1G) (B2U)
 The electronic state is 1-AG.
 Alpha  occ. eigenvalues --  -11.19032 -11.18991 -11.18458 -11.18455 -11.18452
 Alpha  occ. eigenvalues --  -11.18427 -11.18297 -11.18292 -11.18248 -11.18242
 Alpha  occ. eigenvalues --   -1.18251  -1.11194  -1.05084  -1.01431  -0.97407
 Alpha  occ. eigenvalues --   -0.86098  -0.83514  -0.81722  -0.70659  -0.70338
 Alpha  occ. eigenvalues --   -0.68211  -0.62313  -0.62124  -0.58724  -0.58481
 Alpha  occ. eigenvalues --   -0.55822  -0.54161  -0.52812  -0.48351  -0.47939
 Alpha  occ. eigenvalues --   -0.45000  -0.38852  -0.32755  -0.28060
 Alpha virt. eigenvalues --    0.08822   0.13457   0.19446   0.25766   0.27812
 Alpha virt. eigenvalues --    0.28741   0.29244   0.34733   0.34857   0.35735
 Alpha virt. eigenvalues --    0.36026   0.38640   0.42650   0.44738   0.46563
 Alpha virt. eigenvalues --    0.51233   0.52218   0.52871   0.55017   0.58532
 Alpha virt. eigenvalues --    0.75769   0.76147   0.81835   0.86085   0.87802
 Alpha virt. eigenvalues --    0.89304   0.94111   0.98212   0.98227   0.99278
 Alpha virt. eigenvalues --    1.00102   1.02055   1.05097   1.05290   1.06637
 Alpha virt. eigenvalues --    1.07537   1.08809   1.10323   1.10975   1.12511
 Alpha virt. eigenvalues --    1.13626   1.13644   1.18471   1.26657   1.27045
 Alpha virt. eigenvalues --    1.27735   1.30703   1.30917   1.33729   1.35523
 Alpha virt. eigenvalues --    1.45721   1.46778   1.47243   1.51870   1.59636
 Alpha virt. eigenvalues --    1.59910   1.62722   1.70078   1.70892   1.71067
 Alpha virt. eigenvalues --    1.78525   1.78712   1.79778   1.79922   1.85169
 Alpha virt. eigenvalues --    1.86286   2.06952   2.18952   2.21206   2.23220
 Alpha virt. eigenvalues --    2.71792   2.79732
          Condensed to atoms (all electrons):
               1          2          3          4          5          6
     1  C    5.164521   0.433860  -0.112931   0.001715   0.000385  -0.000008
     2  C    0.433860   5.164521   0.526345  -0.112975   0.001050  -0.000059
     3  C   -0.112931   0.526345   5.112866   0.416280  -0.053074   0.001050
     4  C    0.001715  -0.112975   0.416280   5.239693   0.416280  -0.112975
     5  C    0.000385   0.001050  -0.053074   0.416280   5.112866   0.526345
     6  C   -0.000008  -0.000059   0.001050  -0.112975   0.526345   5.164521
     7  C   -0.000059  -0.000008   0.000385   0.001715  -0.112931   0.433860
     8  C    0.001050   0.000385   0.001930  -0.062714  -0.008593  -0.112931
     9  C   -0.112975   0.001715  -0.062714   0.439354  -0.062714   0.001715
    10  C    0.526345  -0.112931  -0.008593  -0.062714   0.001930   0.000385
    11  H    0.395774  -0.032883   0.002339  -0.000125   0.000000  -0.000000
    12  H   -0.032883   0.395774  -0.030362   0.002489  -0.000044   0.000000
    13  H    0.002125  -0.028201   0.398917  -0.039266   0.001457   0.000040
    14  H    0.000007   0.000040   0.001457  -0.039266   0.398917  -0.028201
    15  H   -0.000000   0.000000  -0.000044   0.002489  -0.030362   0.395774
    16  H    0.000000  -0.000000   0.000000  -0.000125   0.002339  -0.032883
    17  H    0.000040   0.000007  -0.000061   0.001917  -0.000025   0.002125
    18  H   -0.028201   0.002125  -0.000025   0.001917  -0.000061   0.000007
               7          8          9         10         11         12
     1  C   -0.000059   0.001050  -0.112975   0.526345   0.395774  -0.032883
     2  C   -0.000008   0.000385   0.001715  -0.112931  -0.032883   0.395774
     3  C    0.000385   0.001930  -0.062714  -0.008593   0.002339  -0.030362
     4  C    0.001715  -0.062714   0.439354  -0.062714  -0.000125   0.002489
     5  C   -0.112931  -0.008593  -0.062714   0.001930   0.000000  -0.000044
     6  C    0.433860  -0.112931   0.001715   0.000385  -0.000000   0.000000
     7  C    5.164521   0.526345  -0.112975   0.001050   0.000000  -0.000000
     8  C    0.526345   5.112866   0.416280  -0.053074  -0.000044   0.000000
     9  C   -0.112975   0.416280   5.239693   0.416280   0.002489  -0.000125
    10  C    0.001050  -0.053074   0.416280   5.112866  -0.030362   0.002339
    11  H    0.000000  -0.000044   0.002489  -0.030362   0.425253  -0.001256
    12  H   -0.000000   0.000000  -0.000125   0.002339  -0.001256   0.425253
    13  H    0.000007  -0.000061   0.001917  -0.000025  -0.000035  -0.001311
    14  H    0.002125  -0.000025   0.001917  -0.000061  -0.000000  -0.000001
    15  H   -0.032883   0.002339  -0.000125   0.000000   0.000000  -0.000000
    16  H    0.395774  -0.030362   0.002489  -0.000044  -0.000000   0.000000
    17  H   -0.028201   0.398917  -0.039266   0.001457  -0.000001  -0.000000
    18  H    0.000040   0.001457  -0.039266   0.398917  -0.001311  -0.000035
              13         14         15         16         17         18
     1  C    0.002125   0.000007  -0.000000   0.000000   0.000040  -0.028201
     2  C   -0.028201   0.000040   0.000000  -0.000000   0.000007   0.002125
     3  C    0.398917   0.001457  -0.000044   0.000000  -0.000061  -0.000025
     4  C   -0.039266  -0.039266   0.002489  -0.000125   0.001917   0.001917
     5  C    0.001457   0.398917  -0.030362   0.002339  -0.000025  -0.000061
     6  C    0.000040  -0.028201   0.395774  -0.032883   0.002125   0.000007
     7  C    0.000007   0.002125  -0.032883   0.395774  -0.028201   0.000040
     8  C   -0.000061  -0.000025   0.002339  -0.030362   0.398917   0.001457
     9  C    0.001917   0.001917  -0.000125   0.002489  -0.039266  -0.039266
    10  C   -0.000025  -0.000061   0.000000  -0.000044   0.001457   0.398917
    11  H   -0.000035  -0.000000   0.000000  -0.000000  -0.000001  -0.001311
    12  H   -0.001311  -0.000001  -0.000000   0.000000  -0.000000  -0.000035
    13  H    0.423425   0.001797  -0.000001  -0.000000   0.000000   0.000002
    14  H    0.001797   0.423425  -0.001311  -0.000035   0.000002   0.000000
    15  H   -0.000001  -0.001311   0.425253  -0.001256  -0.000035  -0.000000
    16  H   -0.000000  -0.000035  -0.001256   0.425253  -0.001311  -0.000001
    17  H    0.000000   0.000002  -0.000035  -0.001311   0.423425   0.001797
    18  H    0.000002   0.000000  -0.000000  -0.000001   0.001797   0.423425
 Mulliken charges:
               1
     1  C   -0.238763
     2  C   -0.238763
     3  C   -0.193767
     4  C   -0.093690
     5  C   -0.193767
     6  C   -0.238763
     7  C   -0.238763
     8  C   -0.193767
     9  C   -0.093690
    10  C   -0.193767
    11  H    0.240162
    12  H    0.240162
    13  H    0.239214
    14  H    0.239214
    15  H    0.240162
    16  H    0.240162
    17  H    0.239214
    18  H    0.239214
 Sum of Mulliken charges =  -0.00000
 Mulliken charges with hydrogens summed into heavy atoms:
               1
     1  C    0.001398
     2  C    0.001398
     3  C    0.045447
     4  C   -0.093690
     5  C    0.045447
     6  C    0.001398
     7  C    0.001398
     8  C    0.045447
     9  C   -0.093690
    10  C    0.045447
 Electronic spatial extent (au):  <R**2>=           1285.4811
 Charge=             -0.0000 electrons
 Dipole moment (field-independent basis, Debye):
    X=             -0.0000    Y=              0.0000    Z=              0.0000  Tot=              0.0000
 Quadrupole moment (field-independent basis, Debye-Ang):
   XX=            -50.5216   YY=            -50.7769   ZZ=            -66.6937
   XY=              0.0000   XZ=             -0.0000   YZ=             -0.0000
 Traceless Quadrupole moment (field-independent basis, Debye-Ang):
   XX=              5.4758   YY=              5.2205   ZZ=            -10.6963
   XY=              0.0000   XZ=             -0.0000   YZ=             -0.0000
 Octapole moment (field-independent basis, Debye-Ang**2):
  XXX=              0.0000  YYY=              0.0000  ZZZ=             -0.0000  XYY=              0.0000
  XXY=              0.0000  XXZ=             -0.0000  XZZ=              0.0000  YZZ=              0.0000
  YYZ=             -0.0000  XYZ=             -0.0000
 Hexadecapole moment (field-independent basis, Debye-Ang**3):
 XXXX=          -1054.7494 YYYY=           -453.8871 ZZZZ=            -71.6259 XXXY=              0.0000
 XXXZ=             -0.0000 YYYX=              0.0000 YYYZ=              0.0000 ZZZX=             -0.0000
 ZZZY=              0.0000 XXYY=           -256.5600 XXZZ=           -242.8323 YYZZ=           -110.6018
 XXYZ=             -0.0000 YYXZ=             -0.0000 ZZXY=              0.0000
 N-N= 4.590847309493D+02 E-N=-1.804305024548D+03  KE= 3.802025888810D+02
 Symmetry AG   KE= 1.118799312646D+02
 Symmetry B1G  KE= 7.502333322404D+01
 Symmetry B2G  KE= 1.846956958357D+00
 Symmetry B3G  KE= 2.002107836562D+00
 Symmetry AU   KE= 2.172009918930D+00
 Symmetry B1U  KE= 3.824879051333D+00
 Symmetry B2U  KE= 1.063818768574D+02
 Symmetry B3U  KE= 7.707149376972D+01
 Calling FoFJK, ICntrl=  10002127 FMM=F ISym2X=1 I1Cent= 0 IOpClX= 0 NMat=1 NMatS=1 NMatT=0.
 ***** Axes restored to original set *****
 -------------------------------------------------------------------
 Center     Atomic                   Forces (Hartrees/Bohr)
 Number     Number              X              Y              Z
 -------------------------------------------------------------------
      1        6          -0.012634765   -0.024084353    0.001681336
      2        6           0.014559812    0.022401987    0.005355659
      3        6          -0.002683172    0.012965569   -0.024281384
      4        6           0.004940872    0.008445913    0.000667573
      5        6           0.010905614    0.001089853    0.025392337
      6        6           0.012634765    0.024084353   -0.001681336
      7        6          -0.014559812   -0.022401987   -0.005355659
      8        6           0.002683172   -0.012965569    0.024281384
      9        6          -0.004940872   -0.008445913   -0.000667573
     10        6          -0.010905614   -0.001089853   -0.025392337
     11        1          -0.000402691   -0.000720762   -0.000010253
     12        1           0.000427777    0.000698839    0.000101954
     13        1           0.001318213    0.000643191    0.002372316
     14        1           0.000071638    0.001732617   -0.002184530
     15        1           0.000402691    0.000720762    0.000010253
     16        1          -0.000427777   -0.000698839   -0.000101954
     17        1          -0.001318213   -0.000643191   -0.002372316
     18        1          -0.000071638   -0.001732617    0.002184530
 -------------------------------------------------------------------
 Cartesian Forces:  Max     0.025392337 RMS     0.010763339

 GradGradGradGradGradGradGradGradGradGradGradGradGradGradGradGradGradGrad
 Berny optimization.
 FormGI is forming the generalized inverse of G from B-inverse, IUseBI=4.
 Internal  Forces:  Max     0.029185365 RMS     0.006905284
 Search for a local minimum.
 Step number   1 out of a maximum of  103
 All quantities printed in internal units (Hartrees-Bohrs-Radians)
 Mixed Optimization -- RFO/linear search
 Second derivative matrix not updated -- first step.
 ITU=  0
     Eigenvalues ---    0.01985   0.01999   0.02003   0.02079   0.02083
     Eigenvalues ---    0.02086   0.02086   0.02086   0.02088   0.02157
     Eigenvalues ---    0.02160   0.02162   0.02162   0.02176   0.02176
     Eigenvalues ---    0.16000   0.16000   0.16000   0.16000   0.16000
     Eigenvalues ---    0.16000   0.16000   0.16000   0.22000   0.22000
     Eigenvalues ---    0.22346   0.22823   0.24276   0.24711   0.35095
     Eigenvalues ---    0.35095   0.35095   0.35095   0.35186   0.35186
     Eigenvalues ---    0.35186   0.35186   0.38469   0.41048   0.41694
     Eigenvalues ---    0.43602   0.44563   0.45613   0.45695   0.45713
     Eigenvalues ---    0.45794   0.46621   0.46646
 RFO step:  Lambda=-9.87724404D-03 EMin= 1.98462233D-02
 Linear search not attempted -- first point.
 Iteration  1 RMS(Cart)=  0.02262137 RMS(Int)=  0.00004990
 Iteration  2 RMS(Cart)=  0.00006059 RMS(Int)=  0.00001195
 Iteration  3 RMS(Cart)=  0.00000001 RMS(Int)=  0.00001195
 ClnCor:  largest displacement from symmetrization is 1.84D-08 for atom    16.
 Variable       Old X    -DE/DX   Delta X   Delta X   Delta X     New X
                                 (Linear)    (Quad)   (Total)
    R1        2.63015   0.02919   0.00000   0.05933   0.05931   2.68945
    R2        2.63786  -0.00260   0.00000  -0.00625  -0.00626   2.63160
    R3        2.05374   0.00037   0.00000   0.00102   0.00102   2.05477
    R4        2.63786  -0.00260   0.00000  -0.00625  -0.00626   2.63160
    R5        2.05374   0.00037   0.00000   0.00102   0.00102   2.05477
    R6        2.65396   0.02162   0.00000   0.04788   0.04790   2.70186
    R7        2.05520   0.00133   0.00000   0.00370   0.00370   2.05890
    R8        2.65396   0.02162   0.00000   0.04788   0.04790   2.70186
    R9        2.67232   0.02615   0.00000   0.06218   0.06222   2.73454
   R10        2.63786  -0.00260   0.00000  -0.00625  -0.00626   2.63160
   R11        2.05520   0.00133   0.00000   0.00370   0.00370   2.05890
   R12        2.63015   0.02919   0.00000   0.05933   0.05931   2.68945
   R13        2.05374   0.00037   0.00000   0.00102   0.00102   2.05477
   R14        2.63786  -0.00260   0.00000  -0.00625  -0.00626   2.63160
   R15        2.05374   0.00037   0.00000   0.00102   0.00102   2.05477
   R16        2.65396   0.02162   0.00000   0.04788   0.04790   2.70186
   R17        2.05520   0.00133   0.00000   0.00370   0.00370   2.05890
   R18        2.65396   0.02162   0.00000   0.04788   0.04790   2.70186
   R19        2.05520   0.00133   0.00000   0.00370   0.00370   2.05890
    A1        2.09423   0.00258   0.00000   0.00718   0.00715   2.10138
    A2        2.09538  -0.00053   0.00000   0.00087   0.00088   2.09627
    A3        2.09357  -0.00205   0.00000  -0.00805  -0.00804   2.08553
    A4        2.09423   0.00258   0.00000   0.00718   0.00715   2.10138
    A5        2.09538  -0.00053   0.00000   0.00087   0.00088   2.09627
    A6        2.09357  -0.00205   0.00000  -0.00805  -0.00804   2.08553
    A7        2.10735  -0.00066   0.00000  -0.00219  -0.00218   2.10517
    A8        2.07564   0.00285   0.00000   0.01591   0.01591   2.09154
    A9        2.10020  -0.00219   0.00000  -0.01372  -0.01373   2.08647
   A10        2.11998   0.00385   0.00000   0.00999   0.00994   2.12993
   A11        2.08160  -0.00192   0.00000  -0.00499  -0.00497   2.07663
   A12        2.08160  -0.00192   0.00000  -0.00499  -0.00497   2.07663
   A13        2.10735  -0.00066   0.00000  -0.00219  -0.00218   2.10517
   A14        2.10020  -0.00219   0.00000  -0.01372  -0.01373   2.08647
   A15        2.07564   0.00285   0.00000   0.01591   0.01591   2.09154
   A16        2.09423   0.00258   0.00000   0.00718   0.00715   2.10138
   A17        2.09357  -0.00205   0.00000  -0.00805  -0.00804   2.08553
   A18        2.09538  -0.00053   0.00000   0.00087   0.00088   2.09627
   A19        2.09423   0.00258   0.00000   0.00718   0.00715   2.10138
   A20        2.09538  -0.00053   0.00000   0.00087   0.00088   2.09627
   A21        2.09357  -0.00205   0.00000  -0.00805  -0.00804   2.08553
   A22        2.10735  -0.00066   0.00000  -0.00219  -0.00218   2.10517
   A23        2.07564   0.00285   0.00000   0.01591   0.01591   2.09154
   A24        2.10020  -0.00219   0.00000  -0.01372  -0.01373   2.08647
   A25        2.08160  -0.00192   0.00000  -0.00499  -0.00497   2.07663
   A26        2.08160  -0.00192   0.00000  -0.00499  -0.00497   2.07663
   A27        2.11998   0.00385   0.00000   0.00999   0.00994   2.12993
   A28        2.10735  -0.00066   0.00000  -0.00219  -0.00218   2.10517
   A29        2.07564   0.00285   0.00000   0.01591   0.01591   2.09154
   A30        2.10020  -0.00219   0.00000  -0.01372  -0.01373   2.08647
    D1       -0.00000  -0.00000   0.00000  -0.00000   0.00000   0.00000
    D2        3.14159   0.00000   0.00000   0.00000   0.00000   3.14159
    D3       -3.14159  -0.00000   0.00000  -0.00000  -0.00000   3.14159
    D4       -0.00000   0.00000   0.00000   0.00000   0.00000  -0.00000
    D5        0.00000   0.00000   0.00000   0.00000  -0.00000  -0.00000
    D6       -3.14159  -0.00000   0.00000  -0.00000  -0.00000   3.14159
    D7        3.14159   0.00000   0.00000   0.00000   0.00000   3.14159
    D8       -0.00000   0.00000   0.00000   0.00000   0.00000   0.00000
    D9       -0.00000   0.00000   0.00000   0.00000   0.00000  -0.00000
   D10        3.14159   0.00000   0.00000   0.00000  -0.00000   3.14159
   D11        3.14159  -0.00000   0.00000  -0.00000   0.00000   3.14159
   D12        0.00000  -0.00000   0.00000  -0.00000  -0.00000   0.00000
   D13        3.14159   0.00000   0.00000   0.00000   0.00000  -3.14159
   D14        0.00000   0.00000   0.00000   0.00000   0.00000   0.00000
   D15       -0.00000   0.00000   0.00000   0.00000   0.00000   0.00000
   D16        3.14159  -0.00000   0.00000  -0.00000   0.00000   3.14159
   D17        3.14159  -0.00000   0.00000  -0.00000   0.00000   3.14159
   D18       -0.00000   0.00000   0.00000   0.00000   0.00000   0.00000
   D19       -0.00000  -0.00000   0.00000  -0.00000   0.00000   0.00000
   D20        3.14159   0.00000   0.00000   0.00000  -0.00000   3.14159
   D21        3.14159  -0.00000   0.00000  -0.00000   0.00000   3.14159
   D22        0.00000  -0.00000   0.00000  -0.00000  -0.00000   0.00000
   D23        0.00000  -0.00000   0.00000  -0.00000   0.00000   0.00000
   D24        3.14159  -0.00000   0.00000  -0.00000   0.00000   3.14159
   D25       -0.00000   0.00000   0.00000   0.00000   0.00000   0.00000
   D26        3.14159   0.00000   0.00000   0.00000   0.00000  -3.14159
   D27        3.14159   0.00000   0.00000  -0.00000   0.00000   3.14159
   D28        0.00000  -0.00000   0.00000  -0.00000  -0.00000   0.00000
   D29        0.00000  -0.00000   0.00000  -0.00000   0.00000   0.00000
   D30        3.14159  -0.00000   0.00000  -0.00000   0.00000   3.14159
   D31        3.14159  -0.00000   0.00000  -0.00000   0.00000   3.14159
   D32        0.00000  -0.00000   0.00000  -0.00000  -0.00000   0.00000
   D33       -0.00000   0.00000   0.00000   0.00000   0.00000   0.00000
   D34        3.14159   0.00000   0.00000   0.00000  -0.00000   3.14159
   D35        3.14159  -0.00000   0.00000  -0.00000   0.00000   3.14159
   D36       -0.00000   0.00000   0.00000   0.00000   0.00000   0.00000
   D37       -0.00000   0.00000   0.00000   0.00000   0.00000   0.00000
   D38        3.14159   0.00000   0.00000   0.00000   0.00000   3.14159
   D39        3.14159   0.00000   0.00000   0.00000   0.00000   3.14159
   D40       -0.00000   0.00000   0.00000   0.00000   0.00000  -0.00000
   D41       -0.00000   0.00000   0.00000   0.00000   0.00000   0.00000
   D42        3.14159   0.00000   0.00000   0.00000   0.00000   3.14159
   D43        3.14159   0.00000   0.00000   0.00000   0.00000   3.14159
   D44        0.00000   0.00000   0.00000   0.00000  -0.00000   0.00000
         Item               Value     Threshold  Converged?
 Maximum Force            0.029185     0.000450     NO 
 RMS     Force            0.006905     0.000300     NO 
 Maximum Displacement     0.048329     0.001800     NO 
 RMS     Displacement     0.022602     0.001200     NO 
 Predicted change in Energy=-5.051013D-03
 GradGradGradGradGradGradGradGradGradGradGradGradGradGradGradGradGradGrad

                          Input orientation:                          
 ---------------------------------------------------------------------
 Center     Atomic      Atomic             Coordinates (Angstroms)
 Number     Number       Type             X           Y           Z
 ---------------------------------------------------------------------
      1          6           0       -0.858157    0.128946   -2.696947
      2          6           0       -0.141188    1.354531   -2.600076
      3          6           0        0.522651    1.691490   -1.423190
      4          6           0        0.495232    0.813869   -0.294808
      5          6           0        1.165813    1.129408    0.927884
      6          6           0        1.119630    0.252658    2.008837
      7          6           0        0.402661   -0.972928    1.911965
      8          6           0       -0.261178   -1.309886    0.735080
      9          6           0       -0.233758   -0.432265   -0.393303
     10          6           0       -0.904340   -0.747804   -1.615994
     11          1           0       -1.374786   -0.129387   -3.618173
     12          1           0       -0.108269    2.035595   -3.447051
     13          1           0        1.068741    2.632095   -1.359111
     14          1           0        1.717416    2.065195    1.012116
     15          1           0        1.636260    0.510990    2.930062
     16          1           0        0.369742   -1.653991    2.758940
     17          1           0       -0.807267   -2.250492    0.671001
     18          1           0       -1.455943   -1.683592   -1.700227
 ---------------------------------------------------------------------
                    Distance matrix (angstroms):
                    1          2          3          4          5
     1  C    0.000000
     2  C    1.423197   0.000000
     3  C    2.443488   1.392581   0.000000
     4  C    2.840961   2.451858   1.429761   0.000000
     5  C    4.270454   3.769009   2.501428   1.429761   0.000000
     6  C    5.106011   4.903658   3.769009   2.451858   1.392581
     7  C    4.903658   5.106011   4.270454   2.840961   2.443488
     8  C    3.769009   4.270454   3.778991   2.478539   2.832601
     9  C    2.451858   2.840961   2.478539   1.447058   2.478539
    10  C    1.392581   2.443488   2.832601   2.478539   3.778991
    11  H    1.087335   2.181811   3.425465   3.928289   5.357783
    12  H    2.181811   1.087335   2.147669   3.434162   4.645914
    13  H    3.430525   2.153158   1.089522   2.183484   2.738218
    14  H    4.913226   4.124001   2.738218   2.183484   1.089522
    15  H    6.166953   5.869694   4.645914   3.434162   2.147669
    16  H    5.869694   6.166953   5.357783   3.928289   3.425465
    17  H    4.124001   4.913226   4.657632   3.466929   3.922086
    18  H    2.153158   3.430525   3.922086   3.466929   4.657632
                    6          7          8          9         10
     6  C    0.000000
     7  C    1.423197   0.000000
     8  C    2.443488   1.392581   0.000000
     9  C    2.840961   2.451858   1.429761   0.000000
    10  C    4.270454   3.769009   2.501428   1.429761   0.000000
    11  H    6.166953   5.869694   4.645914   3.434162   2.147669
    12  H    5.869694   6.166953   5.357783   3.928289   3.425465
    13  H    4.124001   4.913226   4.657632   3.466929   3.922086
    14  H    2.153158   3.430525   3.922086   3.466929   4.657632
    15  H    1.087335   2.181811   3.425465   3.928289   5.357783
    16  H    2.181811   1.087335   2.147669   3.434162   4.645914
    17  H    3.430525   2.153158   1.089522   2.183484   2.738218
    18  H    4.913226   4.124001   2.738218   2.183484   1.089522
                   11         12         13         14         15
    11  H    0.000000
    12  H    2.514059   0.000000
    13  H    4.324346   2.469951   0.000000
    14  H    5.984771   4.818524   2.522871   0.000000
    15  H    7.235736   6.784938   4.818524   2.469951   0.000000
    16  H    6.784938   7.235736   5.984771   4.324346   2.514059
    17  H    4.818524   5.984771   5.610741   5.011541   4.324346
    18  H    2.469951   4.324346   5.011541   5.610741   5.984771
                   16         17         18
    16  H    0.000000
    17  H    2.469951   0.000000
    18  H    4.818524   2.522871   0.000000
 Stoichiometry    C10H8
 Framework group  D2H[C2"(C.C),SG(C8H8)]
 Deg. of freedom     9
 Full point group                 D2H     NOp   8
 Omega: Change in point group or standard orientation.

 Old FWG=D02H [C2'(C1.C1),SG"(C8H8)]
 New FWG=D02H [C2"(C1.C1),SG(C8H8)]
 Largest Abelian subgroup         D2H     NOp   8
 Largest concise Abelian subgroup D2      NOp   4
                         Standard orientation:                         
 ---------------------------------------------------------------------
 Center     Atomic      Atomic             Coordinates (Angstroms)
 Number     Number       Type             X           Y           Z
 ---------------------------------------------------------------------
      1          6           0       -0.000000    2.451829    0.711598
      2          6           0        0.000000    2.451829   -0.711598
      3          6           0       -0.000000    1.250714   -1.416301
      4          6           0       -0.000000   -0.000000   -0.723529
      5          6           0        0.000000   -1.250714   -1.416301
      6          6           0       -0.000000   -2.451829   -0.711598
      7          6           0        0.000000   -2.451829    0.711598
      8          6           0       -0.000000   -1.250714    1.416301
      9          6           0       -0.000000   -0.000000    0.723529
     10          6           0       -0.000000    1.250714    1.416301
     11          1           0       -0.000000    3.392469    1.257030
     12          1           0        0.000000    3.392469   -1.257030
     13          1           0       -0.000000    1.261435   -2.505770
     14          1           0        0.000000   -1.261435   -2.505770
     15          1           0       -0.000000   -3.392469   -1.257030
     16          1           0        0.000000   -3.392469    1.257030
     17          1           0       -0.000000   -1.261435    2.505770
     18          1           0       -0.000000    1.261435    2.505770
 ---------------------------------------------------------------------
 Rotational constants (GHZ):           3.0659632           1.2135513           0.8694219
 Standard basis: 3-21G (6D, 7F)
 There are    23 symmetry adapted cartesian basis functions of AG  symmetry.
 There are     4 symmetry adapted cartesian basis functions of B1G symmetry.
 There are     6 symmetry adapted cartesian basis functions of B2G symmetry.
 There are    20 symmetry adapted cartesian basis functions of B3G symmetry.
 There are     4 symmetry adapted cartesian basis functions of AU  symmetry.
 There are    23 symmetry adapted cartesian basis functions of B1U symmetry.
 There are    20 symmetry adapted cartesian basis functions of B2U symmetry.
 There are     6 symmetry adapted cartesian basis functions of B3U symmetry.
 There are    23 symmetry adapted basis functions of AG  symmetry.
 There are     4 symmetry adapted basis functions of B1G symmetry.
 There are     6 symmetry adapted basis functions of B2G symmetry.
 There are    20 symmetry adapted basis functions of B3G symmetry.
 There are     4 symmetry adapted basis functions of AU  symmetry.
 There are    23 symmetry adapted basis functions of B1U symmetry.
 There are    20 symmetry adapted basis functions of B2U symmetry.
 There are     6 symmetry adapted basis functions of B3U symmetry.
   106 basis functions,   174 primitive gaussians,   106 cartesian basis functions
    34 alpha electrons       34 beta electrons
       nuclear repulsion energy       453.9095622646 Hartrees.
 NAtoms=   18 NActive=   18 NUniq=    5 SFac= 4.00D+00 NAtFMM=   60 NAOKFM=F Big=F
 Integral buffers will be    131072 words long.
 Raffenetti 1 integral format.
 Two-electron integral symmetry is turned on.
 One-electron integrals computed using PRISM.
 NBasis=   106 RedAO= T EigKep=  1.19D-03  NBF=    23     4     6    20     4    23    20     6
 NBsUse=   106 1.00D-06 EigRej= -1.00D+00 NBFU=    23     4     6    20     4    23    20     6
 Initial guess from the checkpoint file:  "Naphthalene.chk"
 B after Tr=     0.000000   -0.000000   -0.000000
         Rot=    0.500000   -0.500000    0.500000    0.500000 Ang=-120.00 deg.
 Initial guess orbital symmetries:
       Occupied  (B1U) (AG) (B3G) (B2U) (B1U) (AG) (B3G) (B1U)
                 (B2U) (AG) (AG) (B2U) (B1U) (AG) (B3G) (B2U) (B1U)
                 (AG) (B2U) (B3G) (AG) (B1U) (AG) (B2U) (B3G) (B1U)
                 (B3U) (B2U) (B3G) (AG) (B1G) (B2G) (B3U) (AU)
       Virtual   (B1G) (B2G) (B3U) (AG) (B2U) (AU) (B1U) (AG) (B3G)
                 (B1U) (B2U) (B3G) (B2G) (B1U) (AG) (B1U) (B3G)
                 (B2U) (AG) (B2U) (B3G) (B1U) (B1U) (AG) (B3G)
                 (B2U) (B3U) (AG) (B1G) (B2U) (B1U) (B2G) (B3G)
                 (B3U) (AG) (AU) (B1U) (B2U) (B2G) (B1G) (AG) (B3U)
                 (AU) (B2G) (B1U) (B3G) (AG) (B2U) (B1U) (B3G)
                 (B2U) (B3G) (B1U) (AG) (AG) (B2U) (B3G) (B2U)
                 (B1U) (B3G) (AG) (B1U) (B2U) (B3G) (B1U) (AG)
                 (B3G) (B2U) (B1U) (AG) (B3G) (B1U)
 ExpMin= 1.83D-01 ExpMax= 1.72D+02 ExpMxC= 1.72D+02 IAcc=3 IRadAn=         5 AccDes= 0.00D+00
 Harris functional with IExCor=  205 and IRadAn=       5 diagonalized for initial guess.
 HarFok:  IExCor=  205 AccDes= 0.00D+00 IRadAn=         5 IDoV= 1 UseB2=F ITyADJ=14
 ICtDFT=  3500011 ScaDFX=  1.000000  1.000000  1.000000  1.000000
 FoFCou: FMM=F IPFlag=           0 FMFlag=      100000 FMFlg1=           0
         NFxFlg=           0 DoJE=T BraDBF=F KetDBF=T FulRan=T
         wScrn=  0.000000 ICntrl=       500 IOpCl=  0 I1Cent=   200000004 NGrid=           0
         NMat0=    1 NMatS0=      1 NMatT0=    0 NMatD0=    1 NMtDS0=    0 NMtDT0=    0
 Petite list used in FoFCou.
 Keep R1 ints in memory in symmetry-blocked form, NReq=18426781.
 Requested convergence on RMS density matrix=1.00D-08 within 128 cycles.
 Requested convergence on MAX density matrix=1.00D-06.
 Requested convergence on             energy=1.00D-06.
 No special actions if energy rises.
 SCF Done:  E(RHF) =  -381.207478452     A.U. after   10 cycles
            NFock= 10  Conv=0.81D-08     -V/T= 2.0040
 ExpMin= 1.83D-01 ExpMax= 1.72D+02 ExpMxC= 1.72D+02 IAcc=3 IRadAn=         5 AccDes= 0.00D+00
 HarFok:  IExCor=  205 AccDes= 0.00D+00 IRadAn=         5 IDoV=-2 UseB2=F ITyADJ=14
 ICtDFT= 12500011 ScaDFX=  1.000000  1.000000  1.000000  1.000000
 Range of M.O.s used for correlation:    11   106
 NBasis=   106 NAE=    34 NBE=    34 NFC=    10 NFV=     0
 NROrb=     96 NOA=    24 NOB=    24 NVA=    72 NVB=    72
 Fully direct method using O(ONN) memory.
 JobTyp=1 Pass  1:  I=  11 to  34 NPSUse=  8 ParTrn=T ParDer=T DoDerP=T.
 Spin components of T(2) and E(2):
     alpha-alpha T2 =       0.5006036021D-01 E2=     -0.1127892055D+00
     alpha-beta  T2 =       0.2712266978D+00 E2=     -0.6464013067D+00
     beta-beta   T2 =       0.5006036021D-01 E2=     -0.1127892055D+00
 ANorm=    0.1171045438D+01
 E2 =    -0.8719797177D+00 EUMP2 =    -0.38207945817016D+03
          IDoAtm=111111111111111111
          Differentiating once with respect to electric field.
                with respect to dipole field.
          Differentiating once with respect to nuclear coordinates.
 Keep R1 ints in memory in symmetry-blocked form, NReq=18428931.
          There are     1 degrees of freedom in the 1st order CPHF.  IDoFFX=0 NUNeed=     1.
 LinEq1:  Iter=  0 NonCon=     1 RMS=4.55D-03 Max=9.44D-02 NDo=     1
 AX will form     1 AO Fock derivatives at one time.
 LinEq1:  Iter=  1 NonCon=     1 RMS=1.12D-03 Max=1.53D-02 NDo=     1
 LinEq1:  Iter=  2 NonCon=     1 RMS=2.19D-04 Max=6.59D-03 NDo=     1
 LinEq1:  Iter=  3 NonCon=     1 RMS=8.64D-05 Max=2.93D-03 NDo=     1
 LinEq1:  Iter=  4 NonCon=     1 RMS=3.29D-05 Max=8.24D-04 NDo=     1
 LinEq1:  Iter=  5 NonCon=     1 RMS=8.46D-06 Max=1.34D-04 NDo=     1
 LinEq1:  Iter=  6 NonCon=     1 RMS=2.50D-06 Max=2.99D-05 NDo=     1
 LinEq1:  Iter=  7 NonCon=     1 RMS=2.82D-07 Max=3.63D-06 NDo=     1
 LinEq1:  Iter=  8 NonCon=     1 RMS=2.45D-08 Max=2.79D-07 NDo=     1
 LinEq1:  Iter=  9 NonCon=     1 RMS=3.69D-09 Max=4.44D-08 NDo=     1
 LinEq1:  Iter= 10 NonCon=     1 RMS=3.41D-10 Max=4.97D-09 NDo=     1
 LinEq1:  Iter= 11 NonCon=     0 RMS=4.33D-11 Max=6.18D-10 NDo=     1
 Linear equations converged to 1.000D-10 1.000D-09 after    11 iterations.
 End of Minotr F.D. properties file   721 does not exist.
 End of Minotr F.D. properties file   722 does not exist.
 End of Minotr F.D. properties file   788 does not exist.
 Calling FoFJK, ICntrl=  10002127 FMM=F ISym2X=1 I1Cent= 0 IOpClX= 0 NMat=1 NMatS=1 NMatT=0.
 ***** Axes restored to original set *****
 -------------------------------------------------------------------
 Center     Atomic                   Forces (Hartrees/Bohr)
 Number     Number              X              Y              Z
 -------------------------------------------------------------------
      1        6          -0.001790880   -0.005560474    0.003163691
      2        6           0.003725705    0.003869563    0.003909050
      3        6          -0.002880773   -0.000821982   -0.005979694
      4        6          -0.000919316   -0.001571476   -0.000124211
      5        6           0.000295283   -0.003597649    0.005630362
      6        6           0.001790880    0.005560474   -0.003163691
      7        6          -0.003725705   -0.003869563   -0.003909050
      8        6           0.002880773    0.000821982    0.005979694
      9        6           0.000919316    0.001571476    0.000124211
     10        6          -0.000295283    0.003597649   -0.005630362
     11        1           0.000361613    0.000907366   -0.000345278
     12        1          -0.000585530   -0.000711678   -0.000473248
     13        1           0.000241625   -0.000404927    0.001147303
     14        1          -0.000391634    0.000148501   -0.001167572
     15        1          -0.000361613   -0.000907366    0.000345278
     16        1           0.000585530    0.000711678    0.000473248
     17        1          -0.000241625    0.000404927   -0.001147303
     18        1           0.000391634   -0.000148501    0.001167572
 -------------------------------------------------------------------
 Cartesian Forces:  Max     0.005979694 RMS     0.002626691

 GradGradGradGradGradGradGradGradGradGradGradGradGradGradGradGradGradGrad
 Berny optimization.
 Using GEDIIS/GDIIS optimizer.
 FormGI is forming the generalized inverse of G from B-inverse, IUseBI=4.
 Internal  Forces:  Max     0.004055824 RMS     0.001102951
 Search for a local minimum.
 Step number   2 out of a maximum of  103
 All quantities printed in internal units (Hartrees-Bohrs-Radians)
 Mixed Optimization -- RFO/linear search
 Update second derivatives using D2CorX and points    1    2
 DE= -5.08D-03 DEPred=-5.05D-03 R= 1.01D+00
 TightC=F SS=  1.41D+00  RLast= 1.51D-01 DXNew= 5.0454D-01 4.5344D-01
 Trust test= 1.01D+00 RLast= 1.51D-01 DXMaxT set to 4.53D-01
 ITU=  1  0
 Use linear search instead of GDIIS.
     Eigenvalues ---    0.01985   0.02000   0.02004   0.02079   0.02084
     Eigenvalues ---    0.02087   0.02087   0.02087   0.02089   0.02157
     Eigenvalues ---    0.02160   0.02162   0.02162   0.02176   0.02176
     Eigenvalues ---    0.15426   0.16000   0.16000   0.16000   0.16000
     Eigenvalues ---    0.16000   0.16000   0.16148   0.22000   0.22000
     Eigenvalues ---    0.22336   0.22805   0.24271   0.24708   0.35095
     Eigenvalues ---    0.35095   0.35095   0.35110   0.35186   0.35186
     Eigenvalues ---    0.35186   0.35187   0.38258   0.40905   0.41174
     Eigenvalues ---    0.41809   0.43636   0.45174   0.45607   0.45703
     Eigenvalues ---    0.45722   0.46625   0.51467
 RFO step:  Lambda=-3.52142289D-04 EMin= 1.98491275D-02
 Quartic linear search produced a step of  0.06485.
 Iteration  1 RMS(Cart)=  0.00363611 RMS(Int)=  0.00001868
 Iteration  2 RMS(Cart)=  0.00001908 RMS(Int)=  0.00000191
 Iteration  3 RMS(Cart)=  0.00000000 RMS(Int)=  0.00000191
 ClnCor:  largest displacement from symmetrization is 4.29D-08 for atom    18.
 Variable       Old X    -DE/DX   Delta X   Delta X   Delta X     New X
                                 (Linear)    (Quad)   (Total)
    R1        2.68945   0.00219   0.00385   0.00338   0.00722   2.69667
    R2        2.63160  -0.00406  -0.00041  -0.00917  -0.00958   2.62202
    R3        2.05477  -0.00009   0.00007  -0.00031  -0.00025   2.05452
    R4        2.63160  -0.00406  -0.00041  -0.00917  -0.00958   2.62202
    R5        2.05477  -0.00009   0.00007  -0.00031  -0.00025   2.05452
    R6        2.70186   0.00124   0.00311   0.00170   0.00481   2.70667
    R7        2.05890  -0.00016   0.00024  -0.00058  -0.00034   2.05856
    R8        2.70186   0.00124   0.00311   0.00170   0.00481   2.70667
    R9        2.73454  -0.00257   0.00403  -0.00784  -0.00380   2.73075
   R10        2.63160  -0.00406  -0.00041  -0.00917  -0.00958   2.62202
   R11        2.05890  -0.00016   0.00024  -0.00058  -0.00034   2.05856
   R12        2.68945   0.00219   0.00385   0.00338   0.00722   2.69667
   R13        2.05477  -0.00009   0.00007  -0.00031  -0.00025   2.05452
   R14        2.63160  -0.00406  -0.00041  -0.00917  -0.00958   2.62202
   R15        2.05477  -0.00009   0.00007  -0.00031  -0.00025   2.05452
   R16        2.70186   0.00124   0.00311   0.00170   0.00481   2.70667
   R17        2.05890  -0.00016   0.00024  -0.00058  -0.00034   2.05856
   R18        2.70186   0.00124   0.00311   0.00170   0.00481   2.70667
   R19        2.05890  -0.00016   0.00024  -0.00058  -0.00034   2.05856
    A1        2.10138  -0.00021   0.00046  -0.00132  -0.00086   2.10053
    A2        2.09627  -0.00096   0.00006  -0.00646  -0.00641   2.08986
    A3        2.08553   0.00116  -0.00052   0.00778   0.00726   2.09280
    A4        2.10138  -0.00021   0.00046  -0.00132  -0.00086   2.10053
    A5        2.09627  -0.00096   0.00006  -0.00646  -0.00641   2.08986
    A6        2.08553   0.00116  -0.00052   0.00778   0.00726   2.09280
    A7        2.10517   0.00052  -0.00014   0.00252   0.00238   2.10755
    A8        2.09154   0.00100   0.00103   0.00686   0.00790   2.09944
    A9        2.08647  -0.00153  -0.00089  -0.00939  -0.01028   2.07619
   A10        2.12993   0.00063   0.00064   0.00241   0.00305   2.13297
   A11        2.07663  -0.00031  -0.00032  -0.00120  -0.00152   2.07511
   A12        2.07663  -0.00031  -0.00032  -0.00120  -0.00152   2.07511
   A13        2.10517   0.00052  -0.00014   0.00252   0.00238   2.10755
   A14        2.08647  -0.00153  -0.00089  -0.00939  -0.01028   2.07619
   A15        2.09154   0.00100   0.00103   0.00686   0.00790   2.09944
   A16        2.10138  -0.00021   0.00046  -0.00132  -0.00086   2.10053
   A17        2.08553   0.00116  -0.00052   0.00778   0.00726   2.09280
   A18        2.09627  -0.00096   0.00006  -0.00646  -0.00641   2.08986
   A19        2.10138  -0.00021   0.00046  -0.00132  -0.00086   2.10053
   A20        2.09627  -0.00096   0.00006  -0.00646  -0.00641   2.08986
   A21        2.08553   0.00116  -0.00052   0.00778   0.00726   2.09280
   A22        2.10517   0.00052  -0.00014   0.00252   0.00238   2.10755
   A23        2.09154   0.00100   0.00103   0.00686   0.00790   2.09944
   A24        2.08647  -0.00153  -0.00089  -0.00939  -0.01028   2.07619
   A25        2.07663  -0.00031  -0.00032  -0.00120  -0.00152   2.07511
   A26        2.07663  -0.00031  -0.00032  -0.00120  -0.00152   2.07511
   A27        2.12993   0.00063   0.00064   0.00241   0.00305   2.13297
   A28        2.10517   0.00052  -0.00014   0.00252   0.00238   2.10755
   A29        2.09154   0.00100   0.00103   0.00686   0.00790   2.09944
   A30        2.08647  -0.00153  -0.00089  -0.00939  -0.01028   2.07619
    D1        0.00000  -0.00000   0.00000  -0.00000  -0.00000   0.00000
    D2       -3.14159  -0.00000   0.00000   0.00000  -0.00000   3.14159
    D3        3.14159  -0.00000  -0.00000  -0.00000   0.00000   3.14159
    D4       -0.00000  -0.00000   0.00000  -0.00000   0.00000   0.00000
    D5        0.00000   0.00000   0.00000  -0.00000  -0.00000   0.00000
    D6        3.14159   0.00000  -0.00000  -0.00000   0.00000   3.14159
    D7        3.14159   0.00000   0.00000   0.00000   0.00000   3.14159
    D8       -0.00000   0.00000   0.00000   0.00000   0.00000   0.00000
    D9       -0.00000  -0.00000   0.00000   0.00000  -0.00000  -0.00000
   D10        3.14159   0.00000   0.00000   0.00000   0.00000   3.14159
   D11        3.14159  -0.00000   0.00000  -0.00000   0.00000   3.14159
   D12       -0.00000  -0.00000  -0.00000  -0.00000   0.00000   0.00000
   D13        3.14159   0.00000   0.00000   0.00000   0.00000   3.14159
   D14       -0.00000   0.00000   0.00000  -0.00000   0.00000   0.00000
   D15        0.00000   0.00000   0.00000   0.00000   0.00000   0.00000
   D16        3.14159   0.00000   0.00000   0.00000   0.00000   3.14159
   D17        3.14159  -0.00000   0.00000  -0.00000   0.00000   3.14159
   D18       -0.00000   0.00000   0.00000   0.00000   0.00000   0.00000
   D19        0.00000  -0.00000   0.00000   0.00000   0.00000   0.00000
   D20        3.14159   0.00000   0.00000   0.00000   0.00000   3.14159
   D21        3.14159  -0.00000  -0.00000  -0.00000   0.00000   3.14159
   D22        0.00000  -0.00000   0.00000  -0.00000  -0.00000   0.00000
   D23       -0.00000  -0.00000   0.00000  -0.00000   0.00000   0.00000
   D24        3.14159  -0.00000  -0.00000  -0.00000   0.00000   3.14159
   D25       -0.00000   0.00000  -0.00000  -0.00000   0.00000   0.00000
   D26        3.14159   0.00000   0.00000   0.00000   0.00000   3.14159
   D27        3.14159   0.00000   0.00000  -0.00000   0.00000   3.14159
   D28        0.00000  -0.00000  -0.00000   0.00000   0.00000   0.00000
   D29        0.00000  -0.00000   0.00000   0.00000   0.00000   0.00000
   D30        3.14159  -0.00000   0.00000  -0.00000   0.00000   3.14159
   D31        3.14159  -0.00000   0.00000   0.00000   0.00000  -3.14159
   D32       -0.00000   0.00000  -0.00000  -0.00000   0.00000  -0.00000
   D33       -0.00000   0.00000  -0.00000  -0.00000   0.00000  -0.00000
   D34        3.14159   0.00000   0.00000  -0.00000  -0.00000   3.14159
   D35        3.14159  -0.00000   0.00000   0.00000   0.00000  -3.14159
   D36        0.00000  -0.00000   0.00000   0.00000   0.00000   0.00000
   D37        0.00000   0.00000   0.00000   0.00000   0.00000   0.00000
   D38       -3.14159   0.00000   0.00000   0.00000  -0.00000   3.14159
   D39        3.14159   0.00000   0.00000   0.00000   0.00000  -3.14159
   D40       -0.00000   0.00000   0.00000   0.00000   0.00000   0.00000
   D41       -0.00000  -0.00000   0.00000   0.00000   0.00000   0.00000
   D42       -3.14159  -0.00000   0.00000   0.00000  -0.00000   3.14159
   D43        3.14159  -0.00000   0.00000   0.00000   0.00000   3.14159
   D44        0.00000  -0.00000   0.00000   0.00000   0.00000   0.00000
         Item               Value     Threshold  Converged?
 Maximum Force            0.004056     0.000450     NO 
 RMS     Force            0.001103     0.000300     NO 
 Maximum Displacement     0.011343     0.001800     NO 
 RMS     Displacement     0.003639     0.001200     NO 
 Predicted change in Energy=-1.897360D-04
 GradGradGradGradGradGradGradGradGradGradGradGradGradGradGradGradGradGrad

                          Input orientation:                          
 ---------------------------------------------------------------------
 Center     Atomic      Atomic             Coordinates (Angstroms)
 Number     Number       Type             X           Y           Z
 ---------------------------------------------------------------------
      1          6           0       -0.858994    0.127191   -2.696618
      2          6           0       -0.140100    1.356066   -2.599487
      3          6           0        0.520960    1.690779   -1.426389
      4          6           0        0.494726    0.813004   -0.294876
      5          6           0        1.165809    1.127223    0.930854
      6          6           0        1.120467    0.254413    2.008507
      7          6           0        0.401573   -0.974463    1.911376
      8          6           0       -0.259487   -1.309175    0.738278
      9          6           0       -0.233253   -0.431400   -0.393235
     10          6           0       -0.904336   -0.745619   -1.618964
     11          1           0       -1.373414   -0.125133   -3.620588
     12          1           0       -0.111119    2.032632   -3.450036
     13          1           0        1.069437    2.629131   -1.353355
     14          1           0        1.714896    2.065043    1.006114
     15          1           0        1.634887    0.506736    2.932477
     16          1           0        0.372592   -1.651028    2.761925
     17          1           0       -0.807964   -2.247528    0.665244
     18          1           0       -1.453423   -1.683439   -1.694225
 ---------------------------------------------------------------------
                    Distance matrix (angstroms):
                    1          2          3          4          5
     1  C    0.000000
     2  C    1.427018   0.000000
     3  C    2.441836   1.387512   0.000000
     4  C    2.840997   2.451357   1.432306   0.000000
     5  C    4.272990   3.771083   2.507991   1.432306   0.000000
     6  C    5.106139   4.902681   3.771083   2.451357   1.387512
     7  C    4.902681   5.106139   4.272990   2.840997   2.441836
     8  C    3.771083   4.272990   3.780821   2.477880   2.829238
     9  C    2.451357   2.840997   2.477880   1.445050   2.477880
    10  C    1.387512   2.441836   2.829238   2.477880   3.780821
    11  H    1.087205   2.181207   3.420628   3.928156   5.360193
    12  H    2.181207   1.087205   2.147448   3.436506   4.652151
    13  H    3.432624   2.153258   1.089342   2.179218   2.735439
    14  H    4.908198   4.116310   2.735439   2.179218   1.089342
    15  H    6.168485   5.871504   4.652151   3.436506   2.147448
    16  H    5.871504   6.168485   5.360193   3.928156   3.420628
    17  H    4.116310   4.908198   4.653088   3.462035   3.918580
    18  H    2.153258   3.432624   3.918580   3.462035   4.653088
                    6          7          8          9         10
     6  C    0.000000
     7  C    1.427018   0.000000
     8  C    2.441836   1.387512   0.000000
     9  C    2.840997   2.451357   1.432306   0.000000
    10  C    4.272990   3.771083   2.507991   1.432306   0.000000
    11  H    6.168485   5.871504   4.652151   3.436506   2.147448
    12  H    5.871504   6.168485   5.360193   3.928156   3.420628
    13  H    4.116310   4.908198   4.653088   3.462035   3.918580
    14  H    2.153258   3.432624   3.918580   3.462035   4.653088
    15  H    1.087205   2.181207   3.420628   3.928156   5.360193
    16  H    2.181207   1.087205   2.147448   3.436506   4.652151
    17  H    3.432624   2.153258   1.089342   2.179218   2.735439
    18  H    4.908198   4.116310   2.735439   2.179218   1.089342
                   11         12         13         14         15
    11  H    0.000000
    12  H    2.505679   0.000000
    13  H    4.323637   2.479031   0.000000
    14  H    5.978369   4.815875   2.510360   0.000000
    15  H    7.238218   6.790683   4.815875   2.479031   0.000000
    16  H    6.790683   7.238218   5.978369   4.323637   2.505679
    17  H    4.815875   5.978369   5.601891   5.007922   4.323637
    18  H    2.479031   4.323637   5.007922   5.601891   5.978369
                   16         17         18
    16  H    0.000000
    17  H    2.479031   0.000000
    18  H    4.815875   2.510360   0.000000
 Stoichiometry    C10H8
 Framework group  D2H[C2"(C.C),SG(C8H8)]
 Deg. of freedom     9
 Full point group                 D2H     NOp   8
 Largest Abelian subgroup         D2H     NOp   8
 Largest concise Abelian subgroup D2      NOp   4
                         Standard orientation:                         
 ---------------------------------------------------------------------
 Center     Atomic      Atomic             Coordinates (Angstroms)
 Number     Number       Type             X           Y           Z
 ---------------------------------------------------------------------
      1          6           0        0.000000    2.451340    0.713509
      2          6           0       -0.000000    2.451340   -0.713509
      3          6           0       -0.000000    1.253996   -1.414619
      4          6           0       -0.000000    0.000000   -0.722525
      5          6           0        0.000000   -1.253996   -1.414619
      6          6           0       -0.000000   -2.451340   -0.713509
      7          6           0       -0.000000   -2.451340    0.713509
      8          6           0       -0.000000   -1.253996    1.414619
      9          6           0        0.000000   -0.000000    0.722525
     10          6           0        0.000000    1.253996    1.414619
     11          1           0        0.000000    3.395341    1.252839
     12          1           0       -0.000000    3.395341   -1.252839
     13          1           0       -0.000000    1.255180   -2.503961
     14          1           0        0.000000   -1.255180   -2.503961
     15          1           0       -0.000000   -3.395341   -1.252839
     16          1           0       -0.000000   -3.395341    1.252839
     17          1           0       -0.000000   -1.255180    2.503961
     18          1           0        0.000000    1.255180    2.503961
 ---------------------------------------------------------------------
 Rotational constants (GHZ):           3.0699040           1.2126933           0.8692977
 Standard basis: 3-21G (6D, 7F)
 There are    23 symmetry adapted cartesian basis functions of AG  symmetry.
 There are     4 symmetry adapted cartesian basis functions of B1G symmetry.
 There are     6 symmetry adapted cartesian basis functions of B2G symmetry.
 There are    20 symmetry adapted cartesian basis functions of B3G symmetry.
 There are     4 symmetry adapted cartesian basis functions of AU  symmetry.
 There are    23 symmetry adapted cartesian basis functions of B1U symmetry.
 There are    20 symmetry adapted cartesian basis functions of B2U symmetry.
 There are     6 symmetry adapted cartesian basis functions of B3U symmetry.
 There are    23 symmetry adapted basis functions of AG  symmetry.
 There are     4 symmetry adapted basis functions of B1G symmetry.
 There are     6 symmetry adapted basis functions of B2G symmetry.
 There are    20 symmetry adapted basis functions of B3G symmetry.
 There are     4 symmetry adapted basis functions of AU  symmetry.
 There are    23 symmetry adapted basis functions of B1U symmetry.
 There are    20 symmetry adapted basis functions of B2U symmetry.
 There are     6 symmetry adapted basis functions of B3U symmetry.
   106 basis functions,   174 primitive gaussians,   106 cartesian basis functions
    34 alpha electrons       34 beta electrons
       nuclear repulsion energy       453.9841016729 Hartrees.
 NAtoms=   18 NActive=   18 NUniq=    5 SFac= 4.00D+00 NAtFMM=   60 NAOKFM=F Big=F
 Integral buffers will be    131072 words long.
 Raffenetti 1 integral format.
 Two-electron integral symmetry is turned on.
 One-electron integrals computed using PRISM.
 NBasis=   106 RedAO= T EigKep=  1.19D-03  NBF=    23     4     6    20     4    23    20     6
 NBsUse=   106 1.00D-06 EigRej= -1.00D+00 NBFU=    23     4     6    20     4    23    20     6
 Initial guess from the checkpoint file:  "Naphthalene.chk"
 B after Tr=    -0.000000   -0.000000   -0.000000
         Rot=    1.000000    0.000000   -0.000000    0.000000 Ang=   0.00 deg.
 Initial guess orbital symmetries:
       Occupied  (B1U) (AG) (B3G) (B2U) (B1U) (AG) (B3G) (B1U)
                 (B2U) (AG) (AG) (B2U) (B1U) (AG) (B3G) (B2U) (B1U)
                 (AG) (B3G) (B2U) (AG) (B1U) (AG) (B3G) (B2U) (B1U)
                 (B3U) (B2U) (B3G) (AG) (B1G) (B2G) (B3U) (AU)
       Virtual   (B1G) (B2G) (B3U) (AG) (B2U) (AU) (B1U) (AG) (B3G)
                 (B1U) (B2U) (B3G) (B2G) (B1U) (AG) (B1U) (B3G)
                 (B2U) (AG) (B2U) (B1U) (B3G) (B1U) (AG) (B3G)
                 (B2U) (B3U) (AG) (B1G) (B1U) (B2U) (B2G) (B3G)
                 (B3U) (AG) (AU) (B1U) (B2U) (B2G) (B1G) (B3U)
                 (AG) (AU) (B2G) (B1U) (B3G) (B2U) (AG) (B1U) (B3G)
                 (B2U) (B3G) (B1U) (AG) (B2U) (AG) (B3G) (B2U)
                 (B1U) (B3G) (B1U) (B3G) (B2U) (AG) (B1U) (AG)
                 (B3G) (B2U) (B1U) (AG) (B3G) (B1U)
 Keep R1 ints in memory in symmetry-blocked form, NReq=18426781.
 Requested convergence on RMS density matrix=1.00D-08 within 128 cycles.
 Requested convergence on MAX density matrix=1.00D-06.
 Requested convergence on             energy=1.00D-06.
 No special actions if energy rises.
 SCF Done:  E(RHF) =  -381.208437401     A.U. after   10 cycles
            NFock= 10  Conv=0.21D-08     -V/T= 2.0039
 ExpMin= 1.83D-01 ExpMax= 1.72D+02 ExpMxC= 1.72D+02 IAcc=3 IRadAn=         5 AccDes= 0.00D+00
 HarFok:  IExCor=  205 AccDes= 0.00D+00 IRadAn=         5 IDoV=-2 UseB2=F ITyADJ=14
 ICtDFT= 12500011 ScaDFX=  1.000000  1.000000  1.000000  1.000000
 Range of M.O.s used for correlation:    11   106
 NBasis=   106 NAE=    34 NBE=    34 NFC=    10 NFV=     0
 NROrb=     96 NOA=    24 NOB=    24 NVA=    72 NVB=    72
 Fully direct method using O(ONN) memory.
 JobTyp=1 Pass  1:  I=  11 to  34 NPSUse=  8 ParTrn=T ParDer=T DoDerP=T.
 Spin components of T(2) and E(2):
     alpha-alpha T2 =       0.4991286978D-01 E2=     -0.1126434259D+00
     alpha-beta  T2 =       0.2706823927D+00 E2=     -0.6459709483D+00
     beta-beta   T2 =       0.4991286978D-01 E2=     -0.1126434259D+00
 ANorm=    0.1170687034D+01
 E2 =    -0.8712578002D+00 EUMP2 =    -0.38207969520122D+03
          IDoAtm=111111111111111111
          Differentiating once with respect to electric field.
                with respect to dipole field.
          Differentiating once with respect to nuclear coordinates.
 Keep R1 ints in memory in symmetry-blocked form, NReq=18428931.
          There are     1 degrees of freedom in the 1st order CPHF.  IDoFFX=0 NUNeed=     1.
 LinEq1:  Iter=  0 NonCon=     1 RMS=4.55D-03 Max=9.38D-02 NDo=     1
 AX will form     1 AO Fock derivatives at one time.
 LinEq1:  Iter=  1 NonCon=     1 RMS=1.12D-03 Max=1.53D-02 NDo=     1
 LinEq1:  Iter=  2 NonCon=     1 RMS=2.21D-04 Max=6.79D-03 NDo=     1
 LinEq1:  Iter=  3 NonCon=     1 RMS=8.74D-05 Max=2.99D-03 NDo=     1
 LinEq1:  Iter=  4 NonCon=     1 RMS=3.33D-05 Max=8.22D-04 NDo=     1
 LinEq1:  Iter=  5 NonCon=     1 RMS=8.40D-06 Max=1.31D-04 NDo=     1
 LinEq1:  Iter=  6 NonCon=     1 RMS=2.49D-06 Max=2.96D-05 NDo=     1
 LinEq1:  Iter=  7 NonCon=     1 RMS=2.81D-07 Max=3.59D-06 NDo=     1
 LinEq1:  Iter=  8 NonCon=     1 RMS=2.45D-08 Max=2.70D-07 NDo=     1
 LinEq1:  Iter=  9 NonCon=     1 RMS=3.60D-09 Max=3.74D-08 NDo=     1
 LinEq1:  Iter= 10 NonCon=     1 RMS=3.26D-10 Max=4.30D-09 NDo=     1
 LinEq1:  Iter= 11 NonCon=     0 RMS=4.01D-11 Max=6.06D-10 NDo=     1
 Linear equations converged to 1.000D-10 1.000D-09 after    11 iterations.
 End of Minotr F.D. properties file   721 does not exist.
 End of Minotr F.D. properties file   722 does not exist.
 End of Minotr F.D. properties file   788 does not exist.
 Calling FoFJK, ICntrl=  10002127 FMM=F ISym2X=1 I1Cent= 0 IOpClX= 0 NMat=1 NMatS=1 NMatT=0.
 ***** Axes restored to original set *****
 -------------------------------------------------------------------
 Center     Atomic                   Forces (Hartrees/Bohr)
 Number     Number              X              Y              Z
 -------------------------------------------------------------------
      1        6          -0.000558924   -0.001566883    0.000757737
      2        6           0.001032313    0.001153172    0.000972733
      3        6          -0.000421773   -0.000104253   -0.000897415
      4        6          -0.001106476   -0.001891408   -0.000149499
      5        6           0.000055691   -0.000521526    0.000847953
      6        6           0.000558924    0.001566883   -0.000757737
      7        6          -0.001032313   -0.001153172   -0.000972733
      8        6           0.000421773    0.000104253    0.000897415
      9        6           0.001106476    0.001891408    0.000149499
     10        6          -0.000055691    0.000521526   -0.000847953
     11        1           0.000138825    0.000344595   -0.000127448
     12        1          -0.000221887   -0.000272005   -0.000176185
     13        1           0.000107531    0.000009762    0.000251713
     14        1          -0.000027218    0.000127524   -0.000240862
     15        1          -0.000138825   -0.000344595    0.000127448
     16        1           0.000221887    0.000272005    0.000176185
     17        1          -0.000107531   -0.000009762   -0.000251713
     18        1           0.000027218   -0.000127524    0.000240862
 -------------------------------------------------------------------
 Cartesian Forces:  Max     0.001891408 RMS     0.000718904

 GradGradGradGradGradGradGradGradGradGradGradGradGradGradGradGradGradGrad
 Berny optimization.
 Using GEDIIS/GDIIS optimizer.
 FormGI is forming the generalized inverse of G from B-inverse, IUseBI=4.
 Internal  Forces:  Max     0.001781903 RMS     0.000331419
 Search for a local minimum.
 Step number   3 out of a maximum of  103
 All quantities printed in internal units (Hartrees-Bohrs-Radians)
 Mixed Optimization -- En-DIIS/RFO-DIIS
 Update second derivatives using D2CorX and points    1    2    3
 DE= -2.37D-04 DEPred=-1.90D-04 R= 1.25D+00
 TightC=F SS=  1.41D+00  RLast= 4.10D-02 DXNew= 7.6259D-01 1.2294D-01
 Trust test= 1.25D+00 RLast= 4.10D-02 DXMaxT set to 4.53D-01
 ITU=  1  1  0
 Use linear search instead of GDIIS.
     Eigenvalues ---    0.01985   0.02000   0.02004   0.02079   0.02085
     Eigenvalues ---    0.02087   0.02087   0.02088   0.02089   0.02157
     Eigenvalues ---    0.02160   0.02162   0.02162   0.02176   0.02176
     Eigenvalues ---    0.12709   0.16000   0.16000   0.16000   0.16000
     Eigenvalues ---    0.16000   0.16000   0.16121   0.22000   0.22000
     Eigenvalues ---    0.22334   0.23637   0.24272   0.24709   0.34867
     Eigenvalues ---    0.35095   0.35095   0.35095   0.35186   0.35186
     Eigenvalues ---    0.35186   0.35188   0.35644   0.40983   0.41165
     Eigenvalues ---    0.41800   0.43641   0.45079   0.45606   0.45703
     Eigenvalues ---    0.45722   0.46625   0.50861
 RFO step:  Lambda=-1.83172046D-05 EMin= 1.98516121D-02
 Quartic linear search produced a step of  0.29513.
 Iteration  1 RMS(Cart)=  0.00188639 RMS(Int)=  0.00000338
 Iteration  2 RMS(Cart)=  0.00000356 RMS(Int)=  0.00000034
 Iteration  3 RMS(Cart)=  0.00000000 RMS(Int)=  0.00000034
 ClnCor:  largest displacement from symmetrization is 2.45D-08 for atom    15.
 Variable       Old X    -DE/DX   Delta X   Delta X   Delta X     New X
                                 (Linear)    (Quad)   (Total)
    R1        2.69667   0.00073   0.00213   0.00118   0.00331   2.69998
    R2        2.62202  -0.00090  -0.00283  -0.00014  -0.00296   2.61905
    R3        2.05452  -0.00004  -0.00007  -0.00006  -0.00013   2.05439
    R4        2.62202  -0.00090  -0.00283  -0.00014  -0.00296   2.61905
    R5        2.05452  -0.00004  -0.00007  -0.00006  -0.00013   2.05439
    R6        2.70667   0.00002   0.00142  -0.00054   0.00088   2.70755
    R7        2.05856   0.00008  -0.00010   0.00043   0.00033   2.05889
    R8        2.70667   0.00002   0.00142  -0.00054   0.00088   2.70755
    R9        2.73075  -0.00178  -0.00112  -0.00376  -0.00488   2.72587
   R10        2.62202  -0.00090  -0.00283  -0.00014  -0.00296   2.61905
   R11        2.05856   0.00008  -0.00010   0.00043   0.00033   2.05889
   R12        2.69667   0.00073   0.00213   0.00118   0.00331   2.69998
   R13        2.05452  -0.00004  -0.00007  -0.00006  -0.00013   2.05439
   R14        2.62202  -0.00090  -0.00283  -0.00014  -0.00296   2.61905
   R15        2.05452  -0.00004  -0.00007  -0.00006  -0.00013   2.05439
   R16        2.70667   0.00002   0.00142  -0.00054   0.00088   2.70755
   R17        2.05856   0.00008  -0.00010   0.00043   0.00033   2.05889
   R18        2.70667   0.00002   0.00142  -0.00054   0.00088   2.70755
   R19        2.05856   0.00008  -0.00010   0.00043   0.00033   2.05889
    A1        2.10053  -0.00011  -0.00025   0.00014  -0.00012   2.10041
    A2        2.08986  -0.00035  -0.00189  -0.00150  -0.00339   2.08647
    A3        2.09280   0.00046   0.00214   0.00136   0.00351   2.09630
    A4        2.10053  -0.00011  -0.00025   0.00014  -0.00012   2.10041
    A5        2.08986  -0.00035  -0.00189  -0.00150  -0.00339   2.08647
    A6        2.09280   0.00046   0.00214   0.00136   0.00351   2.09630
    A7        2.10755  -0.00012   0.00070  -0.00139  -0.00069   2.10686
    A8        2.09944   0.00033   0.00233   0.00083   0.00316   2.10260
    A9        2.07619  -0.00021  -0.00303   0.00056  -0.00247   2.07372
   A10        2.13297  -0.00046   0.00090  -0.00251  -0.00161   2.13136
   A11        2.07511   0.00023  -0.00045   0.00125   0.00080   2.07591
   A12        2.07511   0.00023  -0.00045   0.00125   0.00080   2.07591
   A13        2.10755  -0.00012   0.00070  -0.00139  -0.00069   2.10686
   A14        2.07619  -0.00021  -0.00303   0.00056  -0.00247   2.07372
   A15        2.09944   0.00033   0.00233   0.00083   0.00316   2.10260
   A16        2.10053  -0.00011  -0.00025   0.00014  -0.00012   2.10041
   A17        2.09280   0.00046   0.00214   0.00136   0.00351   2.09630
   A18        2.08986  -0.00035  -0.00189  -0.00150  -0.00339   2.08647
   A19        2.10053  -0.00011  -0.00025   0.00014  -0.00012   2.10041
   A20        2.08986  -0.00035  -0.00189  -0.00150  -0.00339   2.08647
   A21        2.09280   0.00046   0.00214   0.00136   0.00351   2.09630
   A22        2.10755  -0.00012   0.00070  -0.00139  -0.00069   2.10686
   A23        2.09944   0.00033   0.00233   0.00083   0.00316   2.10260
   A24        2.07619  -0.00021  -0.00303   0.00056  -0.00247   2.07372
   A25        2.07511   0.00023  -0.00045   0.00125   0.00080   2.07591
   A26        2.07511   0.00023  -0.00045   0.00125   0.00080   2.07591
   A27        2.13297  -0.00046   0.00090  -0.00251  -0.00161   2.13136
   A28        2.10755  -0.00012   0.00070  -0.00139  -0.00069   2.10686
   A29        2.09944   0.00033   0.00233   0.00083   0.00316   2.10260
   A30        2.07619  -0.00021  -0.00303   0.00056  -0.00247   2.07372
    D1       -0.00000   0.00000   0.00000   0.00000  -0.00000  -0.00000
    D2        3.14159   0.00000  -0.00000  -0.00000  -0.00000   3.14159
    D3        3.14159   0.00000   0.00000   0.00000   0.00000   3.14159
    D4       -0.00000   0.00000   0.00000  -0.00000   0.00000   0.00000
    D5        0.00000  -0.00000  -0.00000  -0.00000   0.00000   0.00000
    D6        3.14159  -0.00000   0.00000   0.00000   0.00000   3.14159
    D7        3.14159  -0.00000   0.00000  -0.00000   0.00000   3.14159
    D8        0.00000  -0.00000   0.00000   0.00000   0.00000   0.00000
    D9        0.00000  -0.00000   0.00000  -0.00000   0.00000   0.00000
   D10        3.14159  -0.00000  -0.00000  -0.00000   0.00000  -3.14159
   D11       -3.14159  -0.00000   0.00000   0.00000  -0.00000   3.14159
   D12       -0.00000  -0.00000   0.00000   0.00000   0.00000   0.00000
   D13        3.14159  -0.00000  -0.00000  -0.00000   0.00000   3.14159
   D14       -0.00000  -0.00000   0.00000  -0.00000   0.00000   0.00000
   D15        0.00000  -0.00000   0.00000  -0.00000   0.00000   0.00000
   D16        3.14159  -0.00000   0.00000   0.00000   0.00000   3.14159
   D17       -3.14159  -0.00000   0.00000   0.00000  -0.00000   3.14159
   D18        0.00000  -0.00000   0.00000   0.00000   0.00000   0.00000
   D19        0.00000  -0.00000   0.00000  -0.00000   0.00000   0.00000
   D20       -3.14159  -0.00000   0.00000  -0.00000  -0.00000   3.14159
   D21        3.14159   0.00000   0.00000   0.00000   0.00000   3.14159
   D22       -0.00000   0.00000   0.00000   0.00000   0.00000   0.00000
   D23       -0.00000   0.00000   0.00000   0.00000   0.00000   0.00000
   D24        3.14159   0.00000   0.00000   0.00000   0.00000   3.14159
   D25       -0.00000   0.00000   0.00000   0.00000   0.00000   0.00000
   D26        3.14159   0.00000   0.00000  -0.00000  -0.00000   3.14159
   D27        3.14159   0.00000   0.00000   0.00000   0.00000   3.14159
   D28       -0.00000   0.00000   0.00000  -0.00000   0.00000   0.00000
   D29       -0.00000   0.00000   0.00000  -0.00000   0.00000   0.00000
   D30        3.14159   0.00000   0.00000   0.00000   0.00000   3.14159
   D31        3.14159   0.00000   0.00000  -0.00000   0.00000   3.14159
   D32        0.00000   0.00000   0.00000   0.00000   0.00000   0.00000
   D33        0.00000  -0.00000   0.00000   0.00000   0.00000   0.00000
   D34        3.14159  -0.00000   0.00000   0.00000  -0.00000   3.14159
   D35       -3.14159  -0.00000   0.00000  -0.00000  -0.00000   3.14159
   D36        0.00000  -0.00000   0.00000  -0.00000  -0.00000  -0.00000
   D37        0.00000   0.00000   0.00000  -0.00000   0.00000   0.00000
   D38        3.14159   0.00000  -0.00000  -0.00000   0.00000   3.14159
   D39        3.14159  -0.00000   0.00000  -0.00000   0.00000  -3.14159
   D40       -0.00000  -0.00000   0.00000  -0.00000   0.00000   0.00000
   D41        0.00000  -0.00000   0.00000  -0.00000  -0.00000   0.00000
   D42        3.14159  -0.00000  -0.00000  -0.00000   0.00000   3.14159
   D43        3.14159  -0.00000   0.00000   0.00000   0.00000   3.14159
   D44        0.00000  -0.00000  -0.00000  -0.00000  -0.00000   0.00000
         Item               Value     Threshold  Converged?
 Maximum Force            0.001782     0.000450     NO 
 RMS     Force            0.000331     0.000300     NO 
 Maximum Displacement     0.006621     0.001800     NO 
 RMS     Displacement     0.001887     0.001200     NO 
 Predicted change in Energy=-2.232511D-05
 GradGradGradGradGradGradGradGradGradGradGradGradGradGradGradGradGradGrad

                          Input orientation:                          
 ---------------------------------------------------------------------
 Center     Atomic      Atomic             Coordinates (Angstroms)
 Number     Number       Type             X           Y           Z
 ---------------------------------------------------------------------
      1          6           0       -0.859070    0.126117   -2.695342
      2          6           0       -0.139293    1.356501   -2.598092
      3          6           0        0.520970    1.690698   -1.426253
      4          6           0        0.494076    0.811893   -0.294964
      5          6           0        1.165743    1.127208    0.930710
      6          6           0        1.120543    0.255486    2.007232
      7          6           0        0.400767   -0.974897    1.909981
      8          6           0       -0.259497   -1.309094    0.738142
      9          6           0       -0.232602   -0.430289   -0.393147
     10          6           0       -0.904270   -0.745605   -1.618821
     11          1           0       -1.372311   -0.123021   -3.620748
     12          1           0       -0.112397    2.030674   -3.450518
     13          1           0        1.070452    2.628396   -1.349852
     14          1           0        1.713998    2.065978    1.002626
     15          1           0        1.633785    0.504625    2.932637
     16          1           0        0.373870   -1.649070    2.762407
     17          1           0       -0.808979   -2.246792    0.661741
     18          1           0       -1.452525   -1.684375   -1.690737
 ---------------------------------------------------------------------
                    Distance matrix (angstroms):
                    1          2          3          4          5
     1  C    0.000000
     2  C    1.428769   0.000000
     3  C    2.441927   1.385944   0.000000
     4  C    2.839561   2.449929   1.432773   0.000000
     5  C    4.272038   3.769368   2.507694   1.432773   0.000000
     6  C    5.103901   4.899839   3.769368   2.449929   1.385944
     7  C    4.899839   5.103901   4.272038   2.839561   2.441927
     8  C    3.769368   4.272038   3.780541   2.476644   2.829127
     9  C    2.449929   2.839561   2.476644   1.442469   2.476644
    10  C    1.385944   2.441927   2.829127   2.476644   3.780541
    11  H    1.087135   2.180630   3.419050   3.926615   5.359157
    12  H    2.180630   1.087135   2.148112   3.436678   4.652424
    13  H    3.434355   2.153904   1.089516   2.178229   2.731960
    14  H    4.904968   4.111352   2.731960   2.178229   1.089516
    15  H    6.166988   5.870133   4.652424   3.436678   2.148112
    16  H    5.870133   6.166988   5.359157   3.926615   3.419050
    17  H    4.111352   4.904968   4.651055   3.459593   3.918641
    18  H    2.153904   3.434355   3.918641   3.459593   4.651055
                    6          7          8          9         10
     6  C    0.000000
     7  C    1.428769   0.000000
     8  C    2.441927   1.385944   0.000000
     9  C    2.839561   2.449929   1.432773   0.000000
    10  C    4.272038   3.769368   2.507694   1.432773   0.000000
    11  H    6.166988   5.870133   4.652424   3.436678   2.148112
    12  H    5.870133   6.166988   5.359157   3.926615   3.419050
    13  H    4.111352   4.904968   4.651055   3.459593   3.918641
    14  H    2.153904   3.434355   3.918641   3.459593   4.651055
    15  H    1.087135   2.180630   3.419050   3.926615   5.359157
    16  H    2.180630   1.087135   2.148112   3.436678   4.652424
    17  H    3.434355   2.153904   1.089516   2.178229   2.731960
    18  H    4.904968   4.111352   2.731960   2.178229   1.089516
                   11         12         13         14         15
    11  H    0.000000
    12  H    2.500953   0.000000
    13  H    4.323697   2.483787   0.000000
    14  H    5.974329   4.813258   2.502922   0.000000
    15  H    7.237224   6.791365   4.813258   2.483787   0.000000
    16  H    6.791365   7.237224   5.974329   4.323697   2.500953
    17  H    4.813258   5.974329   5.598769   5.008153   4.323697
    18  H    2.483787   4.323697   5.008153   5.598769   5.974329
                   16         17         18
    16  H    0.000000
    17  H    2.483787   0.000000
    18  H    4.813258   2.502922   0.000000
 Stoichiometry    C10H8
 Framework group  D2H[C2"(C.C),SG(C8H8)]
 Deg. of freedom     9
 Full point group                 D2H     NOp   8
 Largest Abelian subgroup         D2H     NOp   8
 Largest concise Abelian subgroup D2      NOp   4
                         Standard orientation:                         
 ---------------------------------------------------------------------
 Center     Atomic      Atomic             Coordinates (Angstroms)
 Number     Number       Type             X           Y           Z
 ---------------------------------------------------------------------
      1          6           0        0.000000    2.449920    0.714384
      2          6           0       -0.000000    2.449920   -0.714384
      3          6           0       -0.000000    1.253847   -1.414564
      4          6           0       -0.000000    0.000000   -0.721234
      5          6           0       -0.000000   -1.253847   -1.414564
      6          6           0       -0.000000   -2.449920   -0.714384
      7          6           0       -0.000000   -2.449920    0.714384
      8          6           0       -0.000000   -1.253847    1.414564
      9          6           0        0.000000    0.000000    0.721234
     10          6           0        0.000000    1.253847    1.414564
     11          1           0        0.000000    3.395683    1.250477
     12          1           0       -0.000000    3.395683   -1.250477
     13          1           0       -0.000000    1.251461   -2.504077
     14          1           0        0.000000   -1.251461   -2.504077
     15          1           0       -0.000000   -3.395683   -1.250477
     16          1           0       -0.000000   -3.395683    1.250477
     17          1           0       -0.000000   -1.251461    2.504077
     18          1           0        0.000000    1.251461    2.504077
 ---------------------------------------------------------------------
 Rotational constants (GHZ):           3.0701605           1.2138012           0.8698874
 Standard basis: 3-21G (6D, 7F)
 There are    23 symmetry adapted cartesian basis functions of AG  symmetry.
 There are     4 symmetry adapted cartesian basis functions of B1G symmetry.
 There are     6 symmetry adapted cartesian basis functions of B2G symmetry.
 There are    20 symmetry adapted cartesian basis functions of B3G symmetry.
 There are     4 symmetry adapted cartesian basis functions of AU  symmetry.
 There are    23 symmetry adapted cartesian basis functions of B1U symmetry.
 There are    20 symmetry adapted cartesian basis functions of B2U symmetry.
 There are     6 symmetry adapted cartesian basis functions of B3U symmetry.
 There are    23 symmetry adapted basis functions of AG  symmetry.
 There are     4 symmetry adapted basis functions of B1G symmetry.
 There are     6 symmetry adapted basis functions of B2G symmetry.
 There are    20 symmetry adapted basis functions of B3G symmetry.
 There are     4 symmetry adapted basis functions of AU  symmetry.
 There are    23 symmetry adapted basis functions of B1U symmetry.
 There are    20 symmetry adapted basis functions of B2U symmetry.
 There are     6 symmetry adapted basis functions of B3U symmetry.
   106 basis functions,   174 primitive gaussians,   106 cartesian basis functions
    34 alpha electrons       34 beta electrons
       nuclear repulsion energy       454.1074316895 Hartrees.
 NAtoms=   18 NActive=   18 NUniq=    5 SFac= 4.00D+00 NAtFMM=   60 NAOKFM=F Big=F
 Integral buffers will be    131072 words long.
 Raffenetti 1 integral format.
 Two-electron integral symmetry is turned on.
 One-electron integrals computed using PRISM.
 NBasis=   106 RedAO= T EigKep=  1.19D-03  NBF=    23     4     6    20     4    23    20     6
 NBsUse=   106 1.00D-06 EigRej= -1.00D+00 NBFU=    23     4     6    20     4    23    20     6
 Initial guess from the checkpoint file:  "Naphthalene.chk"
 B after Tr=    -0.000000    0.000000    0.000000
         Rot=    1.000000   -0.000000    0.000000    0.000000 Ang=   0.00 deg.
 Initial guess orbital symmetries:
       Occupied  (B1U) (AG) (B3G) (B2U) (B1U) (AG) (B3G) (B1U)
                 (B2U) (AG) (AG) (B2U) (B1U) (AG) (B3G) (B2U) (B1U)
                 (AG) (B3G) (B2U) (AG) (B1U) (AG) (B3G) (B2U) (B1U)
                 (B3U) (B2U) (B3G) (AG) (B1G) (B2G) (B3U) (AU)
       Virtual   (B1G) (B2G) (B3U) (AG) (B2U) (AU) (B1U) (AG) (B3G)
                 (B1U) (B2U) (B3G) (B2G) (B1U) (AG) (B1U) (B3G)
                 (B2U) (AG) (B2U) (B1U) (B3G) (B1U) (AG) (B3G)
                 (B2U) (B3U) (AG) (B1G) (B1U) (B2U) (B2G) (B3G)
                 (B3U) (AG) (AU) (B1U) (B2U) (B2G) (B1G) (B3U)
                 (AG) (AU) (B2G) (B1U) (B3G) (B2U) (AG) (B1U) (B3G)
                 (B2U) (B3G) (B1U) (AG) (B2U) (AG) (B3G) (B2U)
                 (B1U) (B3G) (B1U) (B3G) (B2U) (AG) (B1U) (AG)
                 (B3G) (B2U) (B1U) (AG) (B3G) (B1U)
 Keep R1 ints in memory in symmetry-blocked form, NReq=18426781.
 Requested convergence on RMS density matrix=1.00D-08 within 128 cycles.
 Requested convergence on MAX density matrix=1.00D-06.
 Requested convergence on             energy=1.00D-06.
 No special actions if energy rises.
 SCF Done:  E(RHF) =  -381.208762505     A.U. after    8 cycles
            NFock=  8  Conv=0.78D-08     -V/T= 2.0039
 ExpMin= 1.83D-01 ExpMax= 1.72D+02 ExpMxC= 1.72D+02 IAcc=3 IRadAn=         5 AccDes= 0.00D+00
 HarFok:  IExCor=  205 AccDes= 0.00D+00 IRadAn=         5 IDoV=-2 UseB2=F ITyADJ=14
 ICtDFT= 12500011 ScaDFX=  1.000000  1.000000  1.000000  1.000000
 Range of M.O.s used for correlation:    11   106
 NBasis=   106 NAE=    34 NBE=    34 NFC=    10 NFV=     0
 NROrb=     96 NOA=    24 NOB=    24 NVA=    72 NVB=    72
 Fully direct method using O(ONN) memory.
 JobTyp=1 Pass  1:  I=  11 to  34 NPSUse=  8 ParTrn=T ParDer=T DoDerP=T.
 Spin components of T(2) and E(2):
     alpha-alpha T2 =       0.4984704774D-01 E2=     -0.1125838979D+00
     alpha-beta  T2 =       0.2704525019D+00 E2=     -0.6457893332D+00
     beta-beta   T2 =       0.4984704774D-01 E2=     -0.1125838979D+00
 ANorm=    0.1170532613D+01
 E2 =    -0.8709571290D+00 EUMP2 =    -0.38207971963441D+03
          IDoAtm=111111111111111111
          Differentiating once with respect to electric field.
                with respect to dipole field.
          Differentiating once with respect to nuclear coordinates.
 Keep R1 ints in memory in symmetry-blocked form, NReq=18428931.
          There are     1 degrees of freedom in the 1st order CPHF.  IDoFFX=0 NUNeed=     1.
 LinEq1:  Iter=  0 NonCon=     1 RMS=4.54D-03 Max=9.36D-02 NDo=     1
 AX will form     1 AO Fock derivatives at one time.
 LinEq1:  Iter=  1 NonCon=     1 RMS=1.12D-03 Max=1.53D-02 NDo=     1
 LinEq1:  Iter=  2 NonCon=     1 RMS=2.22D-04 Max=6.85D-03 NDo=     1
 LinEq1:  Iter=  3 NonCon=     1 RMS=8.77D-05 Max=3.01D-03 NDo=     1
 LinEq1:  Iter=  4 NonCon=     1 RMS=3.34D-05 Max=8.19D-04 NDo=     1
 LinEq1:  Iter=  5 NonCon=     1 RMS=8.37D-06 Max=1.30D-04 NDo=     1
 LinEq1:  Iter=  6 NonCon=     1 RMS=2.48D-06 Max=2.95D-05 NDo=     1
 LinEq1:  Iter=  7 NonCon=     1 RMS=2.81D-07 Max=3.58D-06 NDo=     1
 LinEq1:  Iter=  8 NonCon=     1 RMS=2.45D-08 Max=2.67D-07 NDo=     1
 LinEq1:  Iter=  9 NonCon=     1 RMS=3.57D-09 Max=3.55D-08 NDo=     1
 LinEq1:  Iter= 10 NonCon=     1 RMS=3.22D-10 Max=4.10D-09 NDo=     1
 LinEq1:  Iter= 11 NonCon=     0 RMS=3.91D-11 Max=5.96D-10 NDo=     1
 Linear equations converged to 1.000D-10 1.000D-09 after    11 iterations.
 End of Minotr F.D. properties file   721 does not exist.
 End of Minotr F.D. properties file   722 does not exist.
 End of Minotr F.D. properties file   788 does not exist.
 Calling FoFJK, ICntrl=  10002127 FMM=F ISym2X=1 I1Cent= 0 IOpClX= 0 NMat=1 NMatS=1 NMatT=0.
 ***** Axes restored to original set *****
 -------------------------------------------------------------------
 Center     Atomic                   Forces (Hartrees/Bohr)
 Number     Number              X              Y              Z
 -------------------------------------------------------------------
      1        6          -0.000060677   -0.000048043   -0.000084073
      2        6           0.000017571    0.000085715   -0.000073501
      3        6           0.000124046    0.000112364    0.000152596
      4        6          -0.000481375   -0.000822861   -0.000065040
      5        6           0.000046874    0.000179806   -0.000129503
      6        6           0.000060677    0.000048043    0.000084073
      7        6          -0.000017571   -0.000085715    0.000073501
      8        6          -0.000124046   -0.000112364   -0.000152596
      9        6           0.000481375    0.000822861    0.000065040
     10        6          -0.000046874   -0.000179806    0.000129503
     11        1           0.000019036    0.000057529   -0.000031482
     12        1          -0.000038383   -0.000040622   -0.000039240
     13        1          -0.000027848   -0.000023291   -0.000036895
     14        1          -0.000009025   -0.000039741    0.000031913
     15        1          -0.000019036   -0.000057529    0.000031482
     16        1           0.000038383    0.000040622    0.000039240
     17        1           0.000027848    0.000023291    0.000036895
     18        1           0.000009025    0.000039741   -0.000031913
 -------------------------------------------------------------------
 Cartesian Forces:  Max     0.000822861 RMS     0.000197808

 GradGradGradGradGradGradGradGradGradGradGradGradGradGradGradGradGradGrad
 Berny optimization.
 Using GEDIIS/GDIIS optimizer.
 FormGI is forming the generalized inverse of G from B-inverse, IUseBI=4.
 Internal  Forces:  Max     0.000672395 RMS     0.000086150
 Search for a local minimum.
 Step number   4 out of a maximum of  103
 All quantities printed in internal units (Hartrees-Bohrs-Radians)
 Mixed Optimization -- En-DIIS/RFO-DIIS
 Swapping is turned off.
 Update second derivatives using D2CorX and points    1    2    3    4
 DE= -2.44D-05 DEPred=-2.23D-05 R= 1.09D+00
 TightC=F SS=  1.41D+00  RLast= 1.59D-02 DXNew= 7.6259D-01 4.7788D-02
 Trust test= 1.09D+00 RLast= 1.59D-02 DXMaxT set to 4.53D-01
 ITU=  1  1  1  0
     Eigenvalues ---    0.01985   0.02000   0.02004   0.02079   0.02085
     Eigenvalues ---    0.02088   0.02088   0.02088   0.02089   0.02157
     Eigenvalues ---    0.02160   0.02162   0.02162   0.02176   0.02176
     Eigenvalues ---    0.12251   0.16000   0.16000   0.16000   0.16000
     Eigenvalues ---    0.16000   0.16000   0.16125   0.22000   0.22000
     Eigenvalues ---    0.22333   0.23665   0.24274   0.24710   0.32618
     Eigenvalues ---    0.35095   0.35095   0.35095   0.35186   0.35186
     Eigenvalues ---    0.35186   0.35194   0.35240   0.39907   0.41167
     Eigenvalues ---    0.41800   0.43637   0.45607   0.45703   0.45721
     Eigenvalues ---    0.46262   0.46625   0.51203
 En-DIIS/RFO-DIIS/Sim-DIIS IScMMF=       -3 using points:     4    3
 RFO step:  Lambda=-2.22985509D-06.
 DidBck=F Rises=F RFO-DIIS coefs:    1.12425   -0.12425
 Iteration  1 RMS(Cart)=  0.00030569 RMS(Int)=  0.00000008
 Iteration  2 RMS(Cart)=  0.00000011 RMS(Int)=  0.00000001
 ClnCor:  largest displacement from symmetrization is 2.79D-08 for atom    12.
 Variable       Old X    -DE/DX   Delta X   Delta X   Delta X     New X
                                 (Linear)    (Quad)   (Total)
    R1        2.69998   0.00001   0.00041  -0.00011   0.00030   2.70028
    R2        2.61905   0.00010  -0.00037   0.00044   0.00007   2.61913
    R3        2.05439   0.00000  -0.00002   0.00002   0.00001   2.05440
    R4        2.61905   0.00010  -0.00037   0.00044   0.00007   2.61913
    R5        2.05439   0.00000  -0.00002   0.00002   0.00001   2.05440
    R6        2.70755   0.00008   0.00011   0.00014   0.00025   2.70780
    R7        2.05889  -0.00004   0.00004  -0.00014  -0.00010   2.05878
    R8        2.70755   0.00008   0.00011   0.00014   0.00025   2.70780
    R9        2.72587  -0.00067  -0.00061  -0.00138  -0.00199   2.72388
   R10        2.61905   0.00010  -0.00037   0.00044   0.00007   2.61913
   R11        2.05889  -0.00004   0.00004  -0.00014  -0.00010   2.05878
   R12        2.69998   0.00001   0.00041  -0.00011   0.00030   2.70028
   R13        2.05439   0.00000  -0.00002   0.00002   0.00001   2.05440
   R14        2.61905   0.00010  -0.00037   0.00044   0.00007   2.61913
   R15        2.05439   0.00000  -0.00002   0.00002   0.00001   2.05440
   R16        2.70755   0.00008   0.00011   0.00014   0.00025   2.70780
   R17        2.05889  -0.00004   0.00004  -0.00014  -0.00010   2.05878
   R18        2.70755   0.00008   0.00011   0.00014   0.00025   2.70780
   R19        2.05889  -0.00004   0.00004  -0.00014  -0.00010   2.05878
    A1        2.10041  -0.00007  -0.00001  -0.00015  -0.00017   2.10024
    A2        2.08647  -0.00004  -0.00042  -0.00015  -0.00057   2.08590
    A3        2.09630   0.00010   0.00044   0.00030   0.00074   2.09704
    A4        2.10041  -0.00007  -0.00001  -0.00015  -0.00017   2.10024
    A5        2.08647  -0.00004  -0.00042  -0.00015  -0.00057   2.08590
    A6        2.09630   0.00010   0.00044   0.00030   0.00074   2.09704
    A7        2.10686  -0.00002  -0.00009  -0.00004  -0.00012   2.10674
    A8        2.10260  -0.00003   0.00039  -0.00040  -0.00000   2.10260
    A9        2.07372   0.00005  -0.00031   0.00043   0.00013   2.07385
   A10        2.13136  -0.00017  -0.00020  -0.00038  -0.00058   2.13079
   A11        2.07591   0.00009   0.00010   0.00019   0.00029   2.07620
   A12        2.07591   0.00009   0.00010   0.00019   0.00029   2.07620
   A13        2.10686  -0.00002  -0.00009  -0.00004  -0.00012   2.10674
   A14        2.07372   0.00005  -0.00031   0.00043   0.00013   2.07385
   A15        2.10260  -0.00003   0.00039  -0.00040  -0.00000   2.10260
   A16        2.10041  -0.00007  -0.00001  -0.00015  -0.00017   2.10024
   A17        2.09630   0.00010   0.00044   0.00030   0.00074   2.09704
   A18        2.08647  -0.00004  -0.00042  -0.00015  -0.00057   2.08590
   A19        2.10041  -0.00007  -0.00001  -0.00015  -0.00017   2.10024
   A20        2.08647  -0.00004  -0.00042  -0.00015  -0.00057   2.08590
   A21        2.09630   0.00010   0.00044   0.00030   0.00074   2.09704
   A22        2.10686  -0.00002  -0.00009  -0.00004  -0.00012   2.10674
   A23        2.10260  -0.00003   0.00039  -0.00040  -0.00000   2.10260
   A24        2.07372   0.00005  -0.00031   0.00043   0.00013   2.07385
   A25        2.07591   0.00009   0.00010   0.00019   0.00029   2.07620
   A26        2.07591   0.00009   0.00010   0.00019   0.00029   2.07620
   A27        2.13136  -0.00017  -0.00020  -0.00038  -0.00058   2.13079
   A28        2.10686  -0.00002  -0.00009  -0.00004  -0.00012   2.10674
   A29        2.10260  -0.00003   0.00039  -0.00040  -0.00000   2.10260
   A30        2.07372   0.00005  -0.00031   0.00043   0.00013   2.07385
    D1       -0.00000   0.00000   0.00000   0.00000   0.00000   0.00000
    D2        3.14159   0.00000   0.00000   0.00000   0.00000   3.14159
    D3        3.14159   0.00000   0.00000   0.00000   0.00000   3.14159
    D4       -0.00000  -0.00000   0.00000   0.00000   0.00000   0.00000
    D5        0.00000  -0.00000   0.00000   0.00000   0.00000   0.00000
    D6       -3.14159  -0.00000   0.00000  -0.00000  -0.00000   3.14159
    D7        3.14159   0.00000   0.00000   0.00000   0.00000   3.14159
    D8       -0.00000   0.00000   0.00000  -0.00000  -0.00000  -0.00000
    D9        0.00000  -0.00000   0.00000  -0.00000   0.00000   0.00000
   D10        3.14159  -0.00000   0.00000   0.00000   0.00000   3.14159
   D11       -3.14159  -0.00000   0.00000  -0.00000  -0.00000   3.14159
   D12        0.00000  -0.00000   0.00000  -0.00000   0.00000   0.00000
   D13        3.14159   0.00000   0.00000   0.00000   0.00000   3.14159
   D14       -0.00000  -0.00000  -0.00000   0.00000   0.00000   0.00000
   D15        0.00000  -0.00000   0.00000  -0.00000   0.00000   0.00000
   D16        3.14159  -0.00000  -0.00000  -0.00000   0.00000   3.14159
   D17        3.14159  -0.00000  -0.00000  -0.00000   0.00000   3.14159
   D18        0.00000  -0.00000  -0.00000  -0.00000   0.00000   0.00000
   D19        0.00000  -0.00000   0.00000  -0.00000   0.00000   0.00000
   D20       -3.14159  -0.00000   0.00000  -0.00000  -0.00000  -3.14159
   D21        3.14159   0.00000  -0.00000   0.00000   0.00000   3.14159
   D22        0.00000   0.00000   0.00000  -0.00000   0.00000   0.00000
   D23       -0.00000   0.00000   0.00000   0.00000   0.00000   0.00000
   D24        3.14159   0.00000   0.00000  -0.00000   0.00000   3.14159
   D25       -0.00000   0.00000   0.00000  -0.00000   0.00000   0.00000
   D26        3.14159   0.00000   0.00000   0.00000   0.00000   3.14159
   D27        3.14159  -0.00000   0.00000   0.00000   0.00000   3.14159
   D28        0.00000   0.00000   0.00000   0.00000  -0.00000   0.00000
   D29       -0.00000   0.00000   0.00000   0.00000   0.00000   0.00000
   D30        3.14159   0.00000   0.00000   0.00000   0.00000  -3.14159
   D31        3.14159  -0.00000   0.00000   0.00000   0.00000   3.14159
   D32        0.00000  -0.00000   0.00000  -0.00000  -0.00000   0.00000
   D33       -0.00000  -0.00000   0.00000  -0.00000   0.00000   0.00000
   D34        3.14159  -0.00000   0.00000  -0.00000   0.00000   3.14159
   D35        3.14159  -0.00000  -0.00000   0.00000   0.00000   3.14159
   D36       -0.00000   0.00000   0.00000   0.00000  -0.00000  -0.00000
   D37        0.00000  -0.00000   0.00000   0.00000  -0.00000   0.00000
   D38        3.14159  -0.00000  -0.00000   0.00000   0.00000   3.14159
   D39        3.14159  -0.00000   0.00000  -0.00000   0.00000  -3.14159
   D40       -0.00000  -0.00000  -0.00000   0.00000   0.00000   0.00000
   D41       -0.00000  -0.00000   0.00000  -0.00000   0.00000   0.00000
   D42        3.14159  -0.00000   0.00000   0.00000   0.00000   3.14159
   D43        3.14159  -0.00000   0.00000  -0.00000   0.00000   3.14159
   D44        0.00000  -0.00000   0.00000  -0.00000  -0.00000   0.00000
         Item               Value     Threshold  Converged?
 Maximum Force            0.000672     0.000450     NO 
 RMS     Force            0.000086     0.000300     YES
 Maximum Displacement     0.000903     0.001800     YES
 RMS     Displacement     0.000306     0.001200     YES
 Predicted change in Energy=-1.114934D-06
 GradGradGradGradGradGradGradGradGradGradGradGradGradGradGradGradGradGrad

                          Input orientation:                          
 ---------------------------------------------------------------------
 Center     Atomic      Atomic             Coordinates (Angstroms)
 Number     Number       Type             X           Y           Z
 ---------------------------------------------------------------------
      1          6           0       -0.859128    0.126064   -2.695412
      2          6           0       -0.139271    1.356585   -2.598151
      3          6           0        0.520941    1.690593   -1.426183
      4          6           0        0.493811    0.811440   -0.295000
      5          6           0        1.165672    1.127141    0.930626
      6          6           0        1.120601    0.255540    2.007301
      7          6           0        0.400744   -0.974982    1.910040
      8          6           0       -0.259468   -1.308990    0.738072
      9          6           0       -0.232337   -0.429836   -0.393111
     10          6           0       -0.904199   -0.745537   -1.618737
     11          1           0       -1.372178   -0.122543   -3.621071
     12          1           0       -0.112724    2.030365   -3.450904
     13          1           0        1.070441    2.628204   -1.349618
     14          1           0        1.713853    2.065903    1.002372
     15          1           0        1.633652    0.504147    2.932961
     16          1           0        0.374197   -1.648762    2.762793
     17          1           0       -0.808967   -2.246600    0.661508
     18          1           0       -1.452380   -1.684299   -1.690483
 ---------------------------------------------------------------------
                    Distance matrix (angstroms):
                    1          2          3          4          5
     1  C    0.000000
     2  C    1.428929   0.000000
     3  C    2.441984   1.385983   0.000000
     4  C    2.839395   2.449996   1.432907   0.000000
     5  C    4.272016   3.769321   2.507529   1.432907   0.000000
     6  C    5.104077   4.899976   3.769321   2.449996   1.385983
     7  C    4.899976   5.104077   4.272016   2.839395   2.441984
     8  C    3.769321   4.272016   3.780282   2.476062   2.828927
     9  C    2.449996   2.839395   2.476062   1.441417   2.476062
    10  C    1.385983   2.441984   2.828927   2.476062   3.780282
    11  H    1.087139   2.180424   3.418904   3.926448   5.359136
    12  H    2.180424   1.087139   2.148598   3.437062   4.652732
    13  H    3.434399   2.153891   1.089461   2.178384   2.731625
    14  H    4.904775   4.111078   2.731625   2.178384   1.089461
    15  H    6.167291   5.870528   4.652732   3.437062   2.148598
    16  H    5.870528   6.167291   5.359136   3.926448   3.418904
    17  H    4.111078   4.904775   4.650656   3.458865   3.918386
    18  H    2.153891   3.434399   3.918386   3.458865   4.650656
                    6          7          8          9         10
     6  C    0.000000
     7  C    1.428929   0.000000
     8  C    2.441984   1.385983   0.000000
     9  C    2.839395   2.449996   1.432907   0.000000
    10  C    4.272016   3.769321   2.507529   1.432907   0.000000
    11  H    6.167291   5.870528   4.652732   3.437062   2.148598
    12  H    5.870528   6.167291   5.359136   3.926448   3.418904
    13  H    4.111078   4.904775   4.650656   3.458865   3.918386
    14  H    2.153891   3.434399   3.918386   3.458865   4.650656
    15  H    1.087139   2.180424   3.418904   3.926448   5.359136
    16  H    2.180424   1.087139   2.148598   3.437062   4.652732
    17  H    3.434399   2.153891   1.089461   2.178384   2.731625
    18  H    4.904775   4.111078   2.731625   2.178384   1.089461
                   11         12         13         14         15
    11  H    0.000000
    12  H    2.500040   0.000000
    13  H    4.323482   2.484490   0.000000
    14  H    5.974037   4.813451   2.502403   0.000000
    15  H    7.237617   6.792120   4.813451   2.484490   0.000000
    16  H    6.792120   7.237617   5.974037   4.323482   2.500040
    17  H    4.813451   5.974037   5.598260   5.007844   4.323482
    18  H    2.484490   4.323482   5.007844   5.598260   5.974037
                   16         17         18
    16  H    0.000000
    17  H    2.484490   0.000000
    18  H    4.813451   2.502403   0.000000
 Stoichiometry    C10H8
 Framework group  D2H[C2"(C.C),SG(C8H8)]
 Deg. of freedom     9
 Full point group                 D2H     NOp   8
 Largest Abelian subgroup         D2H     NOp   8
 Largest concise Abelian subgroup D2      NOp   4
                         Standard orientation:                         
 ---------------------------------------------------------------------
 Center     Atomic      Atomic             Coordinates (Angstroms)
 Number     Number       Type             X           Y           Z
 ---------------------------------------------------------------------
      1          6           0        0.000000    2.449988    0.714464
      2          6           0       -0.000000    2.449988   -0.714464
      3          6           0        0.000000    1.253765   -1.414464
      4          6           0        0.000000   -0.000000   -0.720708
      5          6           0       -0.000000   -1.253765   -1.414464
      6          6           0       -0.000000   -2.449988   -0.714464
      7          6           0       -0.000000   -2.449988    0.714464
      8          6           0        0.000000   -1.253765    1.414464
      9          6           0       -0.000000   -0.000000    0.720708
     10          6           0       -0.000000    1.253765    1.414464
     11          1           0        0.000000    3.396060    1.250020
     12          1           0        0.000000    3.396060   -1.250020
     13          1           0        0.000000    1.251202   -2.503922
     14          1           0        0.000000   -1.251202   -2.503922
     15          1           0       -0.000000   -3.396060   -1.250020
     16          1           0       -0.000000   -3.396060    1.250020
     17          1           0        0.000000   -1.251202    2.503922
     18          1           0       -0.000000    1.251202    2.503922
 ---------------------------------------------------------------------
 Rotational constants (GHZ):           3.0707951           1.2137606           0.8699175
 Standard basis: 3-21G (6D, 7F)
 There are    23 symmetry adapted cartesian basis functions of AG  symmetry.
 There are     4 symmetry adapted cartesian basis functions of B1G symmetry.
 There are     6 symmetry adapted cartesian basis functions of B2G symmetry.
 There are    20 symmetry adapted cartesian basis functions of B3G symmetry.
 There are     4 symmetry adapted cartesian basis functions of AU  symmetry.
 There are    23 symmetry adapted cartesian basis functions of B1U symmetry.
 There are    20 symmetry adapted cartesian basis functions of B2U symmetry.
 There are     6 symmetry adapted cartesian basis functions of B3U symmetry.
 There are    23 symmetry adapted basis functions of AG  symmetry.
 There are     4 symmetry adapted basis functions of B1G symmetry.
 There are     6 symmetry adapted basis functions of B2G symmetry.
 There are    20 symmetry adapted basis functions of B3G symmetry.
 There are     4 symmetry adapted basis functions of AU  symmetry.
 There are    23 symmetry adapted basis functions of B1U symmetry.
 There are    20 symmetry adapted basis functions of B2U symmetry.
 There are     6 symmetry adapted basis functions of B3U symmetry.
   106 basis functions,   174 primitive gaussians,   106 cartesian basis functions
    34 alpha electrons       34 beta electrons
       nuclear repulsion energy       454.1181964124 Hartrees.
 NAtoms=   18 NActive=   18 NUniq=    5 SFac= 4.00D+00 NAtFMM=   60 NAOKFM=F Big=F
 Integral buffers will be    131072 words long.
 Raffenetti 1 integral format.
 Two-electron integral symmetry is turned on.
 One-electron integrals computed using PRISM.
 NBasis=   106 RedAO= T EigKep=  1.19D-03  NBF=    23     4     6    20     4    23    20     6
 NBsUse=   106 1.00D-06 EigRej= -1.00D+00 NBFU=    23     4     6    20     4    23    20     6
 Initial guess from the checkpoint file:  "Naphthalene.chk"
 B after Tr=    -0.000000    0.000000    0.000000
         Rot=    1.000000   -0.000000   -0.000000    0.000000 Ang=   0.00 deg.
 Initial guess orbital symmetries:
       Occupied  (B1U) (AG) (B3G) (B2U) (B1U) (AG) (B3G) (B1U)
                 (B2U) (AG) (AG) (B2U) (B1U) (AG) (B3G) (B2U) (B1U)
                 (AG) (B3G) (B2U) (AG) (B1U) (AG) (B3G) (B2U) (B1U)
                 (B3U) (B2U) (B3G) (AG) (B1G) (B2G) (B3U) (AU)
       Virtual   (B1G) (B2G) (B3U) (AG) (B2U) (AU) (B1U) (AG) (B3G)
                 (B1U) (B2U) (B3G) (B2G) (B1U) (AG) (B1U) (B3G)
                 (B2U) (AG) (B2U) (B1U) (B3G) (B1U) (AG) (B3G)
                 (B2U) (B3U) (AG) (B1G) (B1U) (B2U) (B2G) (B3G)
                 (B3U) (AG) (AU) (B1U) (B2U) (B2G) (B1G) (B3U)
                 (AG) (AU) (B2G) (B3G) (B1U) (B2U) (AG) (B1U) (B3G)
                 (B2U) (B3G) (B1U) (AG) (B2U) (AG) (B3G) (B2U)
                 (B1U) (B3G) (B1U) (B3G) (B2U) (AG) (B1U) (AG)
                 (B3G) (B2U) (B1U) (AG) (B3G) (B1U)
 Keep R1 ints in memory in symmetry-blocked form, NReq=18426781.
 Requested convergence on RMS density matrix=1.00D-08 within 128 cycles.
 Requested convergence on MAX density matrix=1.00D-06.
 Requested convergence on             energy=1.00D-06.
 No special actions if energy rises.
 SCF Done:  E(RHF) =  -381.208784029     A.U. after    8 cycles
            NFock=  8  Conv=0.54D-08     -V/T= 2.0039
 ExpMin= 1.83D-01 ExpMax= 1.72D+02 ExpMxC= 1.72D+02 IAcc=3 IRadAn=         5 AccDes= 0.00D+00
 HarFok:  IExCor=  205 AccDes= 0.00D+00 IRadAn=         5 IDoV=-2 UseB2=F ITyADJ=14
 ICtDFT= 12500011 ScaDFX=  1.000000  1.000000  1.000000  1.000000
 Range of M.O.s used for correlation:    11   106
 NBasis=   106 NAE=    34 NBE=    34 NFC=    10 NFV=     0
 NROrb=     96 NOA=    24 NOB=    24 NVA=    72 NVB=    72
 Fully direct method using O(ONN) memory.
 JobTyp=1 Pass  1:  I=  11 to  34 NPSUse=  8 ParTrn=T ParDer=T DoDerP=T.
 Spin components of T(2) and E(2):
     alpha-alpha T2 =       0.4983915081D-01 E2=     -0.1125772216D+00
     alpha-beta  T2 =       0.2704413957D+00 E2=     -0.6457824703D+00
     beta-beta   T2 =       0.4983915081D-01 E2=     -0.1125772216D+00
 ANorm=    0.1170521122D+01
 E2 =    -0.8709369135D+00 EUMP2 =    -0.38207972094241D+03
          IDoAtm=111111111111111111
          Differentiating once with respect to electric field.
                with respect to dipole field.
          Differentiating once with respect to nuclear coordinates.
 Keep R1 ints in memory in symmetry-blocked form, NReq=18428931.
          There are     1 degrees of freedom in the 1st order CPHF.  IDoFFX=0 NUNeed=     1.
 LinEq1:  Iter=  0 NonCon=     1 RMS=4.55D-03 Max=9.36D-02 NDo=     1
 AX will form     1 AO Fock derivatives at one time.
 LinEq1:  Iter=  1 NonCon=     1 RMS=1.12D-03 Max=1.53D-02 NDo=     1
 LinEq1:  Iter=  2 NonCon=     1 RMS=2.22D-04 Max=6.85D-03 NDo=     1
 LinEq1:  Iter=  3 NonCon=     1 RMS=8.77D-05 Max=3.01D-03 NDo=     1
 LinEq1:  Iter=  4 NonCon=     1 RMS=3.34D-05 Max=8.19D-04 NDo=     1
 LinEq1:  Iter=  5 NonCon=     1 RMS=8.37D-06 Max=1.29D-04 NDo=     1
 LinEq1:  Iter=  6 NonCon=     1 RMS=2.48D-06 Max=2.95D-05 NDo=     1
 LinEq1:  Iter=  7 NonCon=     1 RMS=2.81D-07 Max=3.58D-06 NDo=     1
 LinEq1:  Iter=  8 NonCon=     1 RMS=2.45D-08 Max=2.67D-07 NDo=     1
 LinEq1:  Iter=  9 NonCon=     1 RMS=3.57D-09 Max=3.57D-08 NDo=     1
 LinEq1:  Iter= 10 NonCon=     1 RMS=3.22D-10 Max=4.11D-09 NDo=     1
 LinEq1:  Iter= 11 NonCon=     0 RMS=3.92D-11 Max=5.97D-10 NDo=     1
 Linear equations converged to 1.000D-10 1.000D-09 after    11 iterations.
 End of Minotr F.D. properties file   721 does not exist.
 End of Minotr F.D. properties file   722 does not exist.
 End of Minotr F.D. properties file   788 does not exist.
 Calling FoFJK, ICntrl=  10002127 FMM=F ISym2X=1 I1Cent= 0 IOpClX= 0 NMat=1 NMatS=1 NMatT=0.
 ***** Axes restored to original set *****
 -------------------------------------------------------------------
 Center     Atomic                   Forces (Hartrees/Bohr)
 Number     Number              X              Y              Z
 -------------------------------------------------------------------
      1        6           0.000005912    0.000028611   -0.000024417
      2        6          -0.000020238   -0.000016091   -0.000027950
      3        6           0.000063201    0.000075879    0.000052361
      4        6          -0.000134568   -0.000230031   -0.000018182
      5        6           0.000038305    0.000097636   -0.000038646
      6        6          -0.000005912   -0.000028611    0.000024417
      7        6           0.000020238    0.000016091    0.000027950
      8        6          -0.000063201   -0.000075879   -0.000052361
      9        6           0.000134568    0.000230031    0.000018182
     10        6          -0.000038305   -0.000097636    0.000038646
     11        1          -0.000003128   -0.000011250    0.000007622
     12        1           0.000007698    0.000007256    0.000009085
     13        1          -0.000009046   -0.000000105   -0.000022150
     14        1           0.000002844   -0.000010496    0.000021312
     15        1           0.000003128    0.000011250   -0.000007622
     16        1          -0.000007698   -0.000007256   -0.000009085
     17        1           0.000009046    0.000000105    0.000022150
     18        1          -0.000002844    0.000010496   -0.000021312
 -------------------------------------------------------------------
 Cartesian Forces:  Max     0.000230031 RMS     0.000061093

 GradGradGradGradGradGradGradGradGradGradGradGradGradGradGradGradGradGrad
 Berny optimization.
 Using GEDIIS/GDIIS optimizer.
 FormGI is forming the generalized inverse of G from B-inverse, IUseBI=4.
 Internal  Forces:  Max     0.000133508 RMS     0.000022985
 Search for a local minimum.
 Step number   5 out of a maximum of  103
 All quantities printed in internal units (Hartrees-Bohrs-Radians)
 Mixed Optimization -- En-DIIS/RFO-DIIS
 Swapping is turned off.
 Update second derivatives using D2CorX and points    1    2    3    4    5
 DE= -1.31D-06 DEPred=-1.11D-06 R= 1.17D+00
 TightC=F SS=  1.41D+00  RLast= 3.03D-03 DXNew= 7.6259D-01 9.0750D-03
 Trust test= 1.17D+00 RLast= 3.03D-03 DXMaxT set to 4.53D-01
 ITU=  1  1  1  1  0
     Eigenvalues ---    0.01985   0.02000   0.02004   0.02079   0.02085
     Eigenvalues ---    0.02088   0.02088   0.02088   0.02089   0.02157
     Eigenvalues ---    0.02160   0.02162   0.02162   0.02176   0.02176
     Eigenvalues ---    0.13426   0.15504   0.16000   0.16000   0.16000
     Eigenvalues ---    0.16000   0.16000   0.16000   0.21853   0.22000
     Eigenvalues ---    0.22000   0.22333   0.24275   0.24710   0.29586
     Eigenvalues ---    0.35095   0.35095   0.35095   0.35186   0.35186
     Eigenvalues ---    0.35186   0.35203   0.35277   0.38454   0.41167
     Eigenvalues ---    0.41799   0.43637   0.45261   0.45607   0.45703
     Eigenvalues ---    0.45721   0.46625   0.52993
 En-DIIS/RFO-DIIS/Sim-DIIS IScMMF=       -3 using points:     5    4    3
 RFO step:  Lambda=-2.10431937D-07.
 DidBck=F Rises=F RFO-DIIS coefs:    1.29710   -0.33161    0.03451
 Iteration  1 RMS(Cart)=  0.00007794 RMS(Int)=  0.00000001
 Iteration  2 RMS(Cart)=  0.00000002 RMS(Int)=  0.00000001
 ClnCor:  largest displacement from symmetrization is 4.45D-08 for atom    18.
 Variable       Old X    -DE/DX   Delta X   Delta X   Delta X     New X
                                 (Linear)    (Quad)   (Total)
    R1        2.70028   0.00001  -0.00002   0.00008   0.00006   2.70034
    R2        2.61913   0.00003   0.00012  -0.00007   0.00006   2.61919
    R3        2.05440  -0.00000   0.00001  -0.00002  -0.00001   2.05439
    R4        2.61913   0.00003   0.00012  -0.00007   0.00006   2.61919
    R5        2.05440  -0.00000   0.00001  -0.00002  -0.00001   2.05439
    R6        2.70780   0.00003   0.00004   0.00003   0.00007   2.70788
    R7        2.05878  -0.00001  -0.00004   0.00001  -0.00003   2.05875
    R8        2.70780   0.00003   0.00004   0.00003   0.00007   2.70788
    R9        2.72388  -0.00013  -0.00042  -0.00013  -0.00055   2.72334
   R10        2.61913   0.00003   0.00012  -0.00007   0.00006   2.61919
   R11        2.05878  -0.00001  -0.00004   0.00001  -0.00003   2.05875
   R12        2.70028   0.00001  -0.00002   0.00008   0.00006   2.70034
   R13        2.05440  -0.00000   0.00001  -0.00002  -0.00001   2.05439
   R14        2.61913   0.00003   0.00012  -0.00007   0.00006   2.61919
   R15        2.05440  -0.00000   0.00001  -0.00002  -0.00001   2.05439
   R16        2.70780   0.00003   0.00004   0.00003   0.00007   2.70788
   R17        2.05878  -0.00001  -0.00004   0.00001  -0.00003   2.05875
   R18        2.70780   0.00003   0.00004   0.00003   0.00007   2.70788
   R19        2.05878  -0.00001  -0.00004   0.00001  -0.00003   2.05875
    A1        2.10024  -0.00000  -0.00005   0.00007   0.00003   2.10027
    A2        2.08590   0.00001  -0.00005   0.00010   0.00005   2.08595
    A3        2.09704  -0.00001   0.00010  -0.00017  -0.00007   2.09697
    A4        2.10024  -0.00000  -0.00005   0.00007   0.00003   2.10027
    A5        2.08590   0.00001  -0.00005   0.00010   0.00005   2.08595
    A6        2.09704  -0.00001   0.00010  -0.00017  -0.00007   2.09697
    A7        2.10674  -0.00003  -0.00001  -0.00017  -0.00018   2.10656
    A8        2.10260  -0.00001  -0.00011   0.00003  -0.00008   2.10252
    A9        2.07385   0.00004   0.00012   0.00013   0.00026   2.07410
   A10        2.13079  -0.00006  -0.00012  -0.00019  -0.00030   2.13049
   A11        2.07620   0.00003   0.00006   0.00009   0.00015   2.07635
   A12        2.07620   0.00003   0.00006   0.00009   0.00015   2.07635
   A13        2.10674  -0.00003  -0.00001  -0.00017  -0.00018   2.10656
   A14        2.07385   0.00004   0.00012   0.00013   0.00026   2.07410
   A15        2.10260  -0.00001  -0.00011   0.00003  -0.00008   2.10252
   A16        2.10024  -0.00000  -0.00005   0.00007   0.00003   2.10027
   A17        2.09704  -0.00001   0.00010  -0.00017  -0.00007   2.09697
   A18        2.08590   0.00001  -0.00005   0.00010   0.00005   2.08595
   A19        2.10024  -0.00000  -0.00005   0.00007   0.00003   2.10027
   A20        2.08590   0.00001  -0.00005   0.00010   0.00005   2.08595
   A21        2.09704  -0.00001   0.00010  -0.00017  -0.00007   2.09697
   A22        2.10674  -0.00003  -0.00001  -0.00017  -0.00018   2.10656
   A23        2.10260  -0.00001  -0.00011   0.00003  -0.00008   2.10252
   A24        2.07385   0.00004   0.00012   0.00013   0.00026   2.07410
   A25        2.07620   0.00003   0.00006   0.00009   0.00015   2.07635
   A26        2.07620   0.00003   0.00006   0.00009   0.00015   2.07635
   A27        2.13079  -0.00006  -0.00012  -0.00019  -0.00030   2.13049
   A28        2.10674  -0.00003  -0.00001  -0.00017  -0.00018   2.10656
   A29        2.10260  -0.00001  -0.00011   0.00003  -0.00008   2.10252
   A30        2.07385   0.00004   0.00012   0.00013   0.00026   2.07410
    D1       -0.00000   0.00000   0.00000  -0.00000   0.00000   0.00000
    D2        3.14159   0.00000   0.00000   0.00000   0.00000   3.14159
    D3        3.14159   0.00000   0.00000  -0.00000   0.00000   3.14159
    D4        0.00000   0.00000   0.00000   0.00000   0.00000   0.00000
    D5        0.00000  -0.00000   0.00000   0.00000   0.00000   0.00000
    D6        3.14159  -0.00000  -0.00000   0.00000   0.00000   3.14159
    D7        3.14159   0.00000   0.00000   0.00000  -0.00000   3.14159
    D8        0.00000  -0.00000   0.00000   0.00000  -0.00000  -0.00000
    D9        0.00000  -0.00000   0.00000  -0.00000   0.00000   0.00000
   D10       -3.14159   0.00000   0.00000   0.00000  -0.00000   3.14159
   D11        3.14159  -0.00000  -0.00000  -0.00000   0.00000   3.14159
   D12       -0.00000   0.00000  -0.00000  -0.00000   0.00000   0.00000
   D13        3.14159  -0.00000  -0.00000   0.00000  -0.00000   3.14159
   D14       -0.00000  -0.00000   0.00000   0.00000   0.00000   0.00000
   D15        0.00000  -0.00000   0.00000  -0.00000   0.00000   0.00000
   D16        3.14159  -0.00000   0.00000   0.00000   0.00000  -3.14159
   D17        3.14159  -0.00000   0.00000  -0.00000  -0.00000   3.14159
   D18        0.00000  -0.00000   0.00000  -0.00000   0.00000   0.00000
   D19        0.00000  -0.00000   0.00000  -0.00000  -0.00000  -0.00000
   D20        3.14159  -0.00000  -0.00000  -0.00000   0.00000   3.14159
   D21        3.14159   0.00000   0.00000   0.00000   0.00000  -3.14159
   D22        0.00000   0.00000   0.00000  -0.00000   0.00000   0.00000
   D23       -0.00000   0.00000  -0.00000   0.00000   0.00000   0.00000
   D24       -3.14159   0.00000   0.00000  -0.00000   0.00000  -3.14159
   D25        0.00000   0.00000   0.00000   0.00000   0.00000   0.00000
   D26        3.14159   0.00000   0.00000  -0.00000   0.00000   3.14159
   D27        3.14159   0.00000   0.00000   0.00000   0.00000  -3.14159
   D28       -0.00000   0.00000  -0.00000  -0.00000   0.00000   0.00000
   D29       -0.00000   0.00000  -0.00000  -0.00000   0.00000  -0.00000
   D30        3.14159  -0.00000  -0.00000  -0.00000   0.00000   3.14159
   D31        3.14159   0.00000   0.00000   0.00000  -0.00000   3.14159
   D32        0.00000  -0.00000   0.00000   0.00000  -0.00000   0.00000
   D33        0.00000  -0.00000   0.00000   0.00000   0.00000   0.00000
   D34        3.14159  -0.00000   0.00000   0.00000   0.00000   3.14159
   D35        3.14159  -0.00000   0.00000   0.00000   0.00000   3.14159
   D36       -0.00000  -0.00000   0.00000   0.00000   0.00000   0.00000
   D37       -0.00000   0.00000  -0.00000  -0.00000   0.00000   0.00000
   D38        3.14159   0.00000   0.00000   0.00000   0.00000   3.14159
   D39        3.14159   0.00000  -0.00000  -0.00000   0.00000  -3.14159
   D40       -0.00000   0.00000   0.00000   0.00000   0.00000   0.00000
   D41       -0.00000   0.00000   0.00000   0.00000  -0.00000  -0.00000
   D42        3.14159   0.00000  -0.00000   0.00000   0.00000  -3.14159
   D43        3.14159   0.00000  -0.00000  -0.00000   0.00000   3.14159
   D44       -0.00000   0.00000  -0.00000  -0.00000   0.00000   0.00000
         Item               Value     Threshold  Converged?
 Maximum Force            0.000134     0.000450     YES
 RMS     Force            0.000023     0.000300     YES
 Maximum Displacement     0.000236     0.001800     YES
 RMS     Displacement     0.000078     0.001200     YES
 Predicted change in Energy=-1.047912D-07
 Optimization completed.
    -- Stationary point found.
                           ----------------------------
                           !   Optimized Parameters   !
                           ! (Angstroms and Degrees)  !
 --------------------------                            --------------------------
 ! Name  Definition              Value          Derivative Info.                !
 --------------------------------------------------------------------------------
 ! R1    R(1,2)                  1.4289         -DE/DX =    0.0                 !
 ! R2    R(1,10)                 1.386          -DE/DX =    0.0                 !
 ! R3    R(1,11)                 1.0871         -DE/DX =    0.0                 !
 ! R4    R(2,3)                  1.386          -DE/DX =    0.0                 !
 ! R5    R(2,12)                 1.0871         -DE/DX =    0.0                 !
 ! R6    R(3,4)                  1.4329         -DE/DX =    0.0                 !
 ! R7    R(3,13)                 1.0895         -DE/DX =    0.0                 !
 ! R8    R(4,5)                  1.4329         -DE/DX =    0.0                 !
 ! R9    R(4,9)                  1.4414         -DE/DX =   -0.0001              !
 ! R10   R(5,6)                  1.386          -DE/DX =    0.0                 !
 ! R11   R(5,14)                 1.0895         -DE/DX =    0.0                 !
 ! R12   R(6,7)                  1.4289         -DE/DX =    0.0                 !
 ! R13   R(6,15)                 1.0871         -DE/DX =    0.0                 !
 ! R14   R(7,8)                  1.386          -DE/DX =    0.0                 !
 ! R15   R(7,16)                 1.0871         -DE/DX =    0.0                 !
 ! R16   R(8,9)                  1.4329         -DE/DX =    0.0                 !
 ! R17   R(8,17)                 1.0895         -DE/DX =    0.0                 !
 ! R18   R(9,10)                 1.4329         -DE/DX =    0.0                 !
 ! R19   R(10,18)                1.0895         -DE/DX =    0.0                 !
 ! A1    A(2,1,10)             120.3351         -DE/DX =    0.0                 !
 ! A2    A(2,1,11)             119.5135         -DE/DX =    0.0                 !
 ! A3    A(10,1,11)            120.1514         -DE/DX =    0.0                 !
 ! A4    A(1,2,3)              120.3351         -DE/DX =    0.0                 !
 ! A5    A(1,2,12)             119.5135         -DE/DX =    0.0                 !
 ! A6    A(3,2,12)             120.1514         -DE/DX =    0.0                 !
 ! A7    A(2,3,4)              120.7075         -DE/DX =    0.0                 !
 ! A8    A(2,3,13)             120.4699         -DE/DX =    0.0                 !
 ! A9    A(4,3,13)             118.8226         -DE/DX =    0.0                 !
 ! A10   A(3,4,5)              122.0852         -DE/DX =   -0.0001              !
 ! A11   A(3,4,9)              118.9574         -DE/DX =    0.0                 !
 ! A12   A(5,4,9)              118.9574         -DE/DX =    0.0                 !
 ! A13   A(4,5,6)              120.7075         -DE/DX =    0.0                 !
 ! A14   A(4,5,14)             118.8226         -DE/DX =    0.0                 !
 ! A15   A(6,5,14)             120.4699         -DE/DX =    0.0                 !
 ! A16   A(5,6,7)              120.3351         -DE/DX =    0.0                 !
 ! A17   A(5,6,15)             120.1514         -DE/DX =    0.0                 !
 ! A18   A(7,6,15)             119.5135         -DE/DX =    0.0                 !
 ! A19   A(6,7,8)              120.3351         -DE/DX =    0.0                 !
 ! A20   A(6,7,16)             119.5135         -DE/DX =    0.0                 !
 ! A21   A(8,7,16)             120.1514         -DE/DX =    0.0                 !
 ! A22   A(7,8,9)              120.7075         -DE/DX =    0.0                 !
 ! A23   A(7,8,17)             120.4699         -DE/DX =    0.0                 !
 ! A24   A(9,8,17)             118.8226         -DE/DX =    0.0                 !
 ! A25   A(4,9,8)              118.9574         -DE/DX =    0.0                 !
 ! A26   A(4,9,10)             118.9574         -DE/DX =    0.0                 !
 ! A27   A(8,9,10)             122.0852         -DE/DX =   -0.0001              !
 ! A28   A(1,10,9)             120.7075         -DE/DX =    0.0                 !
 ! A29   A(1,10,18)            120.4699         -DE/DX =    0.0                 !
 ! A30   A(9,10,18)            118.8226         -DE/DX =    0.0                 !
 ! D1    D(10,1,2,3)             0.0            -DE/DX =    0.0                 !
 ! D2    D(10,1,2,12)          180.0            -DE/DX =    0.0                 !
 ! D3    D(11,1,2,3)           180.0            -DE/DX =    0.0                 !
 ! D4    D(11,1,2,12)            0.0            -DE/DX =    0.0                 !
 ! D5    D(2,1,10,9)             0.0            -DE/DX =    0.0                 !
 ! D6    D(2,1,10,18)          180.0            -DE/DX =    0.0                 !
 ! D7    D(11,1,10,9)          180.0            -DE/DX =    0.0                 !
 ! D8    D(11,1,10,18)           0.0            -DE/DX =    0.0                 !
 ! D9    D(1,2,3,4)              0.0            -DE/DX =    0.0                 !
 ! D10   D(1,2,3,13)           180.0            -DE/DX =    0.0                 !
 ! D11   D(12,2,3,4)           180.0            -DE/DX =    0.0                 !
 ! D12   D(12,2,3,13)            0.0            -DE/DX =    0.0                 !
 ! D13   D(2,3,4,5)            180.0            -DE/DX =    0.0                 !
 ! D14   D(2,3,4,9)              0.0            -DE/DX =    0.0                 !
 ! D15   D(13,3,4,5)             0.0            -DE/DX =    0.0                 !
 ! D16   D(13,3,4,9)          -180.0            -DE/DX =    0.0                 !
 ! D17   D(3,4,5,6)            180.0            -DE/DX =    0.0                 !
 ! D18   D(3,4,5,14)             0.0            -DE/DX =    0.0                 !
 ! D19   D(9,4,5,6)              0.0            -DE/DX =    0.0                 !
 ! D20   D(9,4,5,14)           180.0            -DE/DX =    0.0                 !
 ! D21   D(3,4,9,8)           -180.0            -DE/DX =    0.0                 !
 ! D22   D(3,4,9,10)             0.0            -DE/DX =    0.0                 !
 ! D23   D(5,4,9,8)              0.0            -DE/DX =    0.0                 !
 ! D24   D(5,4,9,10)          -180.0            -DE/DX =    0.0                 !
 ! D25   D(4,5,6,7)              0.0            -DE/DX =    0.0                 !
 ! D26   D(4,5,6,15)           180.0            -DE/DX =    0.0                 !
 ! D27   D(14,5,6,7)          -180.0            -DE/DX =    0.0                 !
 ! D28   D(14,5,6,15)            0.0            -DE/DX =    0.0                 !
 ! D29   D(5,6,7,8)              0.0            -DE/DX =    0.0                 !
 ! D30   D(5,6,7,16)           180.0            -DE/DX =    0.0                 !
 ! D31   D(15,6,7,8)           180.0            -DE/DX =    0.0                 !
 ! D32   D(15,6,7,16)            0.0            -DE/DX =    0.0                 !
 ! D33   D(6,7,8,9)              0.0            -DE/DX =    0.0                 !
 ! D34   D(6,7,8,17)           180.0            -DE/DX =    0.0                 !
 ! D35   D(16,7,8,9)           180.0            -DE/DX =    0.0                 !
 ! D36   D(16,7,8,17)            0.0            -DE/DX =    0.0                 !
 ! D37   D(7,8,9,4)              0.0            -DE/DX =    0.0                 !
 ! D38   D(7,8,9,10)           180.0            -DE/DX =    0.0                 !
 ! D39   D(17,8,9,4)          -180.0            -DE/DX =    0.0                 !
 ! D40   D(17,8,9,10)            0.0            -DE/DX =    0.0                 !
 ! D41   D(4,9,10,1)             0.0            -DE/DX =    0.0                 !
 ! D42   D(4,9,10,18)         -180.0            -DE/DX =    0.0                 !
 ! D43   D(8,9,10,1)           180.0            -DE/DX =    0.0                 !
 ! D44   D(8,9,10,18)            0.0            -DE/DX =    0.0                 !
 --------------------------------------------------------------------------------
 GradGradGradGradGradGradGradGradGradGradGradGradGradGradGradGradGradGrad

                          Input orientation:                          
 ---------------------------------------------------------------------
 Center     Atomic      Atomic             Coordinates (Angstroms)
 Number     Number       Type             X           Y           Z
 ---------------------------------------------------------------------
      1          6           0       -0.859128    0.126064   -2.695412
      2          6           0       -0.139271    1.356585   -2.598151
      3          6           0        0.520941    1.690593   -1.426183
      4          6           0        0.493811    0.811440   -0.295000
      5          6           0        1.165672    1.127141    0.930626
      6          6           0        1.120601    0.255540    2.007301
      7          6           0        0.400744   -0.974982    1.910040
      8          6           0       -0.259468   -1.308990    0.738072
      9          6           0       -0.232337   -0.429836   -0.393111
     10          6           0       -0.904199   -0.745537   -1.618737
     11          1           0       -1.372178   -0.122543   -3.621071
     12          1           0       -0.112724    2.030365   -3.450904
     13          1           0        1.070441    2.628204   -1.349618
     14          1           0        1.713853    2.065903    1.002372
     15          1           0        1.633652    0.504147    2.932961
     16          1           0        0.374197   -1.648762    2.762793
     17          1           0       -0.808967   -2.246600    0.661508
     18          1           0       -1.452380   -1.684299   -1.690483
 ---------------------------------------------------------------------
                    Distance matrix (angstroms):
                    1          2          3          4          5
     1  C    0.000000
     2  C    1.428929   0.000000
     3  C    2.441984   1.385983   0.000000
     4  C    2.839395   2.449996   1.432907   0.000000
     5  C    4.272016   3.769321   2.507529   1.432907   0.000000
     6  C    5.104077   4.899976   3.769321   2.449996   1.385983
     7  C    4.899976   5.104077   4.272016   2.839395   2.441984
     8  C    3.769321   4.272016   3.780282   2.476062   2.828927
     9  C    2.449996   2.839395   2.476062   1.441417   2.476062
    10  C    1.385983   2.441984   2.828927   2.476062   3.780282
    11  H    1.087139   2.180424   3.418904   3.926448   5.359136
    12  H    2.180424   1.087139   2.148598   3.437062   4.652732
    13  H    3.434399   2.153891   1.089461   2.178384   2.731625
    14  H    4.904775   4.111078   2.731625   2.178384   1.089461
    15  H    6.167291   5.870528   4.652732   3.437062   2.148598
    16  H    5.870528   6.167291   5.359136   3.926448   3.418904
    17  H    4.111078   4.904775   4.650656   3.458865   3.918386
    18  H    2.153891   3.434399   3.918386   3.458865   4.650656
                    6          7          8          9         10
     6  C    0.000000
     7  C    1.428929   0.000000
     8  C    2.441984   1.385983   0.000000
     9  C    2.839395   2.449996   1.432907   0.000000
    10  C    4.272016   3.769321   2.507529   1.432907   0.000000
    11  H    6.167291   5.870528   4.652732   3.437062   2.148598
    12  H    5.870528   6.167291   5.359136   3.926448   3.418904
    13  H    4.111078   4.904775   4.650656   3.458865   3.918386
    14  H    2.153891   3.434399   3.918386   3.458865   4.650656
    15  H    1.087139   2.180424   3.418904   3.926448   5.359136
    16  H    2.180424   1.087139   2.148598   3.437062   4.652732
    17  H    3.434399   2.153891   1.089461   2.178384   2.731625
    18  H    4.904775   4.111078   2.731625   2.178384   1.089461
                   11         12         13         14         15
    11  H    0.000000
    12  H    2.500040   0.000000
    13  H    4.323482   2.484490   0.000000
    14  H    5.974037   4.813451   2.502403   0.000000
    15  H    7.237617   6.792120   4.813451   2.484490   0.000000
    16  H    6.792120   7.237617   5.974037   4.323482   2.500040
    17  H    4.813451   5.974037   5.598260   5.007844   4.323482
    18  H    2.484490   4.323482   5.007844   5.598260   5.974037
                   16         17         18
    16  H    0.000000
    17  H    2.484490   0.000000
    18  H    4.813451   2.502403   0.000000
 Stoichiometry    C10H8
 Framework group  D2H[C2"(C.C),SG(C8H8)]
 Deg. of freedom     9
 Full point group                 D2H     NOp   8
 Largest Abelian subgroup         D2H     NOp   8
 Largest concise Abelian subgroup D2      NOp   4
                         Standard orientation:                         
 ---------------------------------------------------------------------
 Center     Atomic      Atomic             Coordinates (Angstroms)
 Number     Number       Type             X           Y           Z
 ---------------------------------------------------------------------
      1          6           0        0.000000    2.449988    0.714464
      2          6           0        0.000000    2.449988   -0.714464
      3          6           0       -0.000000    1.253765   -1.414464
      4          6           0       -0.000000    0.000000   -0.720708
      5          6           0       -0.000000   -1.253765   -1.414464
      6          6           0       -0.000000   -2.449988   -0.714464
      7          6           0       -0.000000   -2.449988    0.714464
      8          6           0       -0.000000   -1.253765    1.414464
      9          6           0        0.000000    0.000000    0.720708
     10          6           0        0.000000    1.253765    1.414464
     11          1           0        0.000000    3.396060    1.250020
     12          1           0        0.000000    3.396060   -1.250020
     13          1           0       -0.000000    1.251202   -2.503922
     14          1           0       -0.000000   -1.251202   -2.503922
     15          1           0       -0.000000   -3.396060   -1.250020
     16          1           0       -0.000000   -3.396060    1.250020
     17          1           0       -0.000000   -1.251202    2.503922
     18          1           0        0.000000    1.251202    2.503922
 ---------------------------------------------------------------------
 Rotational constants (GHZ):           3.0707951           1.2137606           0.8699175

 **********************************************************************

            Population analysis using the SCF Density.

 **********************************************************************

 Orbital symmetries:
       Occupied  (B1U) (AG) (B3G) (B2U) (B1U) (AG) (B3G) (B1U)
                 (B2U) (AG) (AG) (B2U) (B1U) (AG) (B3G) (B2U) (B1U)
                 (AG) (B3G) (B2U) (AG) (B1U) (AG) (B3G) (B2U) (B1U)
                 (B3U) (B2U) (B3G) (AG) (B1G) (B2G) (B3U) (AU)
       Virtual   (B1G) (B2G) (B3U) (AG) (B2U) (AU) (B1U) (AG) (B3G)
                 (B1U) (B2U) (B3G) (B2G) (B1U) (AG) (B1U) (B3G)
                 (B2U) (AG) (B2U) (B1U) (B3G) (B1U) (AG) (B3G)
                 (B2U) (B3U) (AG) (B1G) (B1U) (B2U) (B2G) (B3G)
                 (B3U) (AG) (AU) (B1U) (B2U) (B2G) (B1G) (B3U)
                 (AG) (AU) (B2G) (B3G) (B1U) (B2U) (AG) (B1U) (B3G)
                 (B2U) (B3G) (B1U) (AG) (B2U) (AG) (B3G) (B2U)
                 (B1U) (B3G) (B1U) (B3G) (B2U) (AG) (B1U) (AG)
                 (B3G) (B2U) (B1U) (AG) (B3G) (B1U)
 The electronic state is 1-AG.
 Alpha  occ. eigenvalues --  -11.19887 -11.19842 -11.18844 -11.18841 -11.18838
 Alpha  occ. eigenvalues --  -11.18816 -11.18740 -11.18734 -11.18685 -11.18677
 Alpha  occ. eigenvalues --   -1.16930  -1.10496  -1.04488  -1.00318  -0.97846
 Alpha  occ. eigenvalues --   -0.85124  -0.83479  -0.81064  -0.70498  -0.70134
 Alpha  occ. eigenvalues --   -0.67867  -0.62262  -0.61220  -0.58557  -0.58441
 Alpha  occ. eigenvalues --   -0.56435  -0.53235  -0.52296  -0.48565  -0.47376
 Alpha  occ. eigenvalues --   -0.44693  -0.38566  -0.32020  -0.28850
 Alpha virt. eigenvalues --    0.09251   0.12700   0.19102   0.25661   0.27814
 Alpha virt. eigenvalues --    0.28204   0.29015   0.34467   0.34731   0.35316
 Alpha virt. eigenvalues --    0.35835   0.38195   0.41474   0.43012   0.46782
 Alpha virt. eigenvalues --    0.50015   0.50373   0.52707   0.54121   0.57289
 Alpha virt. eigenvalues --    0.73008   0.75391   0.80423   0.85183   0.85518
 Alpha virt. eigenvalues --    0.89944   0.94336   0.97822   0.98209   0.98254
 Alpha virt. eigenvalues --    0.99087   1.02157   1.02735   1.05601   1.06654
 Alpha virt. eigenvalues --    1.07121   1.07701   1.10185   1.10704   1.12331
 Alpha virt. eigenvalues --    1.13313   1.13660   1.17901   1.26142   1.26888
 Alpha virt. eigenvalues --    1.26898   1.31145   1.31177   1.33186   1.35070
 Alpha virt. eigenvalues --    1.45608   1.45765   1.46286   1.52438   1.59385
 Alpha virt. eigenvalues --    1.59530   1.60604   1.69347   1.69844   1.69927
 Alpha virt. eigenvalues --    1.77796   1.78206   1.78811   1.78811   1.84589
 Alpha virt. eigenvalues --    1.86911   2.05255   2.17627   2.19197   2.21674
 Alpha virt. eigenvalues --    2.70164   2.76456
          Condensed to atoms (all electrons):
               1          2          3          4          5          6
     1  C    5.153780   0.436147  -0.106061   0.000782   0.000330  -0.000010
     2  C    0.436147   5.153780   0.520501  -0.107282   0.000948  -0.000045
     3  C   -0.106061   0.520501   5.114172   0.415186  -0.048614   0.000948
     4  C    0.000782  -0.107282   0.415186   5.208538   0.415186  -0.107282
     5  C    0.000330   0.000948  -0.048614   0.415186   5.114172   0.520501
     6  C   -0.000010  -0.000045   0.000948  -0.107282   0.520501   5.153780
     7  C   -0.000045  -0.000010   0.000330   0.000782  -0.106061   0.436147
     8  C    0.000948   0.000330   0.001478  -0.061555  -0.004844  -0.106061
     9  C   -0.107282   0.000782  -0.061555   0.451570  -0.061555   0.000782
    10  C    0.520501  -0.106061  -0.004844  -0.061555   0.001478   0.000330
    11  H    0.394814  -0.031272   0.002115  -0.000097   0.000000  -0.000000
    12  H   -0.031272   0.394814  -0.032106   0.002419  -0.000039   0.000000
    13  H    0.001958  -0.027613   0.397396  -0.039071   0.001533   0.000036
    14  H    0.000006   0.000036   0.001533  -0.039071   0.397396  -0.027613
    15  H   -0.000000   0.000000  -0.000039   0.002419  -0.032106   0.394814
    16  H    0.000000  -0.000000   0.000000  -0.000097   0.002115  -0.031272
    17  H    0.000036   0.000006  -0.000051   0.001788  -0.000050   0.001958
    18  H   -0.027613   0.001958  -0.000050   0.001788  -0.000051   0.000006
               7          8          9         10         11         12
     1  C   -0.000045   0.000948  -0.107282   0.520501   0.394814  -0.031272
     2  C   -0.000010   0.000330   0.000782  -0.106061  -0.031272   0.394814
     3  C    0.000330   0.001478  -0.061555  -0.004844   0.002115  -0.032106
     4  C    0.000782  -0.061555   0.451570  -0.061555  -0.000097   0.002419
     5  C   -0.106061  -0.004844  -0.061555   0.001478   0.000000  -0.000039
     6  C    0.436147  -0.106061   0.000782   0.000330  -0.000000   0.000000
     7  C    5.153780   0.520501  -0.107282   0.000948   0.000000  -0.000000
     8  C    0.520501   5.114172   0.415186  -0.048614  -0.000039   0.000000
     9  C   -0.107282   0.415186   5.208538   0.415186   0.002419  -0.000097
    10  C    0.000948  -0.048614   0.415186   5.114172  -0.032106   0.002115
    11  H    0.000000  -0.000039   0.002419  -0.032106   0.426120  -0.000952
    12  H   -0.000000   0.000000  -0.000097   0.002115  -0.000952   0.426120
    13  H    0.000006  -0.000051   0.001788  -0.000050  -0.000031  -0.001266
    14  H    0.001958  -0.000050   0.001788  -0.000051  -0.000000  -0.000001
    15  H   -0.031272   0.002115  -0.000097   0.000000   0.000000  -0.000000
    16  H    0.394814  -0.032106   0.002419  -0.000039  -0.000000   0.000000
    17  H   -0.027613   0.397396  -0.039071   0.001533  -0.000001  -0.000000
    18  H    0.000036   0.001533  -0.039071   0.397396  -0.001266  -0.000031
              13         14         15         16         17         18
     1  C    0.001958   0.000006  -0.000000   0.000000   0.000036  -0.027613
     2  C   -0.027613   0.000036   0.000000  -0.000000   0.000006   0.001958
     3  C    0.397396   0.001533  -0.000039   0.000000  -0.000051  -0.000050
     4  C   -0.039071  -0.039071   0.002419  -0.000097   0.001788   0.001788
     5  C    0.001533   0.397396  -0.032106   0.002115  -0.000050  -0.000051
     6  C    0.000036  -0.027613   0.394814  -0.031272   0.001958   0.000006
     7  C    0.000006   0.001958  -0.031272   0.394814  -0.027613   0.000036
     8  C   -0.000051  -0.000050   0.002115  -0.032106   0.397396   0.001533
     9  C    0.001788   0.001788  -0.000097   0.002419  -0.039071  -0.039071
    10  C   -0.000050  -0.000051   0.000000  -0.000039   0.001533   0.397396
    11  H   -0.000031  -0.000000   0.000000  -0.000000  -0.000001  -0.001266
    12  H   -0.001266  -0.000001  -0.000000   0.000000  -0.000000  -0.000031
    13  H    0.424332   0.001748  -0.000001  -0.000000   0.000000   0.000002
    14  H    0.001748   0.424332  -0.001266  -0.000031   0.000002   0.000000
    15  H   -0.000001  -0.001266   0.426120  -0.000952  -0.000031  -0.000000
    16  H   -0.000000  -0.000031  -0.000952   0.426120  -0.001266  -0.000001
    17  H    0.000000   0.000002  -0.000031  -0.001266   0.424332   0.001748
    18  H    0.000002   0.000000  -0.000000  -0.000001   0.001748   0.424332
 Mulliken charges:
               1
     1  C   -0.237018
     2  C   -0.237018
     3  C   -0.200338
     4  C   -0.084446
     5  C   -0.200338
     6  C   -0.237018
     7  C   -0.237018
     8  C   -0.200338
     9  C   -0.084446
    10  C   -0.200338
    11  H    0.240295
    12  H    0.240295
    13  H    0.239284
    14  H    0.239284
    15  H    0.240295
    16  H    0.240295
    17  H    0.239284
    18  H    0.239284
 Sum of Mulliken charges =  -0.00000
 Mulliken charges with hydrogens summed into heavy atoms:
               1
     1  C    0.003277
     2  C    0.003277
     3  C    0.038946
     4  C   -0.084446
     5  C    0.038946
     6  C    0.003277
     7  C    0.003277
     8  C    0.038946
     9  C   -0.084446
    10  C    0.038946
 Electronic spatial extent (au):  <R**2>=           1310.5559
 Charge=              0.0000 electrons
 Dipole moment (field-independent basis, Debye):
    X=              0.0000    Y=              0.0000    Z=              0.0000  Tot=              0.0000
 Quadrupole moment (field-independent basis, Debye-Ang):
   XX=            -67.0572   YY=            -50.3833   ZZ=            -50.5927
   XY=              0.0000   XZ=              0.0000   YZ=             -0.0000
 Traceless Quadrupole moment (field-independent basis, Debye-Ang):
   XX=            -11.0462   YY=              5.6278   ZZ=              5.4183
   XY=              0.0000   XZ=              0.0000   YZ=             -0.0000
 Octapole moment (field-independent basis, Debye-Ang**2):
  XXX=              0.0000  YYY=              0.0000  ZZZ=              0.0000  XYY=              0.0000
  XXY=              0.0000  XXZ=             -0.0000  XZZ=             -0.0000  YZZ=             -0.0000
  YYZ=              0.0000  XYZ=              0.0000
 Hexadecapole moment (field-independent basis, Debye-Ang**3):
 XXXX=            -72.2066 YYYY=          -1071.1520 ZZZZ=           -465.6432 XXXY=             -0.0000
 XXXZ=              0.0000 YYYX=              0.0000 YYYZ=              0.0000 ZZZX=              0.0000
 ZZZY=             -0.0000 XXYY=           -247.6970 XXZZ=           -113.6124 YYZZ=           -262.4369
 XXYZ=             -0.0000 YYXZ=              0.0000 ZZXY=              0.0000
 N-N= 4.541181964124D+02 E-N=-1.793974776884D+03  KE= 3.797340984408D+02
 Symmetry AG   KE= 1.116939732859D+02
 Symmetry B1G  KE= 1.843816434227D+00
 Symmetry B2G  KE= 1.993388889543D+00
 Symmetry B3G  KE= 7.494428243811D+01
 Symmetry AU   KE= 2.165723040027D+00
 Symmetry B1U  KE= 1.063533609182D+02
 Symmetry B2U  KE= 7.693440987316D+01
 Symmetry B3U  KE= 3.805143561656D+00
 Unable to Open any file for archive entry.
 1\1\GINC-BS001\FOpt\RMP2-FC\3-21G\C10H8\PNATT\14-Aug-2026\0\\# opt fre
 q=hpmodes mp2/3-21g geom=connectivity symmetry=loose\\Naphthalene C10H
 8 - size6to10_D2h\\0,1\C,-0.8591275314,0.1260639613,-2.6954121413\C,-0
 .1392706532,1.3565854649,-2.5981506078\C,0.520941202,1.6905932377,-1.4
 261826164\C,0.4938106625,0.811439695,-0.2949995761\C,1.1656717507,1.12
 71406502,0.9306258452\C,1.1206007667,0.2555397446,2.0073014354\C,0.400
 7438884,-0.974981759,1.9100399019\C,-0.2594679667,-1.3089895318,0.7380
 719105\C,-0.2323374272,-0.4298359891,-0.3931111298\C,-0.9041985154,-0.
 7455369444,-1.6187365511\H,-1.3721784276,-0.122543138,-3.6210714615\H,
 -0.112723763,2.0303654393,-3.4509036188\H,1.0704407276,2.6282038748,-1
 .3496184906\H,1.7138532545,2.0659031527,1.0023719508\H,1.6336516629,0.
 5041468439,2.9329607556\H,0.3741969983,-1.6487617334,2.762792913\H,-0.
 8089674923,-2.246600169,0.6615077848\H,-1.4523800192,-1.6842994468,-1.
 6904826567\\Version=ES64L-G16RevC.01\State=1-AG\HF=-381.208784\MP2=-38
 2.0797209\RMSD=5.375e-09\RMSF=6.109e-05\Dipole=0.,0.,0.\PG=D02H [C2"(C
 1.C1),SG(C8H8)]\\@
 The archive entry for this job was punched.


 COLLEGE PROFESSOR: SOMEONE WHO TALKS IN OTHER PEOPLE'S SLEEP.
 Job cpu time:       0 days  0 hours  1 minutes 41.2 seconds.
 Elapsed time:       0 days  0 hours  0 minutes 13.0 seconds.
 File lengths (MBytes):  RWF=     10 Int=      0 D2E=      0 Chk=      3 Scr=      1
 Normal termination of Gaussian 16 at Fri Aug 14 18:18:47 2026.
 Link1:  Proceeding to internal job step number  2.
 -------------------------------------------------------------------
 #N Geom=AllCheck Guess=TCheck SCRF=Check GenChk RMP2(FC)/3-21G Freq
 -------------------------------------------------------------------
 1/10=4,29=7,30=1,38=1,40=1/1,3;
 2/12=2,17=4,18=3,40=1/2;
 3/5=5,11=1,14=-4,25=1,30=1,70=2,71=2,116=1,140=1/1,2,3;
 4/5=101/1;
 5/5=2,38=6,98=1/2;
 8/6=3,8=1,10=1,19=11,30=-1/1;
 9/15=3,16=-3/6;
 11/6=1,8=1,15=11,17=12,24=-1,27=1,28=-2,29=300,32=6,42=3/1,2,10;
 10/6=2,21=1/2;
 8/6=4,8=1,10=1,19=11,30=-1/11,4;
 10/5=1,20=4/2;
 11/12=2,14=11,16=1,17=2,28=-2,42=3,76=2/2,10,12;
 6/7=2,8=2,9=2,10=2/1;
 7/8=11,10=1,12=2,25=1,44=2/1,2,3,16;
 1/10=4,30=1/3;
 99//99;
 Structure from the checkpoint file:  "Naphthalene.chk"
 ---------------------------------
 Naphthalene C10H8 - size6to10_D2h
 ---------------------------------
 Charge =  0 Multiplicity = 1
 Redundant internal coordinates found in file.  (old form).
 C,0,-0.8591275314,0.1260639613,-2.6954121413
 C,0,-0.1392706532,1.3565854649,-2.5981506078
 C,0,0.520941202,1.6905932377,-1.4261826164
 C,0,0.4938106625,0.811439695,-0.2949995761
 C,0,1.1656717507,1.1271406502,0.9306258452
 C,0,1.1206007667,0.2555397446,2.0073014354
 C,0,0.4007438884,-0.974981759,1.9100399019
 C,0,-0.2594679667,-1.3089895318,0.7380719105
 C,0,-0.2323374272,-0.4298359891,-0.3931111298
 C,0,-0.9041985154,-0.7455369444,-1.6187365511
 H,0,-1.3721784276,-0.122543138,-3.6210714615
 H,0,-0.112723763,2.0303654393,-3.4509036188
 H,0,1.0704407276,2.6282038748,-1.3496184906
 H,0,1.7138532545,2.0659031527,1.0023719508
 H,0,1.6336516629,0.5041468439,2.9329607556
 H,0,0.3741969983,-1.6487617334,2.762792913
 H,0,-0.8089674923,-2.246600169,0.6615077848
 H,0,-1.4523800192,-1.6842994468,-1.6904826567
 Recover connectivity data from disk.

 GradGradGradGradGradGradGradGradGradGradGradGradGradGradGradGradGradGrad
 Berny optimization.
 Initialization pass.
                           ----------------------------
                           !    Initial Parameters    !
                           ! (Angstroms and Degrees)  !
 --------------------------                            --------------------------
 ! Name  Definition              Value          Derivative Info.                !
 --------------------------------------------------------------------------------
 ! R1    R(1,2)                  1.4289         calculate D2E/DX2 analytically  !
 ! R2    R(1,10)                 1.386          calculate D2E/DX2 analytically  !
 ! R3    R(1,11)                 1.0871         calculate D2E/DX2 analytically  !
 ! R4    R(2,3)                  1.386          calculate D2E/DX2 analytically  !
 ! R5    R(2,12)                 1.0871         calculate D2E/DX2 analytically  !
 ! R6    R(3,4)                  1.4329         calculate D2E/DX2 analytically  !
 ! R7    R(3,13)                 1.0895         calculate D2E/DX2 analytically  !
 ! R8    R(4,5)                  1.4329         calculate D2E/DX2 analytically  !
 ! R9    R(4,9)                  1.4414         calculate D2E/DX2 analytically  !
 ! R10   R(5,6)                  1.386          calculate D2E/DX2 analytically  !
 ! R11   R(5,14)                 1.0895         calculate D2E/DX2 analytically  !
 ! R12   R(6,7)                  1.4289         calculate D2E/DX2 analytically  !
 ! R13   R(6,15)                 1.0871         calculate D2E/DX2 analytically  !
 ! R14   R(7,8)                  1.386          calculate D2E/DX2 analytically  !
 ! R15   R(7,16)                 1.0871         calculate D2E/DX2 analytically  !
 ! R16   R(8,9)                  1.4329         calculate D2E/DX2 analytically  !
 ! R17   R(8,17)                 1.0895         calculate D2E/DX2 analytically  !
 ! R18   R(9,10)                 1.4329         calculate D2E/DX2 analytically  !
 ! R19   R(10,18)                1.0895         calculate D2E/DX2 analytically  !
 ! A1    A(2,1,10)             120.3351         calculate D2E/DX2 analytically  !
 ! A2    A(2,1,11)             119.5135         calculate D2E/DX2 analytically  !
 ! A3    A(10,1,11)            120.1514         calculate D2E/DX2 analytically  !
 ! A4    A(1,2,3)              120.3351         calculate D2E/DX2 analytically  !
 ! A5    A(1,2,12)             119.5135         calculate D2E/DX2 analytically  !
 ! A6    A(3,2,12)             120.1514         calculate D2E/DX2 analytically  !
 ! A7    A(2,3,4)              120.7075         calculate D2E/DX2 analytically  !
 ! A8    A(2,3,13)             120.4699         calculate D2E/DX2 analytically  !
 ! A9    A(4,3,13)             118.8226         calculate D2E/DX2 analytically  !
 ! A10   A(3,4,5)              122.0852         calculate D2E/DX2 analytically  !
 ! A11   A(3,4,9)              118.9574         calculate D2E/DX2 analytically  !
 ! A12   A(5,4,9)              118.9574         calculate D2E/DX2 analytically  !
 ! A13   A(4,5,6)              120.7075         calculate D2E/DX2 analytically  !
 ! A14   A(4,5,14)             118.8226         calculate D2E/DX2 analytically  !
 ! A15   A(6,5,14)             120.4699         calculate D2E/DX2 analytically  !
 ! A16   A(5,6,7)              120.3351         calculate D2E/DX2 analytically  !
 ! A17   A(5,6,15)             120.1514         calculate D2E/DX2 analytically  !
 ! A18   A(7,6,15)             119.5135         calculate D2E/DX2 analytically  !
 ! A19   A(6,7,8)              120.3351         calculate D2E/DX2 analytically  !
 ! A20   A(6,7,16)             119.5135         calculate D2E/DX2 analytically  !
 ! A21   A(8,7,16)             120.1514         calculate D2E/DX2 analytically  !
 ! A22   A(7,8,9)              120.7075         calculate D2E/DX2 analytically  !
 ! A23   A(7,8,17)             120.4699         calculate D2E/DX2 analytically  !
 ! A24   A(9,8,17)             118.8226         calculate D2E/DX2 analytically  !
 ! A25   A(4,9,8)              118.9574         calculate D2E/DX2 analytically  !
 ! A26   A(4,9,10)             118.9574         calculate D2E/DX2 analytically  !
 ! A27   A(8,9,10)             122.0852         calculate D2E/DX2 analytically  !
 ! A28   A(1,10,9)             120.7075         calculate D2E/DX2 analytically  !
 ! A29   A(1,10,18)            120.4699         calculate D2E/DX2 analytically  !
 ! A30   A(9,10,18)            118.8226         calculate D2E/DX2 analytically  !
 ! D1    D(10,1,2,3)             0.0            calculate D2E/DX2 analytically  !
 ! D2    D(10,1,2,12)          180.0            calculate D2E/DX2 analytically  !
 ! D3    D(11,1,2,3)           180.0            calculate D2E/DX2 analytically  !
 ! D4    D(11,1,2,12)            0.0            calculate D2E/DX2 analytically  !
 ! D5    D(2,1,10,9)             0.0            calculate D2E/DX2 analytically  !
 ! D6    D(2,1,10,18)          180.0            calculate D2E/DX2 analytically  !
 ! D7    D(11,1,10,9)          180.0            calculate D2E/DX2 analytically  !
 ! D8    D(11,1,10,18)           0.0            calculate D2E/DX2 analytically  !
 ! D9    D(1,2,3,4)              0.0            calculate D2E/DX2 analytically  !
 ! D10   D(1,2,3,13)           180.0            calculate D2E/DX2 analytically  !
 ! D11   D(12,2,3,4)           180.0            calculate D2E/DX2 analytically  !
 ! D12   D(12,2,3,13)            0.0            calculate D2E/DX2 analytically  !
 ! D13   D(2,3,4,5)            180.0            calculate D2E/DX2 analytically  !
 ! D14   D(2,3,4,9)              0.0            calculate D2E/DX2 analytically  !
 ! D15   D(13,3,4,5)             0.0            calculate D2E/DX2 analytically  !
 ! D16   D(13,3,4,9)           180.0            calculate D2E/DX2 analytically  !
 ! D17   D(3,4,5,6)            180.0            calculate D2E/DX2 analytically  !
 ! D18   D(3,4,5,14)             0.0            calculate D2E/DX2 analytically  !
 ! D19   D(9,4,5,6)              0.0            calculate D2E/DX2 analytically  !
 ! D20   D(9,4,5,14)           180.0            calculate D2E/DX2 analytically  !
 ! D21   D(3,4,9,8)            180.0            calculate D2E/DX2 analytically  !
 ! D22   D(3,4,9,10)             0.0            calculate D2E/DX2 analytically  !
 ! D23   D(5,4,9,8)              0.0            calculate D2E/DX2 analytically  !
 ! D24   D(5,4,9,10)           180.0            calculate D2E/DX2 analytically  !
 ! D25   D(4,5,6,7)              0.0            calculate D2E/DX2 analytically  !
 ! D26   D(4,5,6,15)           180.0            calculate D2E/DX2 analytically  !
 ! D27   D(14,5,6,7)           180.0            calculate D2E/DX2 analytically  !
 ! D28   D(14,5,6,15)            0.0            calculate D2E/DX2 analytically  !
 ! D29   D(5,6,7,8)              0.0            calculate D2E/DX2 analytically  !
 ! D30   D(5,6,7,16)           180.0            calculate D2E/DX2 analytically  !
 ! D31   D(15,6,7,8)           180.0            calculate D2E/DX2 analytically  !
 ! D32   D(15,6,7,16)            0.0            calculate D2E/DX2 analytically  !
 ! D33   D(6,7,8,9)              0.0            calculate D2E/DX2 analytically  !
 ! D34   D(6,7,8,17)           180.0            calculate D2E/DX2 analytically  !
 ! D35   D(16,7,8,9)          -180.0            calculate D2E/DX2 analytically  !
 ! D36   D(16,7,8,17)            0.0            calculate D2E/DX2 analytically  !
 ! D37   D(7,8,9,4)              0.0            calculate D2E/DX2 analytically  !
 ! D38   D(7,8,9,10)           180.0            calculate D2E/DX2 analytically  !
 ! D39   D(17,8,9,4)          -180.0            calculate D2E/DX2 analytically  !
 ! D40   D(17,8,9,10)            0.0            calculate D2E/DX2 analytically  !
 ! D41   D(4,9,10,1)             0.0            calculate D2E/DX2 analytically  !
 ! D42   D(4,9,10,18)          180.0            calculate D2E/DX2 analytically  !
 ! D43   D(8,9,10,1)           180.0            calculate D2E/DX2 analytically  !
 ! D44   D(8,9,10,18)            0.0            calculate D2E/DX2 analytically  !
 --------------------------------------------------------------------------------
 Trust Radius=3.00D-01 FncErr=1.00D-07 GrdErr=1.00D-07 EigMax=2.50D+02 EigMin=1.00D-04
 Number of steps in this run=      2 maximum allowed number of steps=      2.
 GradGradGradGradGradGradGradGradGradGradGradGradGradGradGradGradGradGrad

                          Input orientation:                          
 ---------------------------------------------------------------------
 Center     Atomic      Atomic             Coordinates (Angstroms)
 Number     Number       Type             X           Y           Z
 ---------------------------------------------------------------------
      1          6           0       -0.859128    0.126064   -2.695412
      2          6           0       -0.139271    1.356585   -2.598151
      3          6           0        0.520941    1.690593   -1.426183
      4          6           0        0.493811    0.811440   -0.295000
      5          6           0        1.165672    1.127141    0.930626
      6          6           0        1.120601    0.255540    2.007301
      7          6           0        0.400744   -0.974982    1.910040
      8          6           0       -0.259468   -1.308990    0.738072
      9          6           0       -0.232337   -0.429836   -0.393111
     10          6           0       -0.904199   -0.745537   -1.618737
     11          1           0       -1.372178   -0.122543   -3.621071
     12          1           0       -0.112724    2.030365   -3.450904
     13          1           0        1.070441    2.628204   -1.349618
     14          1           0        1.713853    2.065903    1.002372
     15          1           0        1.633652    0.504147    2.932961
     16          1           0        0.374197   -1.648762    2.762793
     17          1           0       -0.808967   -2.246600    0.661508
     18          1           0       -1.452380   -1.684299   -1.690483
 ---------------------------------------------------------------------
                    Distance matrix (angstroms):
                    1          2          3          4          5
     1  C    0.000000
     2  C    1.428929   0.000000
     3  C    2.441984   1.385983   0.000000
     4  C    2.839395   2.449996   1.432907   0.000000
     5  C    4.272016   3.769321   2.507529   1.432907   0.000000
     6  C    5.104077   4.899976   3.769321   2.449996   1.385983
     7  C    4.899976   5.104077   4.272016   2.839395   2.441984
     8  C    3.769321   4.272016   3.780282   2.476062   2.828927
     9  C    2.449996   2.839395   2.476062   1.441417   2.476062
    10  C    1.385983   2.441984   2.828927   2.476062   3.780282
    11  H    1.087139   2.180424   3.418904   3.926448   5.359136
    12  H    2.180424   1.087139   2.148598   3.437062   4.652732
    13  H    3.434399   2.153891   1.089461   2.178384   2.731625
    14  H    4.904775   4.111078   2.731625   2.178384   1.089461
    15  H    6.167291   5.870528   4.652732   3.437062   2.148598
    16  H    5.870528   6.167291   5.359136   3.926448   3.418904
    17  H    4.111078   4.904775   4.650656   3.458865   3.918386
    18  H    2.153891   3.434399   3.918386   3.458865   4.650656
                    6          7          8          9         10
     6  C    0.000000
     7  C    1.428929   0.000000
     8  C    2.441984   1.385983   0.000000
     9  C    2.839395   2.449996   1.432907   0.000000
    10  C    4.272016   3.769321   2.507529   1.432907   0.000000
    11  H    6.167291   5.870528   4.652732   3.437062   2.148598
    12  H    5.870528   6.167291   5.359136   3.926448   3.418904
    13  H    4.111078   4.904775   4.650656   3.458865   3.918386
    14  H    2.153891   3.434399   3.918386   3.458865   4.650656
    15  H    1.087139   2.180424   3.418904   3.926448   5.359136
    16  H    2.180424   1.087139   2.148598   3.437062   4.652732
    17  H    3.434399   2.153891   1.089461   2.178384   2.731625
    18  H    4.904775   4.111078   2.731625   2.178384   1.089461
                   11         12         13         14         15
    11  H    0.000000
    12  H    2.500040   0.000000
    13  H    4.323482   2.484490   0.000000
    14  H    5.974037   4.813451   2.502403   0.000000
    15  H    7.237617   6.792120   4.813451   2.484490   0.000000
    16  H    6.792120   7.237617   5.974037   4.323482   2.500040
    17  H    4.813451   5.974037   5.598260   5.007844   4.323482
    18  H    2.484490   4.323482   5.007844   5.598260   5.974037
                   16         17         18
    16  H    0.000000
    17  H    2.484490   0.000000
    18  H    4.813451   2.502403   0.000000
 Stoichiometry    C10H8
 Framework group  D2H[C2"(C.C),SG(C8H8)]
 Deg. of freedom     9
 Full point group                 D2H     NOp   8
 Largest Abelian subgroup         D2H     NOp   8
 Largest concise Abelian subgroup D2      NOp   4
                         Standard orientation:                         
 ---------------------------------------------------------------------
 Center     Atomic      Atomic             Coordinates (Angstroms)
 Number     Number       Type             X           Y           Z
 ---------------------------------------------------------------------
      1          6           0       -0.000000    2.449988    0.714464
      2          6           0        0.000000    2.449988   -0.714464
      3          6           0       -0.000000    1.253765   -1.414464
      4          6           0        0.000000   -0.000000   -0.720708
      5          6           0        0.000000   -1.253765   -1.414464
      6          6           0       -0.000000   -2.449988   -0.714464
      7          6           0        0.000000   -2.449988    0.714464
      8          6           0       -0.000000   -1.253765    1.414464
      9          6           0       -0.000000   -0.000000    0.720708
     10          6           0       -0.000000    1.253765    1.414464
     11          1           0       -0.000000    3.396060    1.250020
     12          1           0        0.000000    3.396060   -1.250020
     13          1           0        0.000000    1.251202   -2.503922
     14          1           0        0.000000   -1.251202   -2.503922
     15          1           0       -0.000000   -3.396060   -1.250020
     16          1           0        0.000000   -3.396060    1.250020
     17          1           0       -0.000000   -1.251202    2.503922
     18          1           0       -0.000000    1.251202    2.503922
 ---------------------------------------------------------------------
 Rotational constants (GHZ):           3.0707951           1.2137606           0.8699175
 Standard basis: 3-21G (6D, 7F)
 There are    23 symmetry adapted cartesian basis functions of AG  symmetry.
 There are     4 symmetry adapted cartesian basis functions of B1G symmetry.
 There are     6 symmetry adapted cartesian basis functions of B2G symmetry.
 There are    20 symmetry adapted cartesian basis functions of B3G symmetry.
 There are     4 symmetry adapted cartesian basis functions of AU  symmetry.
 There are    23 symmetry adapted cartesian basis functions of B1U symmetry.
 There are    20 symmetry adapted cartesian basis functions of B2U symmetry.
 There are     6 symmetry adapted cartesian basis functions of B3U symmetry.
 There are    23 symmetry adapted basis functions of AG  symmetry.
 There are     4 symmetry adapted basis functions of B1G symmetry.
 There are     6 symmetry adapted basis functions of B2G symmetry.
 There are    20 symmetry adapted basis functions of B3G symmetry.
 There are     4 symmetry adapted basis functions of AU  symmetry.
 There are    23 symmetry adapted basis functions of B1U symmetry.
 There are    20 symmetry adapted basis functions of B2U symmetry.
 There are     6 symmetry adapted basis functions of B3U symmetry.
   106 basis functions,   174 primitive gaussians,   106 cartesian basis functions
    34 alpha electrons       34 beta electrons
       nuclear repulsion energy       454.1181964124 Hartrees.
 NAtoms=   18 NActive=   18 NUniq=    5 SFac= 4.00D+00 NAtFMM=   60 NAOKFM=F Big=F
 Integral buffers will be    131072 words long.
 Raffenetti 1 integral format.
 Two-electron integral symmetry is turned on.
 One-electron integrals computed using PRISM.
 NBasis=   106 RedAO= T EigKep=  1.19D-03  NBF=    23     4     6    20     4    23    20     6
 NBsUse=   106 1.00D-06 EigRej= -1.00D+00 NBFU=    23     4     6    20     4    23    20     6
 Initial guess from the checkpoint file:  "Naphthalene.chk"
 B after Tr=     0.000000    0.000000   -0.000000
         Rot=    1.000000   -0.000000    0.000000   -0.000000 Ang=   0.00 deg.
 Initial guess orbital symmetries:
       Occupied  (B1U) (AG) (B3G) (B2U) (B1U) (AG) (B3G) (B1U)
                 (B2U) (AG) (AG) (B2U) (B1U) (AG) (B3G) (B2U) (B1U)
                 (AG) (B3G) (B2U) (AG) (B1U) (AG) (B3G) (B2U) (B1U)
                 (B3U) (B2U) (B3G) (AG) (B1G) (B2G) (B3U) (AU)
       Virtual   (B1G) (B2G) (B3U) (AG) (B2U) (AU) (B1U) (AG) (B3G)
                 (B1U) (B2U) (B3G) (B2G) (B1U) (AG) (B1U) (B3G)
                 (B2U) (AG) (B2U) (B1U) (B3G) (B1U) (AG) (B3G)
                 (B2U) (B3U) (AG) (B1G) (B1U) (B2U) (B2G) (B3G)
                 (B3U) (AG) (AU) (B1U) (B2U) (B2G) (B1G) (B3U)
                 (AG) (AU) (B2G) (B3G) (B1U) (B2U) (AG) (B1U) (B3G)
                 (B2U) (B3G) (B1U) (AG) (B2U) (AG) (B3G) (B2U)
                 (B1U) (B3G) (B1U) (B3G) (B2U) (AG) (B1U) (AG)
                 (B3G) (B2U) (B1U) (AG) (B3G) (B1U)
 Keep R1 ints in memory in symmetry-blocked form, NReq=18426781.
 Requested convergence on RMS density matrix=1.00D-08 within 128 cycles.
 Requested convergence on MAX density matrix=1.00D-06.
 Requested convergence on             energy=1.00D-06.
 No special actions if energy rises.
 SCF Done:  E(RHF) =  -381.208784029     A.U. after    1 cycles
            NFock=  1  Conv=0.58D-09     -V/T= 2.0039
 ExpMin= 1.83D-01 ExpMax= 1.72D+02 ExpMxC= 1.72D+02 IAcc=3 IRadAn=         5 AccDes= 0.00D+00
 HarFok:  IExCor=  205 AccDes= 0.00D+00 IRadAn=         5 IDoV=-2 UseB2=F ITyADJ=14
 ICtDFT= 12500011 ScaDFX=  1.000000  1.000000  1.000000  1.000000
 Range of M.O.s used for correlation:    11   106
 NBasis=   106 NAE=    34 NBE=    34 NFC=    10 NFV=     0
 NROrb=     96 NOA=    24 NOB=    24 NVA=    72 NVB=    72
 Disk-based method using ON**2 memory for 24 occupieds at a time.
 Permanent disk used for amplitudes=     7426620 words.
 Estimated scratch disk usage=    15286976 words.
 Actual    scratch disk usage=    14539456 words.
 JobTyp=1 Pass  1:  I=  11 to  34 NPSUse=  8 ParTrn=T ParDer=T DoDerP=T.
 (rs|ai) integrals will be sorted in core.
 Spin components of T(2) and E(2):
     alpha-alpha T2 =       0.4983915069D-01 E2=     -0.1125772215D+00
     alpha-beta  T2 =       0.2704413954D+00 E2=     -0.6457824697D+00
     beta-beta   T2 =       0.4983915069D-01 E2=     -0.1125772215D+00
 ANorm=    0.1170521122D+01
 E2 =    -0.8709369126D+00 EUMP2 =    -0.38207972094155D+03
 G2DrvN: will do    19 centers at a time, making    1 passes.
 Calling FoFCou, ICntrl=  3107 FMM=F I1Cent=   0 AccDes= 0.00D+00.
 End of G2Drv F.D. properties file   721 does not exist.
 End of G2Drv F.D. properties file   722 does not exist.
 End of G2Drv F.D. properties file   788 does not exist.
          IDoAtm=111111111111111111
          Differentiating once with respect to electric field.
                with respect to dipole field.
          Differentiating once with respect to nuclear coordinates.
 Keep R1 ints in memory in symmetry-blocked form, NReq=18428931.
          There are    57 degrees of freedom in the 1st order CPHF.  IDoFFX=6 NUNeed=    57.
     54 vectors produced by pass  0 Test12= 4.29D-15 1.75D-09 XBig12= 6.47D+01 5.08D+00.
 AX will form    54 AO Fock derivatives at one time.
     54 vectors produced by pass  1 Test12= 4.29D-15 1.75D-09 XBig12= 2.18D+00 3.42D-01.
     54 vectors produced by pass  2 Test12= 4.29D-15 1.75D-09 XBig12= 2.75D-02 4.50D-02.
     54 vectors produced by pass  3 Test12= 4.29D-15 1.75D-09 XBig12= 2.11D-04 4.03D-03.
     54 vectors produced by pass  4 Test12= 4.29D-15 1.75D-09 XBig12= 1.62D-06 2.78D-04.
     54 vectors produced by pass  5 Test12= 4.29D-15 1.75D-09 XBig12= 7.98D-09 1.77D-05.
     44 vectors produced by pass  6 Test12= 4.29D-15 1.75D-09 XBig12= 4.65D-11 1.24D-06.
      7 vectors produced by pass  7 Test12= 4.29D-15 1.75D-09 XBig12= 1.97D-13 7.75D-08.
      2 vectors produced by pass  8 Test12= 4.29D-15 1.75D-09 XBig12= 8.19D-16 4.67D-09.
 InvSVY:  IOpt=1 It=  1 EMax= 1.78D-15
 Solved reduced A of dimension   377 with    57 vectors.
 End of Minotr F.D. properties file   721 does not exist.
 End of Minotr F.D. properties file   722 does not exist.
 End of Minotr F.D. properties file   788 does not exist.
 MDV=  1073741824.
 Form MO integral derivatives with frozen-active canonical formalism.
 Discarding MO integrals.
 Reordered first order wavefunction length =     11985408
 In DefCFB: NBatch=  1 ICI= 34 ICA= 72 LFMax= 36
            Large arrays: LIAPS=   110022912 LIARS=    16347744 words.
 Semi-Direct transformation.
 ModeAB=           4 MOrb=            34 LenV=    1073402900
 LASXX=     15214677 LTotXX=    15214677 LenRXX=    31014970
 LTotAB=    15800293 MaxLAS=     5420416 LenRXY=           0
 NonZer=    46229647 LenScr=    70090752 LnRSAI=     5420416
 LnScr1=     8865792 LExtra=           0 Total=    115391930
 MaxDsk=          -1 SrtSym=           T ITran=            4
 JobTyp=0 Pass  1:  I=   1 to  34.
 (rs|ai) integrals will be sorted in core.
 Spin components of T(2) and E(2):
     alpha-alpha T2 =       0.4983915069D-01 E2=     -0.1125772215D+00
     alpha-beta  T2 =       0.2704413954D+00 E2=     -0.6457824697D+00
     beta-beta   T2 =       0.4983915069D-01 E2=     -0.1125772215D+00
 ANorm=    0.1655366846D+01
 E2 =    -0.8709369126D+00 EUMP2 =    -0.38207972094155D+03
          IDoAtm=111111111111111111
          Differentiating once with respect to electric field.
                with respect to dipole field.
          Differentiating once with respect to nuclear coordinates.
          There are     1 degrees of freedom in the 1st order CPHF.  IDoFFX=0 NUNeed=     1.
 LinEq1:  Iter=  0 NonCon=     1 RMS=4.55D-03 Max=9.36D-02 NDo=     1
 LinEq1:  Iter=  1 NonCon=     1 RMS=1.12D-03 Max=1.53D-02 NDo=     1
 LinEq1:  Iter=  2 NonCon=     1 RMS=2.22D-04 Max=6.85D-03 NDo=     1
 LinEq1:  Iter=  3 NonCon=     1 RMS=8.77D-05 Max=3.01D-03 NDo=     1
 LinEq1:  Iter=  4 NonCon=     1 RMS=3.34D-05 Max=8.19D-04 NDo=     1
 LinEq1:  Iter=  5 NonCon=     1 RMS=8.37D-06 Max=1.29D-04 NDo=     1
 LinEq1:  Iter=  6 NonCon=     1 RMS=2.48D-06 Max=2.95D-05 NDo=     1
 LinEq1:  Iter=  7 NonCon=     1 RMS=2.81D-07 Max=3.58D-06 NDo=     1
 LinEq1:  Iter=  8 NonCon=     1 RMS=2.45D-08 Max=2.67D-07 NDo=     1
 LinEq1:  Iter=  9 NonCon=     1 RMS=3.57D-09 Max=3.57D-08 NDo=     1
 LinEq1:  Iter= 10 NonCon=     1 RMS=3.22D-10 Max=4.11D-09 NDo=     1
 LinEq1:  Iter= 11 NonCon=     0 RMS=3.92D-11 Max=5.97D-10 NDo=     1
 Linear equations converged to 1.000D-10 1.000D-09 after    11 iterations.
 End of Minotr F.D. properties file   721 does not exist.
 End of Minotr F.D. properties file   722 does not exist.
 End of Minotr F.D. properties file   788 does not exist.
 Symmetrizing basis deriv contribution to polar:
 IMax=3 JMax=2 DiffMx= 0.00D+00
 G2DrvN: will do    19 centers at a time, making    1 passes.
 Calling FoFCou, ICntrl=  3107 FMM=F I1Cent=   0 AccDes= 0.00D+00.
 End of G2Drv F.D. properties file   721 does not exist.
 End of G2Drv F.D. properties file   722 does not exist.
 End of G2Drv F.D. properties file   788 does not exist.
 R2 and R3 integrals will be kept in memory, NReq=    32965912.
 DD1Dir will call FoFMem   1 times, MxPair=      1190
 NAB=   595 NAA=     0 NBB=     0.
 Discarding MO integrals.

 **********************************************************************

            Population analysis using the SCF Density.

 **********************************************************************

 Orbital symmetries:
       Occupied  (B1U) (AG) (B3G) (B2U) (B1U) (AG) (B3G) (B1U)
                 (B2U) (AG) (AG) (B2U) (B1U) (AG) (B3G) (B2U) (B1U)
                 (AG) (B3G) (B2U) (AG) (B1U) (AG) (B3G) (B2U) (B1U)
                 (B3U) (B2U) (B3G) (AG) (B1G) (B2G) (B3U) (AU)
       Virtual   (B1G) (B2G) (B3U) (AG) (B2U) (AU) (B1U) (AG) (B3G)
                 (B1U) (B2U) (B3G) (B2G) (B1U) (AG) (B1U) (B3G)
                 (B2U) (AG) (B2U) (B1U) (B3G) (B1U) (AG) (B3G)
                 (B2U) (B3U) (AG) (B1G) (B1U) (B2U) (B2G) (B3G)
                 (B3U) (AG) (AU) (B1U) (B2U) (B2G) (B1G) (B3U)
                 (AG) (AU) (B2G) (B3G) (B1U) (B2U) (AG) (B1U) (B3G)
                 (B2U) (B3G) (B1U) (AG) (B2U) (AG) (B3G) (B2U)
                 (B1U) (B3G) (B1U) (B3G) (B2U) (AG) (B1U) (AG)
                 (B3G) (B2U) (B1U) (AG) (B3G) (B1U)
 The electronic state is 1-AG.
 Alpha  occ. eigenvalues --  -11.19887 -11.19842 -11.18844 -11.18841 -11.18838
 Alpha  occ. eigenvalues --  -11.18816 -11.18740 -11.18734 -11.18685 -11.18677
 Alpha  occ. eigenvalues --   -1.16930  -1.10496  -1.04488  -1.00318  -0.97846
 Alpha  occ. eigenvalues --   -0.85124  -0.83479  -0.81064  -0.70498  -0.70134
 Alpha  occ. eigenvalues --   -0.67867  -0.62262  -0.61220  -0.58557  -0.58441
 Alpha  occ. eigenvalues --   -0.56435  -0.53235  -0.52296  -0.48565  -0.47376
 Alpha  occ. eigenvalues --   -0.44693  -0.38566  -0.32020  -0.28850
 Alpha virt. eigenvalues --    0.09251   0.12700   0.19102   0.25661   0.27814
 Alpha virt. eigenvalues --    0.28204   0.29015   0.34467   0.34731   0.35316
 Alpha virt. eigenvalues --    0.35835   0.38195   0.41474   0.43012   0.46782
 Alpha virt. eigenvalues --    0.50015   0.50373   0.52707   0.54121   0.57289
 Alpha virt. eigenvalues --    0.73008   0.75391   0.80423   0.85183   0.85518
 Alpha virt. eigenvalues --    0.89944   0.94336   0.97822   0.98209   0.98254
 Alpha virt. eigenvalues --    0.99087   1.02157   1.02735   1.05601   1.06654
 Alpha virt. eigenvalues --    1.07121   1.07701   1.10185   1.10704   1.12331
 Alpha virt. eigenvalues --    1.13313   1.13660   1.17901   1.26142   1.26888
 Alpha virt. eigenvalues --    1.26898   1.31145   1.31177   1.33186   1.35070
 Alpha virt. eigenvalues --    1.45608   1.45765   1.46286   1.52438   1.59385
 Alpha virt. eigenvalues --    1.59530   1.60604   1.69347   1.69844   1.69927
 Alpha virt. eigenvalues --    1.77796   1.78206   1.78811   1.78811   1.84589
 Alpha virt. eigenvalues --    1.86911   2.05255   2.17627   2.19197   2.21674
 Alpha virt. eigenvalues --    2.70164   2.76456
          Condensed to atoms (all electrons):
               1          2          3          4          5          6
     1  C    5.153780   0.436147  -0.106061   0.000782   0.000330  -0.000010
     2  C    0.436147   5.153780   0.520501  -0.107282   0.000948  -0.000045
     3  C   -0.106061   0.520501   5.114172   0.415186  -0.048614   0.000948
     4  C    0.000782  -0.107282   0.415186   5.208538   0.415186  -0.107282
     5  C    0.000330   0.000948  -0.048614   0.415186   5.114172   0.520501
     6  C   -0.000010  -0.000045   0.000948  -0.107282   0.520501   5.153780
     7  C   -0.000045  -0.000010   0.000330   0.000782  -0.106061   0.436147
     8  C    0.000948   0.000330   0.001478  -0.061555  -0.004844  -0.106061
     9  C   -0.107282   0.000782  -0.061555   0.451570  -0.061555   0.000782
    10  C    0.520501  -0.106061  -0.004844  -0.061555   0.001478   0.000330
    11  H    0.394814  -0.031272   0.002115  -0.000097   0.000000  -0.000000
    12  H   -0.031272   0.394814  -0.032106   0.002419  -0.000039   0.000000
    13  H    0.001958  -0.027613   0.397396  -0.039071   0.001533   0.000036
    14  H    0.000006   0.000036   0.001533  -0.039071   0.397396  -0.027613
    15  H   -0.000000   0.000000  -0.000039   0.002419  -0.032106   0.394814
    16  H    0.000000  -0.000000   0.000000  -0.000097   0.002115  -0.031272
    17  H    0.000036   0.000006  -0.000051   0.001788  -0.000050   0.001958
    18  H   -0.027613   0.001958  -0.000050   0.001788  -0.000051   0.000006
               7          8          9         10         11         12
     1  C   -0.000045   0.000948  -0.107282   0.520501   0.394814  -0.031272
     2  C   -0.000010   0.000330   0.000782  -0.106061  -0.031272   0.394814
     3  C    0.000330   0.001478  -0.061555  -0.004844   0.002115  -0.032106
     4  C    0.000782  -0.061555   0.451570  -0.061555  -0.000097   0.002419
     5  C   -0.106061  -0.004844  -0.061555   0.001478   0.000000  -0.000039
     6  C    0.436147  -0.106061   0.000782   0.000330  -0.000000   0.000000
     7  C    5.153780   0.520501  -0.107282   0.000948   0.000000  -0.000000
     8  C    0.520501   5.114172   0.415186  -0.048614  -0.000039   0.000000
     9  C   -0.107282   0.415186   5.208538   0.415186   0.002419  -0.000097
    10  C    0.000948  -0.048614   0.415186   5.114172  -0.032106   0.002115
    11  H    0.000000  -0.000039   0.002419  -0.032106   0.426120  -0.000952
    12  H   -0.000000   0.000000  -0.000097   0.002115  -0.000952   0.426120
    13  H    0.000006  -0.000051   0.001788  -0.000050  -0.000031  -0.001266
    14  H    0.001958  -0.000050   0.001788  -0.000051  -0.000000  -0.000001
    15  H   -0.031272   0.002115  -0.000097   0.000000   0.000000  -0.000000
    16  H    0.394814  -0.032106   0.002419  -0.000039  -0.000000   0.000000
    17  H   -0.027613   0.397396  -0.039071   0.001533  -0.000001  -0.000000
    18  H    0.000036   0.001533  -0.039071   0.397396  -0.001266  -0.000031
              13         14         15         16         17         18
     1  C    0.001958   0.000006  -0.000000   0.000000   0.000036  -0.027613
     2  C   -0.027613   0.000036   0.000000  -0.000000   0.000006   0.001958
     3  C    0.397396   0.001533  -0.000039   0.000000  -0.000051  -0.000050
     4  C   -0.039071  -0.039071   0.002419  -0.000097   0.001788   0.001788
     5  C    0.001533   0.397396  -0.032106   0.002115  -0.000050  -0.000051
     6  C    0.000036  -0.027613   0.394814  -0.031272   0.001958   0.000006
     7  C    0.000006   0.001958  -0.031272   0.394814  -0.027613   0.000036
     8  C   -0.000051  -0.000050   0.002115  -0.032106   0.397396   0.001533
     9  C    0.001788   0.001788  -0.000097   0.002419  -0.039071  -0.039071
    10  C   -0.000050  -0.000051   0.000000  -0.000039   0.001533   0.397396
    11  H   -0.000031  -0.000000   0.000000  -0.000000  -0.000001  -0.001266
    12  H   -0.001266  -0.000001  -0.000000   0.000000  -0.000000  -0.000031
    13  H    0.424332   0.001748  -0.000001  -0.000000   0.000000   0.000002
    14  H    0.001748   0.424332  -0.001266  -0.000031   0.000002   0.000000
    15  H   -0.000001  -0.001266   0.426120  -0.000952  -0.000031  -0.000000
    16  H   -0.000000  -0.000031  -0.000952   0.426120  -0.001266  -0.000001
    17  H    0.000000   0.000002  -0.000031  -0.001266   0.424332   0.001748
    18  H    0.000002   0.000000  -0.000000  -0.000001   0.001748   0.424332
 Mulliken charges:
               1
     1  C   -0.237018
     2  C   -0.237018
     3  C   -0.200338
     4  C   -0.084446
     5  C   -0.200338
     6  C   -0.237018
     7  C   -0.237018
     8  C   -0.200338
     9  C   -0.084446
    10  C   -0.200338
    11  H    0.240295
    12  H    0.240295
    13  H    0.239284
    14  H    0.239284
    15  H    0.240295
    16  H    0.240295
    17  H    0.239284
    18  H    0.239284
 Sum of Mulliken charges =  -0.00000
 Mulliken charges with hydrogens summed into heavy atoms:
               1
     1  C    0.003277
     2  C    0.003277
     3  C    0.038946
     4  C   -0.084446
     5  C    0.038946
     6  C    0.003277
     7  C    0.003277
     8  C    0.038946
     9  C   -0.084446
    10  C    0.038946
 APT charges:
               1
     1  C   -0.044749
     2  C   -0.044749
     3  C   -0.012606
     4  C   -0.025871
     5  C   -0.012606
     6  C   -0.044749
     7  C   -0.044749
     8  C   -0.012606
     9  C   -0.025871
    10  C   -0.012606
    11  H    0.034554
    12  H    0.034554
    13  H    0.035736
    14  H    0.035736
    15  H    0.034554
    16  H    0.034554
    17  H    0.035736
    18  H    0.035736
 Sum of APT charges =  -0.00000
 APT charges with hydrogens summed into heavy atoms:
               1
     1  C   -0.010195
     2  C   -0.010195
     3  C    0.023130
     4  C   -0.025871
     5  C    0.023130
     6  C   -0.010195
     7  C   -0.010195
     8  C    0.023130
     9  C   -0.025871
    10  C    0.023130
 Electronic spatial extent (au):  <R**2>=           1310.5559
 Charge=             -0.0000 electrons
 Dipole moment (field-independent basis, Debye):
    X=             -0.0000    Y=              0.0000    Z=             -0.0000  Tot=              0.0000
 Quadrupole moment (field-independent basis, Debye-Ang):
   XX=            -67.0572   YY=            -50.3833   ZZ=            -50.5927
   XY=              0.0000   XZ=             -0.0000   YZ=              0.0000
 Traceless Quadrupole moment (field-independent basis, Debye-Ang):
   XX=            -11.0462   YY=              5.6278   ZZ=              5.4183
   XY=              0.0000   XZ=             -0.0000   YZ=              0.0000
 Octapole moment (field-independent basis, Debye-Ang**2):
  XXX=              0.0000  YYY=              0.0000  ZZZ=              0.0000  XYY=              0.0000
  XXY=              0.0000  XXZ=              0.0000  XZZ=             -0.0000  YZZ=              0.0000
  YYZ=             -0.0000  XYZ=             -0.0000
 Hexadecapole moment (field-independent basis, Debye-Ang**3):
 XXXX=            -72.2066 YYYY=          -1071.1520 ZZZZ=           -465.6432 XXXY=              0.0000
 XXXZ=              0.0000 YYYX=              0.0000 YYYZ=             -0.0000 ZZZX=              0.0000
 ZZZY=             -0.0000 XXYY=           -247.6970 XXZZ=           -113.6124 YYZZ=           -262.4369
 XXYZ=             -0.0000 YYXZ=              0.0000 ZZXY=              0.0000
 N-N= 4.541181964124D+02 E-N=-1.793974776846D+03  KE= 3.797340984083D+02
 Symmetry AG   KE= 1.116939732841D+02
 Symmetry B1G  KE= 1.843816433003D+00
 Symmetry B2G  KE= 1.993388887052D+00
 Symmetry B3G  KE= 7.494428243936D+01
 Symmetry AU   KE= 2.165723039539D+00
 Symmetry B1U  KE= 1.063533609167D+02
 Symmetry B2U  KE= 7.693440985811D+01
 Symmetry B3U  KE= 3.805143550433D+00
  Exact polarizability:      23.046      -0.000     141.871      -0.000       0.000     102.773
 Approx polarizability:      22.809      -0.000     137.606      -0.000       0.000     108.624
 Calling FoFJK, ICntrl=  10100127 FMM=F ISym2X=1 I1Cent= 0 IOpClX= 0 NMat=1 NMatS=1 NMatT=0.
 Full mass-weighted force constant matrix:
 Low frequencies ---   -2.9701   -1.7567   -0.9202   -0.0005    0.0004    0.0004
 Low frequencies ---  162.8024  183.4495  371.6783
 Diagonal vibrational polarizability:
       11.8900990       0.5895482       0.6259839
 Harmonic frequencies (cm**-1), IR intensities (KM/Mole), Raman scattering
 activities (A**4/AMU), depolarization ratios for plane and unpolarized
 incident light, reduced masses (AMU), force constants (mDyne/A),
 and normal coordinates:
                           1         2         3         4         5
                          B3U       AU        B1U       B1G       B2G
       Frequencies ---   162.8024  183.4495  371.6783  380.4111  439.0293
    Reduced masses ---     4.2730    3.3863    3.8426    3.3220    3.9286
   Force constants ---     0.0667    0.0671    0.3128    0.2832    0.4461
    IR Intensities ---     2.9296    0.0000    0.9425    0.0000    0.0000
 Coord Atom Element:
   1     1     6         -0.18952  -0.14486  -0.00000  -0.10233   0.14030
   2     1     6         -0.00000   0.00000   0.05113  -0.00000  -0.00000
   3     1     6         -0.00000   0.00000  -0.14128   0.00000  -0.00000
   1     2     6         -0.18952   0.14486  -0.00000  -0.10233  -0.14030
   2     2     6          0.00000  -0.00000  -0.05113   0.00000   0.00000
   3     2     6         -0.00000  -0.00000  -0.14128   0.00000   0.00000
   1     3     6          0.09375   0.18197   0.00000   0.20533   0.02503
   2     3     6          0.00000  -0.00000  -0.12883   0.00000   0.00000
   3     3     6          0.00000  -0.00000   0.05057  -0.00000  -0.00000
   1     4     6          0.24312  -0.00000   0.00000  -0.00000   0.30371
   2     4     6          0.00000  -0.00000   0.00000   0.00000   0.00000
   3     4     6          0.00000  -0.00000   0.21328  -0.00000  -0.00000
   1     5     6          0.09375  -0.18197  -0.00000  -0.20533   0.02503
   2     5     6          0.00000  -0.00000   0.12883  -0.00000   0.00000
   3     5     6          0.00000  -0.00000   0.05057  -0.00000  -0.00000
   1     6     6         -0.18952  -0.14486   0.00000   0.10233  -0.14030
   2     6     6          0.00000   0.00000   0.05113  -0.00000   0.00000
   3     6     6          0.00000   0.00000  -0.14128   0.00000   0.00000
   1     7     6         -0.18952   0.14486   0.00000   0.10233   0.14030
   2     7     6         -0.00000   0.00000  -0.05113   0.00000  -0.00000
   3     7     6          0.00000   0.00000  -0.14128   0.00000   0.00000
   1     8     6          0.09375   0.18197  -0.00000  -0.20533  -0.02503
   2     8     6         -0.00000   0.00000  -0.12883   0.00000  -0.00000
   3     8     6         -0.00000   0.00000   0.05057  -0.00000   0.00000
   1     9     6          0.24312  -0.00000   0.00000   0.00000  -0.30371
   2     9     6         -0.00000  -0.00000  -0.00000   0.00000  -0.00000
   3     9     6          0.00000  -0.00000   0.21328  -0.00000   0.00000
   1    10     6          0.09375  -0.18197   0.00000   0.20533  -0.02503
   2    10     6          0.00000  -0.00000   0.12883  -0.00000  -0.00000
   3    10     6          0.00000   0.00000   0.05057  -0.00000  -0.00000
   1    11     1         -0.40710  -0.29364  -0.00000  -0.17419   0.42845
   2    11     1         -0.00000   0.00000   0.10898  -0.00000  -0.00000
   3    11     1         -0.00000   0.00000  -0.24134   0.00000   0.00000
   1    12     1         -0.40710   0.29364  -0.00000  -0.17419  -0.42845
   2    12     1         -0.00000   0.00000  -0.10898   0.00000   0.00000
   3    12     1          0.00000   0.00000  -0.24134   0.00000   0.00000
   1    13     1          0.10004   0.33118   0.00000   0.40868   0.00178
   2    13     1         -0.00000   0.00000  -0.33578   0.00000   0.00000
   3    13     1          0.00000  -0.00000   0.05157  -0.00000  -0.00000
   1    14     1          0.10004  -0.33118  -0.00000  -0.40868   0.00178
   2    14     1          0.00000  -0.00000   0.33578  -0.00000  -0.00000
   3    14     1         -0.00000   0.00000   0.05157  -0.00000  -0.00000
   1    15     1         -0.40710  -0.29364   0.00000   0.17419  -0.42845
   2    15     1          0.00000   0.00000   0.10898  -0.00000   0.00000
   3    15     1         -0.00000   0.00000  -0.24134   0.00000   0.00000
   1    16     1         -0.40710   0.29364   0.00000   0.17419   0.42845
   2    16     1         -0.00000  -0.00000  -0.10898   0.00000  -0.00000
   3    16     1         -0.00000  -0.00000  -0.24134   0.00000   0.00000
   1    17     1          0.10004   0.33118  -0.00000  -0.40868  -0.00178
   2    17     1         -0.00000   0.00000  -0.33578   0.00000   0.00000
   3    17     1         -0.00000   0.00000   0.05157  -0.00000   0.00000
   1    18     1          0.10004  -0.33118   0.00000   0.40868  -0.00178
   2    18     1          0.00000  -0.00000   0.33578  -0.00000  -0.00000
   3    18     1          0.00000   0.00000   0.05157  -0.00000  -0.00000
                           6         7         8         9        10
                          B3U       AG        B3G       B2G       AU
       Frequencies ---   456.9152  526.5777  532.1542  553.7320  591.3519
    Reduced masses ---     3.0507    6.5826    7.0864   10.0647    5.7513
   Force constants ---     0.3753    1.0754    1.1824    1.8182    1.1850
    IR Intensities ---    16.7472    0.0000    0.0000    0.0000    0.0000
 Coord Atom Element:
   1     1     6          0.06605   0.00000  -0.00000  -0.28387   0.24299
   2     1     6          0.00000   0.29228  -0.18881   0.00000   0.00000
   3     1     6          0.00000  -0.00039  -0.14552   0.00000  -0.00000
   1     2     6          0.06605  -0.00000   0.00000   0.28387  -0.24299
   2     2     6          0.00000   0.29228   0.18881   0.00000   0.00000
   3     2     6          0.00000   0.00039  -0.14552   0.00000   0.00000
   1     3     6         -0.13361   0.00000  -0.00000  -0.25104   0.22099
   2     3     6          0.00000   0.17647   0.20542  -0.00000   0.00000
   3     3     6         -0.00000   0.10096  -0.14324   0.00000   0.00000
   1     4     6          0.22022  -0.00000   0.00000   0.35322   0.00000
   2     4     6         -0.00000  -0.00000   0.19344  -0.00000  -0.00000
   3     4     6         -0.00000   0.00752   0.00000   0.00000   0.00000
   1     5     6         -0.13361   0.00000  -0.00000  -0.25104  -0.22099
   2     5     6         -0.00000  -0.17647   0.20542  -0.00000  -0.00000
   3     5     6         -0.00000   0.10096   0.14324  -0.00000   0.00000
   1     6     6          0.06605  -0.00000   0.00000   0.28387   0.24299
   2     6     6         -0.00000  -0.29228   0.18881  -0.00000   0.00000
   3     6     6          0.00000   0.00039   0.14552  -0.00000   0.00000
   1     7     6          0.06605   0.00000  -0.00000  -0.28387  -0.24299
   2     7     6         -0.00000  -0.29228  -0.18881  -0.00000   0.00000
   3     7     6          0.00000  -0.00039   0.14552  -0.00000  -0.00000
   1     8     6         -0.13361  -0.00000   0.00000   0.25104   0.22099
   2     8     6          0.00000  -0.17647  -0.20542   0.00000  -0.00000
   3     8     6         -0.00000  -0.10096   0.14324  -0.00000  -0.00000
   1     9     6          0.22022   0.00000  -0.00000  -0.35322  -0.00000
   2     9     6          0.00000   0.00000  -0.19344   0.00000  -0.00000
   3     9     6         -0.00000  -0.00752  -0.00000   0.00000  -0.00000
   1    10     6         -0.13361  -0.00000   0.00000   0.25104  -0.22099
   2    10     6          0.00000   0.17647  -0.20542   0.00000   0.00000
   3    10     6         -0.00000  -0.10096  -0.14324   0.00000  -0.00000
   1    11     1         -0.05944   0.00000  -0.00000  -0.20931   0.35288
   2    11     1          0.00000   0.23897  -0.29023   0.00000   0.00000
   3    11     1          0.00000   0.09994   0.03370   0.00000  -0.00000
   1    12     1         -0.05944  -0.00000   0.00000   0.20931  -0.35288
   2    12     1          0.00000   0.23897   0.29023  -0.00000  -0.00000
   3    12     1          0.00000  -0.09994   0.03370  -0.00000  -0.00000
   1    13     1         -0.44722   0.00000  -0.00000   0.01436   0.13264
   2    13     1          0.00000   0.21590   0.07589   0.00000   0.00000
   3    13     1         -0.00000   0.09749  -0.14360   0.00000   0.00000
   1    14     1         -0.44722   0.00000  -0.00000   0.01436  -0.13264
   2    14     1         -0.00000  -0.21590   0.07589  -0.00000  -0.00000
   3    14     1          0.00000   0.09749   0.14360  -0.00000   0.00000
   1    15     1         -0.05944  -0.00000   0.00000   0.20931   0.35288
   2    15     1         -0.00000  -0.23897   0.29023  -0.00000   0.00000
   3    15     1          0.00000  -0.09994  -0.03370  -0.00000   0.00000
   1    16     1         -0.05944   0.00000  -0.00000  -0.20931  -0.35288
   2    16     1          0.00000  -0.23897  -0.29023   0.00000  -0.00000
   3    16     1          0.00000   0.09994  -0.03370   0.00000  -0.00000
   1    17     1         -0.44722   0.00000  -0.00000  -0.01436   0.13264
   2    17     1          0.00000  -0.21590  -0.07589  -0.00000  -0.00000
   3    17     1         -0.00000  -0.09749   0.14360  -0.00000  -0.00000
   1    18     1         -0.44722   0.00000  -0.00000  -0.01436  -0.13264
   2    18     1         -0.00000   0.21590  -0.07589   0.00000   0.00000
   3    18     1          0.00000  -0.09749  -0.14360   0.00000  -0.00000
                          11        12        13        14        15
                          B2U       B1G       AG        B3U       AU
       Frequencies ---   653.3350  704.8208  761.6029  763.1645  813.1268
    Reduced masses ---     6.5395    1.1564    4.8913    1.3459    1.2658
   Force constants ---     1.6446    0.3385    1.6716    0.4618    0.4931
    IR Intensities ---     3.6992    0.0000    0.0000  146.1930    0.0000
 Coord Atom Element:
   1     1     6         -0.00000  -0.03026  -0.00000  -0.03464   0.05468
   2     1     6          0.13303   0.00000  -0.01255   0.00000  -0.00000
   3     1     6         -0.03931   0.00000  -0.02236   0.00000  -0.00000
   1     2     6          0.00000  -0.03026   0.00000  -0.03464  -0.05468
   2     2     6          0.13303  -0.00000  -0.01255   0.00000   0.00000
   3     2     6          0.03931   0.00000   0.02236  -0.00000  -0.00000
   1     3     6         -0.00000  -0.04964  -0.00000  -0.06095  -0.05364
   2     3     6         -0.04121  -0.00000  -0.10653   0.00000   0.00000
   3     3     6          0.29858  -0.00000   0.25045  -0.00000   0.00000
   1     4     6         -0.00000  -0.00000   0.00000   0.07448  -0.00000
   2     4     6         -0.17732  -0.00000   0.00000  -0.00000  -0.00000
   3     4     6         -0.00000  -0.00000   0.16488  -0.00000   0.00000
   1     5     6          0.00000   0.04964   0.00000  -0.06095   0.05364
   2     5     6         -0.04121  -0.00000   0.10653  -0.00000  -0.00000
   3     5     6         -0.29858  -0.00000   0.25045  -0.00000  -0.00000
   1     6     6          0.00000   0.03026  -0.00000  -0.03464   0.05468
   2     6     6          0.13303   0.00000   0.01255   0.00000  -0.00000
   3     6     6         -0.03931   0.00000   0.02236  -0.00000  -0.00000
   1     7     6         -0.00000   0.03026  -0.00000  -0.03464  -0.05468
   2     7     6          0.13303  -0.00000   0.01255  -0.00000   0.00000
   3     7     6          0.03931  -0.00000  -0.02236   0.00000  -0.00000
   1     8     6         -0.00000   0.04964  -0.00000  -0.06095  -0.05364
   2     8     6         -0.04121  -0.00000   0.10653  -0.00000   0.00000
   3     8     6          0.29858   0.00000  -0.25045   0.00000   0.00000
   1     9     6          0.00000   0.00000   0.00000   0.07448   0.00000
   2     9     6         -0.17732   0.00000   0.00000  -0.00000  -0.00000
   3     9     6         -0.00000   0.00000  -0.16488   0.00000   0.00000
   1    10     6          0.00000  -0.04964  -0.00000  -0.06095   0.05364
   2    10     6         -0.04121   0.00000  -0.10653   0.00000  -0.00000
   3    10     6         -0.29858   0.00000  -0.25045   0.00000   0.00000
   1    11     1         -0.00000   0.34742   0.00000   0.36958  -0.21548
   2    11     1          0.00557  -0.00000  -0.11437  -0.00000  -0.00000
   3    11     1          0.18239   0.00000   0.14519   0.00000  -0.00000
   1    12     1          0.00000   0.34742   0.00000   0.36958   0.21548
   2    12     1          0.00557   0.00000  -0.11437   0.00000   0.00000
   3    12     1         -0.18239  -0.00000  -0.14519  -0.00000   0.00000
   1    13     1         -0.00000   0.35486   0.00000   0.32514   0.44464
   2    13     1         -0.04320  -0.00000  -0.24708  -0.00000  -0.00000
   3    13     1          0.29837  -0.00000   0.25781  -0.00000  -0.00000
   1    14     1         -0.00000  -0.35486  -0.00000   0.32514  -0.44464
   2    14     1         -0.04320   0.00000   0.24708  -0.00000   0.00000
   3    14     1         -0.29837   0.00000   0.25781  -0.00000   0.00000
   1    15     1          0.00000  -0.34742  -0.00000   0.36958  -0.21548
   2    15     1          0.00557   0.00000   0.11437  -0.00000  -0.00000
   3    15     1          0.18239   0.00000  -0.14519   0.00000   0.00000
   1    16     1         -0.00000  -0.34742   0.00000   0.36958   0.21548
   2    16     1          0.00557  -0.00000   0.11437  -0.00000   0.00000
   3    16     1         -0.18239  -0.00000   0.14519  -0.00000  -0.00000
   1    17     1         -0.00000  -0.35486   0.00000   0.32514   0.44464
   2    17     1         -0.04320  -0.00000   0.24708  -0.00000  -0.00000
   3    17     1          0.29837   0.00000  -0.25781   0.00000  -0.00000
   1    18     1          0.00000   0.35486   0.00000   0.32514  -0.44464
   2    18     1         -0.04320  -0.00000  -0.24708   0.00000   0.00000
   3    18     1         -0.29837  -0.00000  -0.25781   0.00000   0.00000
                          16        17        18        19        20
                          B2G       B1U       B1G       AU        B3U
       Frequencies ---   822.4940  823.5911  900.2875  900.5384  902.3001
    Reduced masses ---     1.2787    5.5235    1.2710    1.1212    1.2673
   Force constants ---     0.5097    2.2074    0.6069    0.5357    0.6079
    IR Intensities ---     0.0000    0.0046    0.0000    0.0000    0.0563
 Coord Atom Element:
   1     1     6          0.05895   0.00000  -0.05607  -0.04745  -0.05396
   2     1     6         -0.00000   0.24916   0.00000   0.00000  -0.00000
   3     1     6         -0.00000   0.11396   0.00000   0.00000   0.00000
   1     2     6         -0.05895  -0.00000  -0.05607   0.04745  -0.05396
   2     2     6          0.00000  -0.24916  -0.00000   0.00000  -0.00000
   3     2     6         -0.00000   0.11396  -0.00000  -0.00000  -0.00000
   1     3     6         -0.05183  -0.00000   0.05330  -0.01806   0.05464
   2     3     6          0.00000  -0.13033   0.00000  -0.00000   0.00000
   3     3     6          0.00000  -0.03525  -0.00000  -0.00000  -0.00000
   1     4     6         -0.00107   0.00000  -0.00000   0.00000  -0.00290
   2     4     6          0.00000  -0.00000  -0.00000  -0.00000  -0.00000
   3     4     6          0.00000  -0.13716   0.00000  -0.00000   0.00000
   1     5     6         -0.05183  -0.00000  -0.05330   0.01806   0.05464
   2     5     6         -0.00000   0.13033   0.00000   0.00000  -0.00000
   3     5     6          0.00000  -0.03525   0.00000  -0.00000  -0.00000
   1     6     6         -0.05895  -0.00000   0.05607  -0.04745  -0.05396
   2     6     6         -0.00000   0.24916   0.00000  -0.00000  -0.00000
   3     6     6         -0.00000   0.11396  -0.00000  -0.00000   0.00000
   1     7     6          0.05895   0.00000   0.05607   0.04745  -0.05396
   2     7     6          0.00000  -0.24916  -0.00000  -0.00000   0.00000
   3     7     6         -0.00000   0.11396  -0.00000   0.00000   0.00000
   1     8     6          0.05183   0.00000  -0.05330  -0.01806   0.05464
   2     8     6          0.00000  -0.13033   0.00000   0.00000  -0.00000
   3     8     6         -0.00000  -0.03525   0.00000   0.00000  -0.00000
   1     9     6          0.00107  -0.00000   0.00000  -0.00000  -0.00290
   2     9     6          0.00000  -0.00000  -0.00000  -0.00000   0.00000
   3     9     6          0.00000  -0.13716   0.00000  -0.00000   0.00000
   1    10     6          0.05183   0.00000   0.05330   0.01806   0.05464
   2    10     6         -0.00000   0.13033   0.00000   0.00000   0.00000
   3    10     6         -0.00000  -0.03525  -0.00000   0.00000  -0.00000
   1    11     1         -0.19116  -0.00000   0.36853   0.42914   0.35388
   2    11     1         -0.00000   0.36544  -0.00000  -0.00000  -0.00000
   3    11     1         -0.00000  -0.08742   0.00000   0.00000   0.00000
   1    12     1          0.19116   0.00000   0.36853  -0.42914   0.35388
   2    12     1          0.00000  -0.36544   0.00000  -0.00000   0.00000
   3    12     1          0.00000  -0.08742  -0.00000  -0.00000  -0.00000
   1    13     1          0.45530   0.00000  -0.32894   0.25151  -0.34478
   2    13     1         -0.00000   0.07071   0.00000  -0.00000   0.00000
   3    13     1          0.00000  -0.03332  -0.00000  -0.00000   0.00000
   1    14     1          0.45530   0.00000   0.32894  -0.25151  -0.34478
   2    14     1          0.00000  -0.07071  -0.00000   0.00000   0.00000
   3    14     1         -0.00000  -0.03332  -0.00000   0.00000   0.00000
   1    15     1          0.19116   0.00000  -0.36853   0.42914   0.35388
   2    15     1         -0.00000   0.36544   0.00000  -0.00000  -0.00000
   3    15     1          0.00000  -0.08742  -0.00000  -0.00000  -0.00000
   1    16     1         -0.19116  -0.00000  -0.36853  -0.42914   0.35388
   2    16     1          0.00000  -0.36544   0.00000  -0.00000   0.00000
   3    16     1          0.00000  -0.08742  -0.00000   0.00000  -0.00000
   1    17     1         -0.45530  -0.00000   0.32894   0.25151  -0.34478
   2    17     1         -0.00000   0.07071   0.00000   0.00000  -0.00000
   3    17     1          0.00000  -0.03332  -0.00000  -0.00000   0.00000
   1    18     1         -0.45530  -0.00000  -0.32894  -0.25151  -0.34478
   2    18     1          0.00000  -0.07071   0.00000  -0.00000   0.00000
   3    18     1          0.00000  -0.03332   0.00000   0.00000   0.00000
                          21        22        23        24        25
                          B2G       B3G       B2U       AG        B1U
       Frequencies ---   920.1052  971.1753 1018.2375 1031.5824 1171.7394
    Reduced masses ---     1.1893    5.1263    3.2227    2.5022    2.1968
   Force constants ---     0.5932    2.8487    1.9687    1.5688    1.7770
    IR Intensities ---     0.0000    0.0000    2.9363    0.0000    0.9190
 Coord Atom Element:
   1     1     6         -0.04875  -0.00000   0.00000   0.00000  -0.00000
   2     1     6          0.00000  -0.13375   0.11707   0.07537  -0.00763
   3     1     6          0.00000  -0.12430   0.15588   0.13675  -0.05468
   1     2     6          0.04875   0.00000  -0.00000  -0.00000   0.00000
   2     2     6          0.00000   0.13375   0.11707   0.07537   0.00763
   3     2     6         -0.00000  -0.12430  -0.15588  -0.13675  -0.05468
   1     3     6         -0.01356   0.00000   0.00000   0.00000  -0.00000
   2     3     6         -0.00000  -0.01523  -0.05208  -0.05995   0.02761
   3     3     6         -0.00000   0.24453  -0.07699  -0.06562   0.12919
   1     4     6         -0.05598  -0.00000   0.00000  -0.00000   0.00000
   2     4     6         -0.00000  -0.02461  -0.08637   0.00000   0.00000
   3     4     6         -0.00000  -0.00000   0.00000   0.05840  -0.11437
   1     5     6         -0.01356  -0.00000   0.00000  -0.00000   0.00000
   2     5     6         -0.00000  -0.01523  -0.05208   0.05995  -0.02761
   3     5     6          0.00000  -0.24453   0.07699  -0.06562   0.12919
   1     6     6          0.04875   0.00000  -0.00000   0.00000  -0.00000
   2     6     6          0.00000   0.13375   0.11707  -0.07537  -0.00763
   3     6     6          0.00000   0.12430   0.15588  -0.13675  -0.05468
   1     7     6         -0.04875   0.00000   0.00000  -0.00000  -0.00000
   2     7     6          0.00000  -0.13375   0.11707  -0.07537   0.00763
   3     7     6         -0.00000   0.12430  -0.15588   0.13675  -0.05468
   1     8     6          0.01356  -0.00000  -0.00000   0.00000   0.00000
   2     8     6         -0.00000   0.01523  -0.05208   0.05995   0.02761
   3     8     6         -0.00000  -0.24453  -0.07699   0.06562   0.12919
   1     9     6          0.05598  -0.00000  -0.00000  -0.00000   0.00000
   2     9     6         -0.00000   0.02461  -0.08637   0.00000   0.00000
   3     9     6         -0.00000   0.00000   0.00000  -0.05840  -0.11437
   1    10     6          0.01356   0.00000   0.00000  -0.00000   0.00000
   2    10     6          0.00000   0.01523  -0.05208  -0.05995  -0.02761
   3    10     6          0.00000   0.24453   0.07699   0.06562   0.12919
   1    11     1          0.43473   0.00000  -0.00000  -0.00000   0.00000
   2    11     1         -0.00000  -0.08727   0.04511   0.02398   0.15709
   3    11     1          0.00000  -0.20426   0.31191   0.24942  -0.34198
   1    12     1         -0.43473   0.00000   0.00000   0.00000   0.00000
   2    12     1         -0.00000   0.08727   0.04511   0.02398  -0.15709
   3    12     1         -0.00000  -0.20426  -0.31191  -0.24942  -0.34198
   1    13     1          0.23851  -0.00000  -0.00000  -0.00000   0.00000
   2    13     1         -0.00000  -0.21094  -0.30469  -0.38476   0.25081
   3    13     1         -0.00000   0.24999  -0.08641  -0.07205   0.13575
   1    14     1          0.23851   0.00000  -0.00000   0.00000  -0.00000
   2    14     1         -0.00000  -0.21094  -0.30469   0.38476  -0.25081
   3    14     1         -0.00000  -0.24999   0.08641  -0.07205   0.13575
   1    15     1         -0.43473  -0.00000   0.00000  -0.00000   0.00000
   2    15     1          0.00000   0.08727   0.04511  -0.02398   0.15709
   3    15     1          0.00000   0.20426   0.31191  -0.24942  -0.34198
   1    16     1          0.43473  -0.00000  -0.00000   0.00000   0.00000
   2    16     1         -0.00000  -0.08727   0.04511  -0.02398  -0.15709
   3    16     1         -0.00000   0.20426  -0.31191   0.24942  -0.34198
   1    17     1         -0.23851   0.00000  -0.00000  -0.00000  -0.00000
   2    17     1         -0.00000   0.21094  -0.30469   0.38476   0.25081
   3    17     1          0.00000  -0.24999  -0.08641   0.07205   0.13575
   1    18     1         -0.23851  -0.00000   0.00000   0.00000  -0.00000
   2    18     1         -0.00000   0.21094  -0.30469  -0.38476  -0.25081
   3    18     1          0.00000   0.24999   0.08641   0.07205   0.13575
                          26        27        28        29        30
                          B3G       B2U       AG        B2U       B3G
       Frequencies ---  1198.2343 1209.0796 1234.5335 1251.0547 1299.8137
    Reduced masses ---     1.5749    2.0237    1.1689    1.4716    1.6251
   Force constants ---     1.3322    1.7430    1.0496    1.3570    1.6177
    IR Intensities ---     0.0000    2.3922    0.0000    0.1766    0.0000
 Coord Atom Element:
   1     1     6          0.00000  -0.00000   0.00000   0.00000  -0.00000
   2     1     6         -0.06698   0.02477  -0.00872  -0.04236   0.03565
   3     1     6          0.02235  -0.04274   0.02444   0.03203   0.02751
   1     2     6         -0.00000   0.00000  -0.00000  -0.00000  -0.00000
   2     2     6          0.06698   0.02477  -0.00872  -0.04236  -0.03565
   3     2     6          0.02235   0.04274  -0.02444  -0.03203   0.02751
   1     3     6          0.00000   0.00000  -0.00000  -0.00000   0.00000
   2     3     6         -0.05712  -0.07653  -0.01124   0.00104   0.00862
   3     3     6         -0.03487   0.02110   0.01341   0.03423   0.00581
   1     4     6         -0.00000   0.00000  -0.00000   0.00000  -0.00000
   2     4     6         -0.08285   0.16948   0.00000   0.11449   0.15429
   3     4     6          0.00000   0.00000  -0.07326  -0.00000  -0.00000
   1     5     6          0.00000  -0.00000   0.00000  -0.00000   0.00000
   2     5     6         -0.05712  -0.07653   0.01124   0.00104   0.00862
   3     5     6          0.03487  -0.02110   0.01341  -0.03423  -0.00581
   1     6     6         -0.00000  -0.00000   0.00000   0.00000  -0.00000
   2     6     6          0.06698   0.02477   0.00872  -0.04236  -0.03565
   3     6     6         -0.02235  -0.04274  -0.02444   0.03203  -0.02751
   1     7     6         -0.00000   0.00000  -0.00000  -0.00000  -0.00000
   2     7     6         -0.06698   0.02477   0.00872  -0.04236   0.03565
   3     7     6         -0.02235   0.04274   0.02444  -0.03203  -0.02751
   1     8     6          0.00000  -0.00000   0.00000   0.00000  -0.00000
   2     8     6          0.05712  -0.07653   0.01124   0.00104  -0.00862
   3     8     6          0.03487   0.02110  -0.01341   0.03423  -0.00581
   1     9     6         -0.00000   0.00000   0.00000   0.00000   0.00000
   2     9     6          0.08285   0.16948   0.00000   0.11449  -0.15429
   3     9     6          0.00000   0.00000   0.07326   0.00000  -0.00000
   1    10     6         -0.00000  -0.00000  -0.00000  -0.00000   0.00000
   2    10     6          0.05712  -0.07653  -0.01124   0.00104  -0.00862
   3    10     6         -0.03487  -0.02110  -0.01341  -0.03423   0.00581
   1    11     1         -0.00000   0.00000  -0.00000  -0.00000   0.00000
   2    11     1         -0.23692   0.06422  -0.20941  -0.25943   0.07473
   3    11     1          0.31649  -0.11522   0.37968   0.40701  -0.03465
   1    12     1          0.00000   0.00000   0.00000   0.00000  -0.00000
   2    12     1          0.23692   0.06422  -0.20941  -0.25943  -0.07473
   3    12     1          0.31649   0.11522  -0.37968  -0.40701  -0.03465
   1    13     1         -0.00000  -0.00000   0.00000   0.00000  -0.00000
   2    13     1         -0.28144  -0.45691   0.24115   0.06983  -0.47855
   3    13     1         -0.03990   0.02696   0.01304   0.04022   0.01298
   1    14     1         -0.00000  -0.00000  -0.00000  -0.00000  -0.00000
   2    14     1         -0.28144  -0.45691  -0.24115   0.06983  -0.47855
   3    14     1          0.03990  -0.02696   0.01304  -0.04022  -0.01298
   1    15     1          0.00000   0.00000  -0.00000   0.00000   0.00000
   2    15     1          0.23692   0.06422   0.20941  -0.25943  -0.07473
   3    15     1         -0.31649  -0.11522  -0.37968   0.40701   0.03465
   1    16     1          0.00000  -0.00000   0.00000   0.00000   0.00000
   2    16     1         -0.23692   0.06422   0.20941  -0.25943   0.07473
   3    16     1         -0.31649   0.11522   0.37968  -0.40701   0.03465
   1    17     1         -0.00000   0.00000   0.00000   0.00000  -0.00000
   2    17     1          0.28144  -0.45691  -0.24115   0.06983   0.47855
   3    17     1          0.03990   0.02696  -0.01304   0.04022  -0.01298
   1    18     1          0.00000  -0.00000   0.00000  -0.00000   0.00000
   2    18     1          0.28144  -0.45691   0.24115   0.06983   0.47855
   3    18     1         -0.03990  -0.02696  -0.01304  -0.04022   0.01298
                          31        32        33        34        35
                          B1U       AG        B2U       B1U       B3G
       Frequencies ---  1315.3576 1368.2397 1393.3322 1452.4869 1501.0181
    Reduced masses ---     1.8810    6.9213    2.9246    1.4100    1.8200
   Force constants ---     1.9175    7.6341    3.3452    1.7526    2.4160
    IR Intensities ---    10.3725    0.0000    1.6404    3.9785    0.0000
 Coord Atom Element:
   1     1     6         -0.00000   0.00000   0.00000   0.00000   0.00000
   2     1     6          0.04251  -0.12639  -0.09546   0.01132   0.07422
   3     1     6         -0.00969   0.12157   0.10432  -0.05051  -0.06794
   1     2     6          0.00000  -0.00000  -0.00000   0.00000   0.00000
   2     2     6         -0.04251  -0.12639  -0.09546  -0.01132  -0.07422
   3     2     6         -0.00969  -0.12157  -0.10432  -0.05051  -0.06794
   1     3     6         -0.00000  -0.00000   0.00000  -0.00000  -0.00000
   2     3     6          0.05936   0.19206   0.13821  -0.07411  -0.03219
   3     3     6         -0.05238  -0.01897   0.06515   0.02877   0.04011
   1     4     6         -0.00000   0.00000  -0.00000   0.00000   0.00000
   2     4     6          0.00000   0.00000  -0.02246  -0.00000   0.10680
   3     4     6          0.15291   0.36466  -0.00000  -0.01719   0.00000
   1     5     6          0.00000   0.00000  -0.00000   0.00000  -0.00000
   2     5     6         -0.05936  -0.19206   0.13821   0.07411  -0.03219
   3     5     6         -0.05238  -0.01897  -0.06515   0.02877  -0.04011
   1     6     6         -0.00000  -0.00000   0.00000  -0.00000   0.00000
   2     6     6          0.04251   0.12639  -0.09546   0.01132  -0.07422
   3     6     6         -0.00969  -0.12157   0.10432  -0.05051   0.06794
   1     7     6         -0.00000   0.00000  -0.00000  -0.00000   0.00000
   2     7     6         -0.04251   0.12639  -0.09546  -0.01132   0.07422
   3     7     6         -0.00969   0.12157  -0.10432  -0.05051   0.06794
   1     8     6          0.00000  -0.00000   0.00000   0.00000  -0.00000
   2     8     6          0.05936  -0.19206   0.13821  -0.07411   0.03219
   3     8     6         -0.05238   0.01897   0.06515   0.02877  -0.04011
   1     9     6          0.00000  -0.00000  -0.00000  -0.00000  -0.00000
   2     9     6         -0.00000  -0.00000  -0.02246   0.00000  -0.10680
   3     9     6          0.15291  -0.36466   0.00000  -0.01719  -0.00000
   1    10     6         -0.00000   0.00000  -0.00000   0.00000   0.00000
   2    10     6         -0.05936   0.19206   0.13821   0.07411   0.03219
   3    10     6         -0.05238   0.01897  -0.06515   0.02877   0.04011
   1    11     1          0.00000  -0.00000  -0.00000  -0.00000  -0.00000
   2    11     1          0.10422  -0.12815   0.04186  -0.20142  -0.18689
   3    11     1         -0.11881   0.10886  -0.15722   0.32808   0.40804
   1    12     1         -0.00000   0.00000   0.00000   0.00000  -0.00000
   2    12     1         -0.10422  -0.12815   0.04186   0.20142   0.18689
   3    12     1         -0.11881  -0.10886   0.15722   0.32808   0.40804
   1    13     1          0.00000   0.00000   0.00000   0.00000   0.00000
   2    13     1          0.44990   0.29527  -0.41717   0.30257   0.16588
   3    13     1         -0.05246  -0.00700   0.07686   0.03310   0.05088
   1    14     1         -0.00000  -0.00000  -0.00000  -0.00000   0.00000
   2    14     1         -0.44990  -0.29527  -0.41717  -0.30257   0.16588
   3    14     1         -0.05246  -0.00700  -0.07686   0.03310  -0.05088
   1    15     1          0.00000   0.00000   0.00000   0.00000  -0.00000
   2    15     1          0.10422   0.12815   0.04186  -0.20142   0.18689
   3    15     1         -0.11881  -0.10886  -0.15722   0.32808  -0.40804
   1    16     1          0.00000  -0.00000   0.00000   0.00000  -0.00000
   2    16     1         -0.10422   0.12815   0.04186   0.20142  -0.18689
   3    16     1         -0.11881   0.10886   0.15722   0.32808  -0.40804
   1    17     1         -0.00000   0.00000   0.00000  -0.00000  -0.00000
   2    17     1          0.44990  -0.29527  -0.41717   0.30257  -0.16588
   3    17     1         -0.05246   0.00700   0.07686   0.03310  -0.05088
   1    18     1         -0.00000   0.00000  -0.00000  -0.00000   0.00000
   2    18     1         -0.44990   0.29527  -0.41717  -0.30257  -0.16588
   3    18     1         -0.05246   0.00700  -0.07686   0.03310   0.05088
                          36        37        38        39        40
                          AG        B2U       AG        B1U       B3G
       Frequencies ---  1512.2086 1534.0098 1569.5337 1607.4474 1634.0447
    Reduced masses ---     1.6324    2.2918    5.3737    3.6668    5.0168
   Force constants ---     2.1994    3.1775    7.7994    5.5823    7.8922
    IR Intensities ---     0.0000    9.5637    0.0000    7.8905    0.0000
 Coord Atom Element:
   1     1     6          0.00000   0.00000  -0.00000  -0.00000   0.00000
   2     1     6          0.01654  -0.01402   0.09483   0.15432  -0.13127
   3     1     6          0.07674   0.12919  -0.18763  -0.08350   0.06420
   1     2     6         -0.00000  -0.00000   0.00000   0.00000  -0.00000
   2     2     6          0.01654  -0.01402   0.09483  -0.15432   0.13127
   3     2     6         -0.07674  -0.12919   0.18763  -0.08350   0.06420
   1     3     6         -0.00000  -0.00000   0.00000  -0.00000   0.00000
   2     3     6         -0.08747  -0.07560  -0.10916   0.16384  -0.20893
   3     3     6          0.01223   0.05140  -0.12085   0.05297  -0.02919
   1     4     6          0.00000   0.00000   0.00000   0.00000   0.00000
   2     4     6         -0.00000   0.08897  -0.00000   0.00000   0.22503
   3     4     6          0.02201   0.00000   0.23907  -0.00842  -0.00000
   1     5     6          0.00000  -0.00000  -0.00000   0.00000   0.00000
   2     5     6          0.08747  -0.07560   0.10916  -0.16384  -0.20893
   3     5     6          0.01223  -0.05140  -0.12085   0.05297   0.02919
   1     6     6          0.00000  -0.00000   0.00000  -0.00000  -0.00000
   2     6     6         -0.01654  -0.01402  -0.09483   0.15432   0.13127
   3     6     6         -0.07674   0.12919   0.18763  -0.08350  -0.06420
   1     7     6         -0.00000   0.00000  -0.00000  -0.00000  -0.00000
   2     7     6         -0.01654  -0.01402  -0.09483  -0.15432  -0.13127
   3     7     6          0.07674  -0.12919  -0.18763  -0.08350  -0.06420
   1     8     6          0.00000  -0.00000   0.00000   0.00000   0.00000
   2     8     6          0.08747  -0.07560   0.10916   0.16384   0.20893
   3     8     6         -0.01223   0.05140   0.12085   0.05297   0.02919
   1     9     6          0.00000   0.00000  -0.00000   0.00000  -0.00000
   2     9     6          0.00000   0.08897   0.00000  -0.00000  -0.22503
   3     9     6         -0.02201  -0.00000  -0.23907  -0.00842   0.00000
   1    10     6         -0.00000  -0.00000   0.00000   0.00000   0.00000
   2    10     6         -0.08747  -0.07560  -0.10916  -0.16384   0.20893
   3    10     6         -0.01223  -0.05140   0.12085   0.05297  -0.02919
   1    11     1          0.00000   0.00000   0.00000  -0.00000  -0.00000
   2    11     1          0.19072   0.21573  -0.13267  -0.06836   0.01498
   3    11     1         -0.21033  -0.25990   0.22654   0.34518  -0.22307
   1    12     1          0.00000   0.00000  -0.00000  -0.00000   0.00000
   2    12     1          0.19072   0.21573  -0.13267   0.06836  -0.01498
   3    12     1          0.21033   0.25990  -0.22654   0.34518  -0.22307
   1    13     1          0.00000   0.00000  -0.00000   0.00000   0.00000
   2    13     1          0.39370   0.32174   0.25421  -0.24699   0.32792
   3    13     1          0.01365   0.05653  -0.13100   0.06852  -0.03620
   1    14     1         -0.00000   0.00000  -0.00000   0.00000   0.00000
   2    14     1         -0.39370   0.32174  -0.25421   0.24699   0.32792
   3    14     1          0.01365  -0.05653  -0.13100   0.06852   0.03620
   1    15     1         -0.00000   0.00000   0.00000   0.00000   0.00000
   2    15     1         -0.19072   0.21573   0.13267  -0.06836  -0.01498
   3    15     1          0.21033  -0.25990  -0.22654   0.34518   0.22307
   1    16     1          0.00000  -0.00000   0.00000   0.00000   0.00000
   2    16     1         -0.19072   0.21573   0.13267   0.06836   0.01498
   3    16     1         -0.21033   0.25990   0.22654   0.34518   0.22307
   1    17     1          0.00000  -0.00000  -0.00000  -0.00000  -0.00000
   2    17     1         -0.39370   0.32174  -0.25421  -0.24699  -0.32792
   3    17     1         -0.01365   0.05653   0.13100   0.06852   0.03620
   1    18     1          0.00000   0.00000   0.00000   0.00000  -0.00000
   2    18     1          0.39370   0.32174   0.25421   0.24699  -0.32792
   3    18     1         -0.01365  -0.05653   0.13100   0.06852  -0.03620
                          41        42        43        44        45
                          B3G       B1U       B2U       AG        B3G
       Frequencies ---  3167.2827 3169.1188 3169.8859 3172.2660 3194.1117
    Reduced masses ---     1.0879    1.0880    1.0892    1.0882    1.0920
   Force constants ---     6.4298    6.4382    6.4483    6.4523    6.5642
    IR Intensities ---     0.0000   16.6326    0.0010    0.0000    0.0000
 Coord Atom Element:
   1     1     6          0.00000   0.00000   0.00000   0.00000  -0.00000
   2     1     6          0.01315   0.01477  -0.00883  -0.01007  -0.03594
   3     1     6          0.00869   0.00955  -0.00660  -0.00714  -0.01776
   1     2     6          0.00000   0.00000   0.00000  -0.00000  -0.00000
   2     2     6         -0.01315  -0.01477  -0.00883  -0.01007   0.03594
   3     2     6          0.00869   0.00955   0.00660   0.00714  -0.01776
   1     3     6          0.00000   0.00000   0.00000  -0.00000  -0.00000
   2     3     6         -0.00008  -0.00030  -0.00013  -0.00014  -0.00132
   3     3     6         -0.03962  -0.03891  -0.04155  -0.04094  -0.01746
   1     4     6          0.00000  -0.00000   0.00000  -0.00000  -0.00000
   2     4     6         -0.00207  -0.00000  -0.00235  -0.00000  -0.00144
   3     4     6          0.00000   0.00066   0.00000  -0.00062   0.00000
   1     5     6          0.00000  -0.00000   0.00000  -0.00000   0.00000
   2     5     6         -0.00008   0.00030  -0.00013   0.00014  -0.00132
   3     5     6          0.03962  -0.03891   0.04155  -0.04094   0.01746
   1     6     6          0.00000  -0.00000   0.00000  -0.00000   0.00000
   2     6     6         -0.01315   0.01477  -0.00883   0.01007   0.03594
   3     6     6         -0.00869   0.00955  -0.00660   0.00714   0.01776
   1     7     6         -0.00000  -0.00000  -0.00000   0.00000   0.00000
   2     7     6          0.01315  -0.01477  -0.00883   0.01007  -0.03594
   3     7     6         -0.00869   0.00955   0.00660  -0.00714   0.01776
   1     8     6         -0.00000  -0.00000  -0.00000   0.00000   0.00000
   2     8     6          0.00008  -0.00030  -0.00013   0.00014   0.00132
   3     8     6          0.03962  -0.03891  -0.04155   0.04094   0.01746
   1     9     6         -0.00000  -0.00000  -0.00000   0.00000  -0.00000
   2     9     6          0.00207   0.00000  -0.00235  -0.00000   0.00144
   3     9     6         -0.00000   0.00066  -0.00000   0.00062   0.00000
   1    10     6         -0.00000  -0.00000   0.00000   0.00000  -0.00000
   2    10     6          0.00008   0.00030  -0.00013  -0.00014   0.00132
   3    10     6         -0.03962  -0.03891   0.04155   0.04094  -0.01746
   1    11     1         -0.00000  -0.00000   0.00000   0.00000   0.00000
   2    11     1         -0.16782  -0.18364   0.11921   0.13029   0.40174
   3    11     1         -0.09630  -0.10527   0.06924   0.07618   0.22325
   1    12     1         -0.00000  -0.00000  -0.00000  -0.00000   0.00000
   2    12     1          0.16782   0.18364   0.11921   0.13029  -0.40174
   3    12     1         -0.09630  -0.10527  -0.06924  -0.07618   0.22325
   1    13     1          0.00000   0.00000   0.00000   0.00000   0.00000
   2    13     1          0.00112  -0.00164   0.00143  -0.00228   0.00217
   3    13     1          0.45907   0.45096   0.47869   0.47475   0.19196
   1    14     1         -0.00000   0.00000  -0.00000   0.00000  -0.00000
   2    14     1          0.00112   0.00164   0.00143   0.00228   0.00217
   3    14     1         -0.45907   0.45096  -0.47869   0.47475  -0.19196
   1    15     1          0.00000  -0.00000   0.00000  -0.00000  -0.00000
   2    15     1          0.16782  -0.18364   0.11921  -0.13029  -0.40174
   3    15     1          0.09630  -0.10527   0.06924  -0.07618  -0.22325
   1    16     1          0.00000  -0.00000  -0.00000   0.00000   0.00000
   2    16     1         -0.16782   0.18364   0.11921  -0.13029   0.40174
   3    16     1          0.09630  -0.10527  -0.06924   0.07618  -0.22325
   1    17     1         -0.00000   0.00000   0.00000  -0.00000  -0.00000
   2    17     1         -0.00112  -0.00164   0.00143   0.00228  -0.00217
   3    17     1         -0.45907   0.45096   0.47869  -0.47475  -0.19196
   1    18     1          0.00000   0.00000  -0.00000  -0.00000   0.00000
   2    18     1         -0.00112   0.00164   0.00143  -0.00228  -0.00217
   3    18     1          0.45907   0.45096  -0.47869  -0.47475   0.19196
                          46        47        48
                          B1U       B2U       AG
       Frequencies ---  3194.4528 3210.8921 3211.7389
    Reduced masses ---     1.0919    1.0967    1.0965
   Force constants ---     6.5646    6.6620    6.6640
    IR Intensities ---    32.3626   38.6648    0.0000
 Coord Atom Element:
   1     1     6         -0.00000  -0.00000  -0.00000
   2     1     6         -0.03529  -0.03733  -0.03696
   3     1     6         -0.01728  -0.02129  -0.02107
   1     2     6         -0.00000   0.00000   0.00000
   2     2     6          0.03529  -0.03733  -0.03696
   3     2     6         -0.01728   0.02129   0.02107
   1     3     6         -0.00000   0.00000   0.00000
   2     3     6         -0.00158   0.00190   0.00202
   3     3     6         -0.01911   0.01309   0.01424
   1     4     6         -0.00000   0.00000   0.00000
   2     4     6          0.00000   0.00148   0.00000
   3     4     6          0.00064  -0.00000   0.00015
   1     5     6         -0.00000  -0.00000   0.00000
   2     5     6          0.00158   0.00190  -0.00202
   3     5     6         -0.01911  -0.01309   0.01424
   1     6     6          0.00000  -0.00000   0.00000
   2     6     6         -0.03529  -0.03733   0.03696
   3     6     6         -0.01728  -0.02129   0.02107
   1     7     6          0.00000  -0.00000  -0.00000
   2     7     6          0.03529  -0.03733   0.03696
   3     7     6         -0.01728   0.02129  -0.02107
   1     8     6         -0.00000  -0.00000  -0.00000
   2     8     6         -0.00158   0.00190  -0.00202
   3     8     6         -0.01911   0.01309  -0.01424
   1     9     6         -0.00000  -0.00000  -0.00000
   2     9     6         -0.00000   0.00148   0.00000
   3     9     6          0.00064   0.00000  -0.00015
   1    10     6         -0.00000  -0.00000  -0.00000
   2    10     6          0.00158   0.00190   0.00202
   3    10     6         -0.01911  -0.01309  -0.01424
   1    11     1          0.00000   0.00000   0.00000
   2    11     1          0.39478   0.41613   0.41283
   3    11     1          0.21905   0.23727   0.23495
   1    12     1          0.00000  -0.00000  -0.00000
   2    12     1         -0.39478   0.41613   0.41283
   3    12     1          0.21905  -0.23727  -0.23495
   1    13     1          0.00000  -0.00000  -0.00000
   2    13     1          0.00090  -0.00308  -0.00187
   3    13     1          0.21037  -0.13605  -0.14949
   1    14     1          0.00000   0.00000  -0.00000
   2    14     1         -0.00090  -0.00308   0.00187
   3    14     1          0.21037   0.13605  -0.14949
   1    15     1          0.00000   0.00000  -0.00000
   2    15     1          0.39478   0.41613  -0.41283
   3    15     1          0.21905   0.23727  -0.23495
   1    16     1          0.00000  -0.00000   0.00000
   2    16     1         -0.39478   0.41613  -0.41283
   3    16     1          0.21905  -0.23727   0.23495
   1    17     1          0.00000  -0.00000   0.00000
   2    17     1          0.00090  -0.00308   0.00187
   3    17     1          0.21037  -0.13605   0.14949
   1    18     1          0.00000   0.00000   0.00000
   2    18     1         -0.00090  -0.00308  -0.00187
   3    18     1          0.21037   0.13605   0.14949
 Harmonic frequencies (cm**-1), IR intensities (KM/Mole), Raman scattering
 activities (A**4/AMU), depolarization ratios for plane and unpolarized
 incident light, reduced masses (AMU), force constants (mDyne/A),
 and normal coordinates:
                      1                      2                      3
                     B3U                    AU                     B1U
 Frequencies --    162.8024               183.4495               371.6783
 Red. masses --      4.2730                 3.3863                 3.8426
 Frc consts  --      0.0667                 0.0671                 0.3128
 IR Inten    --      2.9296                 0.0000                 0.9425
  Atom  AN      X      Y      Z        X      Y      Z        X      Y      Z
     1   6    -0.19  -0.00  -0.00    -0.14   0.00   0.00    -0.00   0.05  -0.14
     2   6    -0.19   0.00  -0.00     0.14  -0.00  -0.00    -0.00  -0.05  -0.14
     3   6     0.09   0.00   0.00     0.18  -0.00  -0.00     0.00  -0.13   0.05
     4   6     0.24   0.00   0.00    -0.00  -0.00  -0.00     0.00   0.00   0.21
     5   6     0.09   0.00   0.00    -0.18  -0.00  -0.00    -0.00   0.13   0.05
     6   6    -0.19   0.00   0.00    -0.14   0.00   0.00     0.00   0.05  -0.14
     7   6    -0.19  -0.00   0.00     0.14   0.00   0.00     0.00  -0.05  -0.14
     8   6     0.09  -0.00  -0.00     0.18   0.00   0.00    -0.00  -0.13   0.05
     9   6     0.24  -0.00   0.00    -0.00  -0.00  -0.00     0.00  -0.00   0.21
    10   6     0.09   0.00   0.00    -0.18  -0.00   0.00     0.00   0.13   0.05
    11   1    -0.41  -0.00  -0.00    -0.29   0.00   0.00    -0.00   0.11  -0.24
    12   1    -0.41  -0.00   0.00     0.29   0.00   0.00    -0.00  -0.11  -0.24
    13   1     0.10  -0.00   0.00     0.33   0.00  -0.00     0.00  -0.34   0.05
    14   1     0.10   0.00  -0.00    -0.33  -0.00   0.00    -0.00   0.34   0.05
    15   1    -0.41   0.00  -0.00    -0.29   0.00   0.00     0.00   0.11  -0.24
    16   1    -0.41  -0.00  -0.00     0.29  -0.00  -0.00     0.00  -0.11  -0.24
    17   1     0.10  -0.00  -0.00     0.33   0.00   0.00    -0.00  -0.34   0.05
    18   1     0.10   0.00   0.00    -0.33  -0.00   0.00     0.00   0.34   0.05
                      4                      5                      6
                     B1G                    B2G                    B3U
 Frequencies --    380.4111               439.0293               456.9152
 Red. masses --      3.3220                 3.9286                 3.0507
 Frc consts  --      0.2832                 0.4461                 0.3753
 IR Inten    --      0.0000                 0.0000                16.7472
  Atom  AN      X      Y      Z        X      Y      Z        X      Y      Z
     1   6    -0.10  -0.00   0.00     0.14  -0.00  -0.00     0.07   0.00   0.00
     2   6    -0.10   0.00   0.00    -0.14   0.00   0.00     0.07   0.00   0.00
     3   6     0.21   0.00  -0.00     0.03   0.00  -0.00    -0.13   0.00  -0.00
     4   6    -0.00   0.00  -0.00     0.30   0.00  -0.00     0.22  -0.00  -0.00
     5   6    -0.21  -0.00  -0.00     0.03   0.00  -0.00    -0.13  -0.00  -0.00
     6   6     0.10  -0.00   0.00    -0.14   0.00   0.00     0.07  -0.00   0.00
     7   6     0.10   0.00   0.00     0.14  -0.00   0.00     0.07  -0.00   0.00
     8   6    -0.21   0.00  -0.00    -0.03  -0.00   0.00    -0.13   0.00  -0.00
     9   6     0.00   0.00  -0.00    -0.30  -0.00   0.00     0.22   0.00  -0.00
    10   6     0.21  -0.00  -0.00    -0.03  -0.00  -0.00    -0.13   0.00  -0.00
    11   1    -0.17  -0.00   0.00     0.43  -0.00   0.00    -0.06   0.00   0.00
    12   1    -0.17   0.00   0.00    -0.43   0.00   0.00    -0.06   0.00   0.00
    13   1     0.41   0.00  -0.00     0.00   0.00  -0.00    -0.45   0.00  -0.00
    14   1    -0.41  -0.00  -0.00     0.00  -0.00  -0.00    -0.45  -0.00   0.00
    15   1     0.17  -0.00   0.00    -0.43   0.00   0.00    -0.06  -0.00   0.00
    16   1     0.17   0.00   0.00     0.43  -0.00   0.00    -0.06   0.00   0.00
    17   1    -0.41   0.00  -0.00    -0.00   0.00   0.00    -0.45   0.00  -0.00
    18   1     0.41  -0.00  -0.00    -0.00  -0.00  -0.00    -0.45  -0.00   0.00
                      7                      8                      9
                     AG                     B3G                    B2G
 Frequencies --    526.5777               532.1542               553.7320
 Red. masses --      6.5826                 7.0864                10.0647
 Frc consts  --      1.0754                 1.1824                 1.8182
 IR Inten    --      0.0000                 0.0000                 0.0000
  Atom  AN      X      Y      Z        X      Y      Z        X      Y      Z
     1   6     0.00   0.29  -0.00    -0.00  -0.19  -0.15    -0.28   0.00   0.00
     2   6    -0.00   0.29   0.00     0.00   0.19  -0.15     0.28   0.00   0.00
     3   6     0.00   0.18   0.10    -0.00   0.21  -0.14    -0.25  -0.00   0.00
     4   6    -0.00  -0.00   0.01     0.00   0.19   0.00     0.35  -0.00   0.00
     5   6     0.00  -0.18   0.10    -0.00   0.21   0.14    -0.25  -0.00  -0.00
     6   6    -0.00  -0.29   0.00     0.00   0.19   0.15     0.28  -0.00  -0.00
     7   6     0.00  -0.29  -0.00    -0.00  -0.19   0.15    -0.28  -0.00  -0.00
     8   6    -0.00  -0.18  -0.10     0.00  -0.21   0.14     0.25   0.00  -0.00
     9   6     0.00   0.00  -0.01    -0.00  -0.19  -0.00    -0.35   0.00   0.00
    10   6    -0.00   0.18  -0.10     0.00  -0.21  -0.14     0.25   0.00   0.00
    11   1     0.00   0.24   0.10    -0.00  -0.29   0.03    -0.21   0.00   0.00
    12   1    -0.00   0.24  -0.10     0.00   0.29   0.03     0.21  -0.00  -0.00
    13   1     0.00   0.22   0.10    -0.00   0.08  -0.14     0.01   0.00   0.00
    14   1     0.00  -0.22   0.10    -0.00   0.08   0.14     0.01  -0.00  -0.00
    15   1    -0.00  -0.24  -0.10     0.00   0.29  -0.03     0.21  -0.00  -0.00
    16   1     0.00  -0.24   0.10    -0.00  -0.29  -0.03    -0.21   0.00   0.00
    17   1     0.00  -0.22  -0.10    -0.00  -0.08   0.14    -0.01  -0.00  -0.00
    18   1     0.00   0.22  -0.10    -0.00  -0.08  -0.14    -0.01   0.00   0.00
                     10                     11                     12
                     AU                     B2U                    B1G
 Frequencies --    591.3519               653.3350               704.8208
 Red. masses --      5.7513                 6.5395                 1.1564
 Frc consts  --      1.1850                 1.6446                 0.3385
 IR Inten    --      0.0000                 3.6992                 0.0000
  Atom  AN      X      Y      Z        X      Y      Z        X      Y      Z
     1   6     0.24   0.00  -0.00    -0.00   0.13  -0.04    -0.03   0.00   0.00
     2   6    -0.24   0.00   0.00     0.00   0.13   0.04    -0.03  -0.00   0.00
     3   6     0.22   0.00   0.00    -0.00  -0.04   0.30    -0.05  -0.00  -0.00
     4   6     0.00  -0.00   0.00    -0.00  -0.18  -0.00    -0.00  -0.00  -0.00
     5   6    -0.22  -0.00   0.00     0.00  -0.04  -0.30     0.05  -0.00  -0.00
     6   6     0.24   0.00   0.00     0.00   0.13  -0.04     0.03   0.00   0.00
     7   6    -0.24   0.00  -0.00    -0.00   0.13   0.04     0.03  -0.00  -0.00
     8   6     0.22  -0.00  -0.00    -0.00  -0.04   0.30     0.05  -0.00   0.00
     9   6    -0.00  -0.00  -0.00     0.00  -0.18  -0.00     0.00   0.00   0.00
    10   6    -0.22   0.00  -0.00     0.00  -0.04  -0.30    -0.05   0.00   0.00
    11   1     0.35   0.00  -0.00    -0.00   0.01   0.18     0.35  -0.00   0.00
    12   1    -0.35  -0.00  -0.00     0.00   0.01  -0.18     0.35   0.00  -0.00
    13   1     0.13   0.00   0.00    -0.00  -0.04   0.30     0.35  -0.00  -0.00
    14   1    -0.13  -0.00   0.00    -0.00  -0.04  -0.30    -0.35   0.00   0.00
    15   1     0.35   0.00   0.00     0.00   0.01   0.18    -0.35   0.00   0.00
    16   1    -0.35  -0.00  -0.00    -0.00   0.01  -0.18    -0.35  -0.00  -0.00
    17   1     0.13  -0.00  -0.00    -0.00  -0.04   0.30    -0.35  -0.00   0.00
    18   1    -0.13   0.00  -0.00     0.00  -0.04  -0.30     0.35  -0.00  -0.00
                     13                     14                     15
                     AG                     B3U                    AU
 Frequencies --    761.6029               763.1645               813.1268
 Red. masses --      4.8913                 1.3459                 1.2658
 Frc consts  --      1.6716                 0.4618                 0.4931
 IR Inten    --      0.0000               146.1930                 0.0000
  Atom  AN      X      Y      Z        X      Y      Z        X      Y      Z
     1   6    -0.00  -0.01  -0.02    -0.03   0.00   0.00     0.05  -0.00  -0.00
     2   6     0.00  -0.01   0.02    -0.03   0.00  -0.00    -0.05   0.00  -0.00
     3   6    -0.00  -0.11   0.25    -0.06   0.00  -0.00    -0.05   0.00   0.00
     4   6     0.00   0.00   0.16     0.07  -0.00  -0.00    -0.00  -0.00   0.00
     5   6     0.00   0.11   0.25    -0.06  -0.00  -0.00     0.05  -0.00  -0.00
     6   6    -0.00   0.01   0.02    -0.03   0.00  -0.00     0.05  -0.00  -0.00
     7   6    -0.00   0.01  -0.02    -0.03  -0.00   0.00    -0.05   0.00  -0.00
     8   6    -0.00   0.11  -0.25    -0.06  -0.00   0.00    -0.05   0.00   0.00
     9   6     0.00   0.00  -0.16     0.07  -0.00   0.00     0.00  -0.00   0.00
    10   6    -0.00  -0.11  -0.25    -0.06   0.00   0.00     0.05  -0.00   0.00
    11   1     0.00  -0.11   0.15     0.37  -0.00   0.00    -0.22  -0.00  -0.00
    12   1     0.00  -0.11  -0.15     0.37   0.00  -0.00     0.22   0.00   0.00
    13   1     0.00  -0.25   0.26     0.33  -0.00  -0.00     0.44  -0.00  -0.00
    14   1    -0.00   0.25   0.26     0.33  -0.00  -0.00    -0.44   0.00   0.00
    15   1    -0.00   0.11  -0.15     0.37  -0.00   0.00    -0.22  -0.00   0.00
    16   1     0.00   0.11   0.15     0.37  -0.00  -0.00     0.22   0.00  -0.00
    17   1     0.00   0.25  -0.26     0.33  -0.00   0.00     0.44  -0.00  -0.00
    18   1     0.00  -0.25  -0.26     0.33   0.00   0.00    -0.44   0.00   0.00
                     16                     17                     18
                     B2G                    B1U                    B1G
 Frequencies --    822.4940               823.5911               900.2875
 Red. masses --      1.2787                 5.5235                 1.2710
 Frc consts  --      0.5097                 2.2074                 0.6069
 IR Inten    --      0.0000                 0.0046                 0.0000
  Atom  AN      X      Y      Z        X      Y      Z        X      Y      Z
     1   6     0.06  -0.00  -0.00     0.00   0.25   0.11    -0.06   0.00   0.00
     2   6    -0.06   0.00  -0.00    -0.00  -0.25   0.11    -0.06  -0.00  -0.00
     3   6    -0.05   0.00   0.00    -0.00  -0.13  -0.04     0.05   0.00  -0.00
     4   6    -0.00   0.00   0.00     0.00  -0.00  -0.14    -0.00  -0.00   0.00
     5   6    -0.05  -0.00   0.00    -0.00   0.13  -0.04    -0.05   0.00   0.00
     6   6    -0.06  -0.00  -0.00    -0.00   0.25   0.11     0.06   0.00  -0.00
     7   6     0.06   0.00  -0.00     0.00  -0.25   0.11     0.06  -0.00  -0.00
     8   6     0.05   0.00  -0.00     0.00  -0.13  -0.04    -0.05   0.00   0.00
     9   6     0.00   0.00   0.00    -0.00  -0.00  -0.14     0.00  -0.00   0.00
    10   6     0.05  -0.00  -0.00     0.00   0.13  -0.04     0.05   0.00  -0.00
    11   1    -0.19  -0.00  -0.00    -0.00   0.37  -0.09     0.37  -0.00   0.00
    12   1     0.19   0.00   0.00     0.00  -0.37  -0.09     0.37   0.00  -0.00
    13   1     0.46  -0.00   0.00     0.00   0.07  -0.03    -0.33   0.00  -0.00
    14   1     0.46   0.00  -0.00     0.00  -0.07  -0.03     0.33  -0.00  -0.00
    15   1     0.19  -0.00   0.00     0.00   0.37  -0.09    -0.37   0.00  -0.00
    16   1    -0.19   0.00   0.00    -0.00  -0.37  -0.09    -0.37   0.00  -0.00
    17   1    -0.46  -0.00   0.00    -0.00   0.07  -0.03     0.33   0.00  -0.00
    18   1    -0.46   0.00   0.00    -0.00  -0.07  -0.03    -0.33   0.00   0.00
                     19                     20                     21
                     AU                     B3U                    B2G
 Frequencies --    900.5384               902.3001               920.1052
 Red. masses --      1.1212                 1.2673                 1.1893
 Frc consts  --      0.5357                 0.6079                 0.5932
 IR Inten    --      0.0000                 0.0563                 0.0000
  Atom  AN      X      Y      Z        X      Y      Z        X      Y      Z
     1   6    -0.05   0.00   0.00    -0.05  -0.00   0.00    -0.05   0.00   0.00
     2   6     0.05   0.00  -0.00    -0.05  -0.00  -0.00     0.05   0.00  -0.00
     3   6    -0.02  -0.00  -0.00     0.05   0.00  -0.00    -0.01  -0.00  -0.00
     4   6     0.00  -0.00  -0.00    -0.00  -0.00   0.00    -0.06  -0.00  -0.00
     5   6     0.02   0.00  -0.00     0.05  -0.00  -0.00    -0.01  -0.00   0.00
     6   6    -0.05  -0.00  -0.00    -0.05  -0.00   0.00     0.05   0.00   0.00
     7   6     0.05  -0.00   0.00    -0.05   0.00   0.00    -0.05   0.00  -0.00
     8   6    -0.02   0.00   0.00     0.05  -0.00  -0.00     0.01  -0.00  -0.00
     9   6    -0.00  -0.00  -0.00    -0.00   0.00   0.00     0.06  -0.00  -0.00
    10   6     0.02   0.00   0.00     0.05   0.00  -0.00     0.01   0.00   0.00
    11   1     0.43  -0.00   0.00     0.35  -0.00   0.00     0.43  -0.00   0.00
    12   1    -0.43  -0.00  -0.00     0.35   0.00  -0.00    -0.43  -0.00  -0.00
    13   1     0.25  -0.00  -0.00    -0.34   0.00   0.00     0.24  -0.00  -0.00
    14   1    -0.25   0.00   0.00    -0.34   0.00   0.00     0.24  -0.00  -0.00
    15   1     0.43  -0.00  -0.00     0.35  -0.00  -0.00    -0.43   0.00   0.00
    16   1    -0.43  -0.00   0.00     0.35   0.00  -0.00     0.43  -0.00  -0.00
    17   1     0.25   0.00  -0.00    -0.34  -0.00   0.00    -0.24  -0.00   0.00
    18   1    -0.25  -0.00   0.00    -0.34   0.00   0.00    -0.24  -0.00   0.00
                     22                     23                     24
                     B3G                    B2U                    AG
 Frequencies --    971.1753              1018.2375              1031.5824
 Red. masses --      5.1263                 3.2227                 2.5022
 Frc consts  --      2.8487                 1.9687                 1.5688
 IR Inten    --      0.0000                 2.9363                 0.0000
  Atom  AN      X      Y      Z        X      Y      Z        X      Y      Z
     1   6    -0.00  -0.13  -0.12     0.00   0.12   0.16     0.00   0.08   0.14
     2   6     0.00   0.13  -0.12    -0.00   0.12  -0.16    -0.00   0.08  -0.14
     3   6     0.00  -0.02   0.24     0.00  -0.05  -0.08     0.00  -0.06  -0.07
     4   6    -0.00  -0.02  -0.00     0.00  -0.09   0.00    -0.00   0.00   0.06
     5   6    -0.00  -0.02  -0.24     0.00  -0.05   0.08    -0.00   0.06  -0.07
     6   6     0.00   0.13   0.12    -0.00   0.12   0.16     0.00  -0.08  -0.14
     7   6     0.00  -0.13   0.12     0.00   0.12  -0.16    -0.00  -0.08   0.14
     8   6    -0.00   0.02  -0.24    -0.00  -0.05  -0.08     0.00   0.06   0.07
     9   6    -0.00   0.02   0.00    -0.00  -0.09   0.00    -0.00   0.00  -0.06
    10   6     0.00   0.02   0.24     0.00  -0.05   0.08    -0.00  -0.06   0.07
    11   1     0.00  -0.09  -0.20    -0.00   0.05   0.31    -0.00   0.02   0.25
    12   1     0.00   0.09  -0.20     0.00   0.05  -0.31     0.00   0.02  -0.25
    13   1    -0.00  -0.21   0.25    -0.00  -0.30  -0.09    -0.00  -0.38  -0.07
    14   1     0.00  -0.21  -0.25    -0.00  -0.30   0.09     0.00   0.38  -0.07
    15   1    -0.00   0.09   0.20     0.00   0.05   0.31    -0.00  -0.02  -0.25
    16   1    -0.00  -0.09   0.20    -0.00   0.05  -0.31     0.00  -0.02   0.25
    17   1     0.00   0.21  -0.25    -0.00  -0.30  -0.09    -0.00   0.38   0.07
    18   1    -0.00   0.21   0.25     0.00  -0.30   0.09     0.00  -0.38   0.07
                     25                     26                     27
                     B1U                    B3G                    B2U
 Frequencies --   1171.7394              1198.2343              1209.0796
 Red. masses --      2.1968                 1.5749                 2.0237
 Frc consts  --      1.7770                 1.3322                 1.7430
 IR Inten    --      0.9190                 0.0000                 2.3922
  Atom  AN      X      Y      Z        X      Y      Z        X      Y      Z
     1   6    -0.00  -0.01  -0.05     0.00  -0.07   0.02    -0.00   0.02  -0.04
     2   6     0.00   0.01  -0.05    -0.00   0.07   0.02     0.00   0.02   0.04
     3   6    -0.00   0.03   0.13     0.00  -0.06  -0.03     0.00  -0.08   0.02
     4   6     0.00   0.00  -0.11    -0.00  -0.08   0.00     0.00   0.17   0.00
     5   6     0.00  -0.03   0.13     0.00  -0.06   0.03    -0.00  -0.08  -0.02
     6   6    -0.00  -0.01  -0.05    -0.00   0.07  -0.02    -0.00   0.02  -0.04
     7   6    -0.00   0.01  -0.05    -0.00  -0.07  -0.02     0.00   0.02   0.04
     8   6     0.00   0.03   0.13     0.00   0.06   0.03    -0.00  -0.08   0.02
     9   6     0.00   0.00  -0.11    -0.00   0.08   0.00     0.00   0.17   0.00
    10   6     0.00  -0.03   0.13    -0.00   0.06  -0.03    -0.00  -0.08  -0.02
    11   1     0.00   0.16  -0.34    -0.00  -0.24   0.32     0.00   0.06  -0.12
    12   1     0.00  -0.16  -0.34     0.00   0.24   0.32     0.00   0.06   0.12
    13   1     0.00   0.25   0.14    -0.00  -0.28  -0.04    -0.00  -0.46   0.03
    14   1    -0.00  -0.25   0.14    -0.00  -0.28   0.04    -0.00  -0.46  -0.03
    15   1     0.00   0.16  -0.34     0.00   0.24  -0.32     0.00   0.06  -0.12
    16   1     0.00  -0.16  -0.34     0.00  -0.24  -0.32    -0.00   0.06   0.12
    17   1    -0.00   0.25   0.14    -0.00   0.28   0.04     0.00  -0.46   0.03
    18   1    -0.00  -0.25   0.14     0.00   0.28  -0.04    -0.00  -0.46  -0.03
                     28                     29                     30
                     AG                     B2U                    B3G
 Frequencies --   1234.5335              1251.0547              1299.8137
 Red. masses --      1.1689                 1.4716                 1.6251
 Frc consts  --      1.0496                 1.3570                 1.6177
 IR Inten    --      0.0000                 0.1766                 0.0000
  Atom  AN      X      Y      Z        X      Y      Z        X      Y      Z
     1   6     0.00  -0.01   0.02     0.00  -0.04   0.03    -0.00   0.04   0.03
     2   6    -0.00  -0.01  -0.02    -0.00  -0.04  -0.03    -0.00  -0.04   0.03
     3   6    -0.00  -0.01   0.01    -0.00   0.00   0.03     0.00   0.01   0.01
     4   6    -0.00   0.00  -0.07     0.00   0.11  -0.00    -0.00   0.15  -0.00
     5   6     0.00   0.01   0.01    -0.00   0.00  -0.03     0.00   0.01  -0.01
     6   6     0.00   0.01  -0.02     0.00  -0.04   0.03    -0.00  -0.04  -0.03
     7   6    -0.00   0.01   0.02    -0.00  -0.04  -0.03    -0.00   0.04  -0.03
     8   6     0.00   0.01  -0.01     0.00   0.00   0.03    -0.00  -0.01  -0.01
     9   6     0.00   0.00   0.07     0.00   0.11   0.00     0.00  -0.15  -0.00
    10   6    -0.00  -0.01  -0.01    -0.00   0.00  -0.03     0.00  -0.01   0.01
    11   1    -0.00  -0.21   0.38    -0.00  -0.26   0.41     0.00   0.07  -0.03
    12   1     0.00  -0.21  -0.38     0.00  -0.26  -0.41    -0.00  -0.07  -0.03
    13   1     0.00   0.24   0.01     0.00   0.07   0.04    -0.00  -0.48   0.01
    14   1    -0.00  -0.24   0.01    -0.00   0.07  -0.04    -0.00  -0.48  -0.01
    15   1    -0.00   0.21  -0.38     0.00  -0.26   0.41     0.00  -0.07   0.03
    16   1     0.00   0.21   0.38     0.00  -0.26  -0.41     0.00   0.07   0.03
    17   1     0.00  -0.24  -0.01     0.00   0.07   0.04    -0.00   0.48  -0.01
    18   1     0.00   0.24  -0.01    -0.00   0.07  -0.04     0.00   0.48   0.01
                     31                     32                     33
                     B1U                    AG                     B2U
 Frequencies --   1315.3576              1368.2397              1393.3322
 Red. masses --      1.8810                 6.9213                 2.9246
 Frc consts  --      1.9175                 7.6341                 3.3452
 IR Inten    --     10.3725                 0.0000                 1.6404
  Atom  AN      X      Y      Z        X      Y      Z        X      Y      Z
     1   6    -0.00   0.04  -0.01     0.00  -0.13   0.12     0.00  -0.10   0.10
     2   6     0.00  -0.04  -0.01    -0.00  -0.13  -0.12    -0.00  -0.10  -0.10
     3   6    -0.00   0.06  -0.05    -0.00   0.19  -0.02     0.00   0.14   0.07
     4   6    -0.00   0.00   0.15     0.00   0.00   0.36    -0.00  -0.02  -0.00
     5   6     0.00  -0.06  -0.05     0.00  -0.19  -0.02    -0.00   0.14  -0.07
     6   6    -0.00   0.04  -0.01    -0.00   0.13  -0.12     0.00  -0.10   0.10
     7   6    -0.00  -0.04  -0.01     0.00   0.13   0.12    -0.00  -0.10  -0.10
     8   6     0.00   0.06  -0.05    -0.00  -0.19   0.02     0.00   0.14   0.07
     9   6     0.00  -0.00   0.15    -0.00  -0.00  -0.36    -0.00  -0.02   0.00
    10   6    -0.00  -0.06  -0.05     0.00   0.19   0.02    -0.00   0.14  -0.07
    11   1     0.00   0.10  -0.12    -0.00  -0.13   0.11    -0.00   0.04  -0.16
    12   1    -0.00  -0.10  -0.12     0.00  -0.13  -0.11     0.00   0.04   0.16
    13   1     0.00   0.45  -0.05     0.00   0.30  -0.01     0.00  -0.42   0.08
    14   1    -0.00  -0.45  -0.05    -0.00  -0.30  -0.01    -0.00  -0.42  -0.08
    15   1     0.00   0.10  -0.12     0.00   0.13  -0.11     0.00   0.04  -0.16
    16   1     0.00  -0.10  -0.12    -0.00   0.13   0.11     0.00   0.04   0.16
    17   1    -0.00   0.45  -0.05     0.00  -0.30   0.01     0.00  -0.42   0.08
    18   1    -0.00  -0.45  -0.05     0.00   0.30   0.01    -0.00  -0.42  -0.08
                     34                     35                     36
                     B1U                    B3G                    AG
 Frequencies --   1452.4869              1501.0181              1512.2086
 Red. masses --      1.4100                 1.8200                 1.6324
 Frc consts  --      1.7526                 2.4160                 2.1994
 IR Inten    --      3.9785                 0.0000                 0.0000
  Atom  AN      X      Y      Z        X      Y      Z        X      Y      Z
     1   6     0.00   0.01  -0.05     0.00   0.07  -0.07     0.00   0.02   0.08
     2   6     0.00  -0.01  -0.05     0.00  -0.07  -0.07    -0.00   0.02  -0.08
     3   6    -0.00  -0.07   0.03    -0.00  -0.03   0.04    -0.00  -0.09   0.01
     4   6     0.00  -0.00  -0.02     0.00   0.11   0.00     0.00  -0.00   0.02
     5   6     0.00   0.07   0.03    -0.00  -0.03  -0.04     0.00   0.09   0.01
     6   6    -0.00   0.01  -0.05     0.00  -0.07   0.07     0.00  -0.02  -0.08
     7   6    -0.00  -0.01  -0.05     0.00   0.07   0.07    -0.00  -0.02   0.08
     8   6     0.00  -0.07   0.03    -0.00   0.03  -0.04     0.00   0.09  -0.01
     9   6    -0.00   0.00  -0.02    -0.00  -0.11  -0.00     0.00   0.00  -0.02
    10   6     0.00   0.07   0.03     0.00   0.03   0.04    -0.00  -0.09  -0.01
    11   1    -0.00  -0.20   0.33    -0.00  -0.19   0.41     0.00   0.19  -0.21
    12   1     0.00   0.20   0.33    -0.00   0.19   0.41     0.00   0.19   0.21
    13   1     0.00   0.30   0.03     0.00   0.17   0.05     0.00   0.39   0.01
    14   1    -0.00  -0.30   0.03     0.00   0.17  -0.05    -0.00  -0.39   0.01
    15   1     0.00  -0.20   0.33    -0.00   0.19  -0.41    -0.00  -0.19   0.21
    16   1     0.00   0.20   0.33    -0.00  -0.19  -0.41     0.00  -0.19  -0.21
    17   1    -0.00   0.30   0.03    -0.00  -0.17  -0.05     0.00  -0.39  -0.01
    18   1    -0.00  -0.30   0.03     0.00  -0.17   0.05     0.00   0.39  -0.01
                     37                     38                     39
                     B2U                    AG                     B1U
 Frequencies --   1534.0098              1569.5337              1607.4474
 Red. masses --      2.2918                 5.3737                 3.6668
 Frc consts  --      3.1775                 7.7994                 5.5823
 IR Inten    --      9.5637                 0.0000                 7.8905
  Atom  AN      X      Y      Z        X      Y      Z        X      Y      Z
     1   6     0.00  -0.01   0.13    -0.00   0.09  -0.19    -0.00   0.15  -0.08
     2   6    -0.00  -0.01  -0.13     0.00   0.09   0.19     0.00  -0.15  -0.08
     3   6    -0.00  -0.08   0.05     0.00  -0.11  -0.12    -0.00   0.16   0.05
     4   6     0.00   0.09   0.00     0.00  -0.00   0.24     0.00   0.00  -0.01
     5   6    -0.00  -0.08  -0.05    -0.00   0.11  -0.12     0.00  -0.16   0.05
     6   6    -0.00  -0.01   0.13     0.00  -0.09   0.19    -0.00   0.15  -0.08
     7   6     0.00  -0.01  -0.13    -0.00  -0.09  -0.19    -0.00  -0.15  -0.08
     8   6    -0.00  -0.08   0.05     0.00   0.11   0.12     0.00   0.16   0.05
     9   6     0.00   0.09  -0.00    -0.00   0.00  -0.24     0.00  -0.00  -0.01
    10   6    -0.00  -0.08  -0.05     0.00  -0.11   0.12     0.00  -0.16   0.05
    11   1     0.00   0.22  -0.26     0.00  -0.13   0.23    -0.00  -0.07   0.35
    12   1     0.00   0.22   0.26    -0.00  -0.13  -0.23    -0.00   0.07   0.35
    13   1     0.00   0.32   0.06    -0.00   0.25  -0.13     0.00  -0.25   0.07
    14   1     0.00   0.32  -0.06    -0.00  -0.25  -0.13     0.00   0.25   0.07
    15   1     0.00   0.22  -0.26     0.00   0.13  -0.23     0.00  -0.07   0.35
    16   1    -0.00   0.22   0.26     0.00   0.13   0.23     0.00   0.07   0.35
    17   1    -0.00   0.32   0.06    -0.00  -0.25   0.13    -0.00  -0.25   0.07
    18   1     0.00   0.32  -0.06     0.00   0.25   0.13     0.00   0.25   0.07
                     40                     41                     42
                     B3G                    B3G                    B1U
 Frequencies --   1634.0447              3167.2827              3169.1188
 Red. masses --      5.0168                 1.0879                 1.0880
 Frc consts  --      7.8922                 6.4298                 6.4382
 IR Inten    --      0.0000                 0.0000                16.6326
  Atom  AN      X      Y      Z        X      Y      Z        X      Y      Z
     1   6     0.00  -0.13   0.06     0.00   0.01   0.01     0.00   0.01   0.01
     2   6    -0.00   0.13   0.06     0.00  -0.01   0.01     0.00  -0.01   0.01
     3   6     0.00  -0.21  -0.03     0.00  -0.00  -0.04     0.00  -0.00  -0.04
     4   6     0.00   0.23  -0.00     0.00  -0.00   0.00    -0.00  -0.00   0.00
     5   6     0.00  -0.21   0.03     0.00  -0.00   0.04    -0.00   0.00  -0.04
     6   6    -0.00   0.13  -0.06     0.00  -0.01  -0.01    -0.00   0.01   0.01
     7   6    -0.00  -0.13  -0.06    -0.00   0.01  -0.01    -0.00  -0.01   0.01
     8   6     0.00   0.21   0.03    -0.00   0.00   0.04    -0.00  -0.00  -0.04
     9   6    -0.00  -0.23   0.00    -0.00   0.00  -0.00    -0.00   0.00   0.00
    10   6     0.00   0.21  -0.03    -0.00   0.00  -0.04    -0.00   0.00  -0.04
    11   1    -0.00   0.01  -0.22    -0.00  -0.17  -0.10    -0.00  -0.18  -0.11
    12   1     0.00  -0.01  -0.22    -0.00   0.17  -0.10    -0.00   0.18  -0.11
    13   1     0.00   0.33  -0.04     0.00   0.00   0.46     0.00  -0.00   0.45
    14   1     0.00   0.33   0.04    -0.00   0.00  -0.46     0.00   0.00   0.45
    15   1     0.00  -0.01   0.22     0.00   0.17   0.10    -0.00  -0.18  -0.11
    16   1     0.00   0.01   0.22     0.00  -0.17   0.10    -0.00   0.18  -0.11
    17   1    -0.00  -0.33   0.04    -0.00  -0.00  -0.46     0.00  -0.00   0.45
    18   1    -0.00  -0.33  -0.04     0.00  -0.00   0.46     0.00   0.00   0.45
                     43                     44                     45
                     B2U                    AG                     B3G
 Frequencies --   3169.8859              3172.2660              3194.1117
 Red. masses --      1.0892                 1.0882                 1.0920
 Frc consts  --      6.4483                 6.4523                 6.5642
 IR Inten    --      0.0010                 0.0000                 0.0000
  Atom  AN      X      Y      Z        X      Y      Z        X      Y      Z
     1   6     0.00  -0.01  -0.01     0.00  -0.01  -0.01    -0.00  -0.04  -0.02
     2   6     0.00  -0.01   0.01    -0.00  -0.01   0.01    -0.00   0.04  -0.02
     3   6     0.00  -0.00  -0.04    -0.00  -0.00  -0.04    -0.00  -0.00  -0.02
     4   6     0.00  -0.00   0.00    -0.00  -0.00  -0.00    -0.00  -0.00   0.00
     5   6     0.00  -0.00   0.04    -0.00   0.00  -0.04     0.00  -0.00   0.02
     6   6     0.00  -0.01  -0.01    -0.00   0.01   0.01     0.00   0.04   0.02
     7   6    -0.00  -0.01   0.01     0.00   0.01  -0.01     0.00  -0.04   0.02
     8   6    -0.00  -0.00  -0.04     0.00   0.00   0.04     0.00   0.00   0.02
     9   6    -0.00  -0.00  -0.00     0.00  -0.00   0.00    -0.00   0.00   0.00
    10   6     0.00  -0.00   0.04     0.00  -0.00   0.04    -0.00   0.00  -0.02
    11   1     0.00   0.12   0.07     0.00   0.13   0.08     0.00   0.40   0.22
    12   1    -0.00   0.12  -0.07    -0.00   0.13  -0.08     0.00  -0.40   0.22
    13   1     0.00   0.00   0.48     0.00  -0.00   0.47     0.00   0.00   0.19
    14   1    -0.00   0.00  -0.48     0.00   0.00   0.47    -0.00   0.00  -0.19
    15   1     0.00   0.12   0.07    -0.00  -0.13  -0.08    -0.00  -0.40  -0.22
    16   1    -0.00   0.12  -0.07     0.00  -0.13   0.08     0.00   0.40  -0.22
    17   1     0.00   0.00   0.48    -0.00   0.00  -0.47    -0.00  -0.00  -0.19
    18   1    -0.00   0.00  -0.48    -0.00  -0.00  -0.47     0.00  -0.00   0.19
                     46                     47                     48
                     B1U                    B2U                    AG
 Frequencies --   3194.4528              3210.8921              3211.7389
 Red. masses --      1.0919                 1.0967                 1.0965
 Frc consts  --      6.5646                 6.6620                 6.6640
 IR Inten    --     32.3626                38.6648                 0.0000
  Atom  AN      X      Y      Z        X      Y      Z        X      Y      Z
     1   6    -0.00  -0.04  -0.02    -0.00  -0.04  -0.02    -0.00  -0.04  -0.02
     2   6    -0.00   0.04  -0.02     0.00  -0.04   0.02     0.00  -0.04   0.02
     3   6    -0.00  -0.00  -0.02     0.00   0.00   0.01     0.00   0.00   0.01
     4   6    -0.00   0.00   0.00     0.00   0.00  -0.00     0.00   0.00   0.00
     5   6    -0.00   0.00  -0.02    -0.00   0.00  -0.01     0.00  -0.00   0.01
     6   6     0.00  -0.04  -0.02    -0.00  -0.04  -0.02     0.00   0.04   0.02
     7   6     0.00   0.04  -0.02    -0.00  -0.04   0.02    -0.00   0.04  -0.02
     8   6    -0.00  -0.00  -0.02    -0.00   0.00   0.01    -0.00  -0.00  -0.01
     9   6    -0.00  -0.00   0.00    -0.00   0.00   0.00    -0.00   0.00  -0.00
    10   6    -0.00   0.00  -0.02    -0.00   0.00  -0.01    -0.00   0.00  -0.01
    11   1     0.00   0.39   0.22     0.00   0.42   0.24     0.00   0.41   0.23
    12   1     0.00  -0.39   0.22    -0.00   0.42  -0.24    -0.00   0.41  -0.23
    13   1     0.00   0.00   0.21    -0.00  -0.00  -0.14    -0.00  -0.00  -0.15
    14   1     0.00  -0.00   0.21     0.00  -0.00   0.14    -0.00   0.00  -0.15
    15   1     0.00   0.39   0.22     0.00   0.42   0.24    -0.00  -0.41  -0.23
    16   1     0.00  -0.39   0.22    -0.00   0.42  -0.24     0.00  -0.41   0.23
    17   1     0.00   0.00   0.21    -0.00  -0.00  -0.14     0.00   0.00   0.15
    18   1     0.00  -0.00   0.21     0.00  -0.00   0.14     0.00  -0.00   0.15

 -------------------
 - Thermochemistry -
 -------------------
 Temperature   298.150 Kelvin.  Pressure   1.00000 Atm.
 Atom     1 has atomic number  6 and mass  12.00000
 Atom     2 has atomic number  6 and mass  12.00000
 Atom     3 has atomic number  6 and mass  12.00000
 Atom     4 has atomic number  6 and mass  12.00000
 Atom     5 has atomic number  6 and mass  12.00000
 Atom     6 has atomic number  6 and mass  12.00000
 Atom     7 has atomic number  6 and mass  12.00000
 Atom     8 has atomic number  6 and mass  12.00000
 Atom     9 has atomic number  6 and mass  12.00000
 Atom    10 has atomic number  6 and mass  12.00000
 Atom    11 has atomic number  1 and mass   1.00783
 Atom    12 has atomic number  1 and mass   1.00783
 Atom    13 has atomic number  1 and mass   1.00783
 Atom    14 has atomic number  1 and mass   1.00783
 Atom    15 has atomic number  1 and mass   1.00783
 Atom    16 has atomic number  1 and mass   1.00783
 Atom    17 has atomic number  1 and mass   1.00783
 Atom    18 has atomic number  1 and mass   1.00783
 Molecular mass:   128.06260 amu.
 Principal axes and moments of inertia in atomic units:
                           1         2         3
     Eigenvalues --   587.711371486.900442074.61182
           X            0.00000  -0.00000   1.00000
           Y            1.00000  -0.00000  -0.00000
           Z            0.00000   1.00000   0.00000
 This molecule is an asymmetric top.
 Rotational symmetry number  4.
 Warning -- assumption of classical behavior for rotation
           may cause significant error
 Rotational temperatures (Kelvin)      0.14737     0.05825     0.04175
 Rotational constants (GHZ):           3.07080     1.21376     0.86992
 Zero-point vibrational energy     382364.5 (Joules/Mol)
                                   91.38730 (Kcal/Mol)
 Warning -- explicit consideration of  10 degrees of freedom as
           vibrations may cause significant error
 Vibrational temperatures:    234.24   263.94   534.76   547.33   631.67
          (Kelvin)            657.40   757.63   765.65   796.70   850.82
                              940.00  1014.08  1095.78  1098.02  1169.91
                             1183.39  1184.96  1295.31  1295.67  1298.21
                             1323.83  1397.30  1465.02  1484.22  1685.87
                             1723.99  1739.60  1776.22  1799.99  1870.14
                             1892.51  1968.59  2004.69  2089.80  2159.63
                             2175.73  2207.10  2258.21  2312.76  2351.03
                             4557.01  4559.66  4560.76  4564.18  4595.61
                             4596.11  4619.76  4620.98
 
 Zero-point correction=                           0.145635 (Hartree/Particle)
 Thermal correction to Energy=                    0.152742
 Thermal correction to Enthalpy=                  0.153686
 Thermal correction to Gibbs Free Energy=         0.115537
 Sum of electronic and zero-point Energies=           -381.934086
 Sum of electronic and thermal Energies=              -381.926979
 Sum of electronic and thermal Enthalpies=            -381.926035
 Sum of electronic and thermal Free Energies=         -381.964184
 
                     E (Thermal)             CV                S
                      KCal/Mol        Cal/Mol-Kelvin    Cal/Mol-Kelvin
 Total                   95.847             30.104             80.292
 Electronic               0.000              0.000              0.000
 Translational            0.889              2.981             40.455
 Rotational               0.889              2.981             26.230
 Vibrational             94.069             24.142             13.607
 Vibration     1          0.623              1.888              2.517
 Vibration     2          0.631              1.862              2.293
 Vibration     3          0.743              1.530              1.073
 Vibration     4          0.750              1.512              1.038
 Vibration     5          0.799              1.385              0.830
 Vibration     6          0.815              1.346              0.775
 Vibration     7          0.882              1.191              0.595
 Vibration     8          0.887              1.179              0.582
 Vibration     9          0.909              1.132              0.536
 Vibration    10          0.949              1.050              0.465
                       Q            Log10(Q)             Ln(Q)
 Total Bot       0.719107D-53        -53.143206       -122.366755
 Total V=0       0.698478D+14         13.844153         31.877340
 Vib (Bot)       0.104768D-65        -65.979771       -151.924036
 Vib (Bot)    1  0.124070D+01          0.093668          0.215680
 Vib (Bot)    2  0.109354D+01          0.038835          0.089420
 Vib (Bot)    3  0.489267D+00         -0.310454         -0.714847
 Vib (Bot)    4  0.475153D+00         -0.323167         -0.744119
 Vib (Bot)    5  0.394061D+00         -0.404437         -0.931250
 Vib (Bot)    6  0.373201D+00         -0.428058         -0.985639
 Vib (Bot)    7  0.304680D+00         -0.516155         -1.188492
 Vib (Bot)    8  0.299927D+00         -0.522984         -1.204215
 Vib (Bot)    9  0.282392D+00         -0.549147         -1.264459
 Vib (Bot)   10  0.254748D+00         -0.593888         -1.367479
 Vib (V=0)       0.101763D+02          1.007589          2.320058
 Vib (V=0)    1  0.183767D+01          0.264266          0.608496
 Vib (V=0)    2  0.170243D+01          0.231068          0.532055
 Vib (V=0)    3  0.119956D+01          0.079021          0.181954
 Vib (V=0)    4  0.118976D+01          0.075460          0.173752
 Vib (V=0)    5  0.113662D+01          0.055615          0.128058
 Vib (V=0)    6  0.112392D+01          0.050736          0.116824
 Vib (V=0)    7  0.108552D+01          0.035637          0.082056
 Vib (V=0)    8  0.108306D+01          0.034652          0.079788
 Vib (V=0)    9  0.107423D+01          0.031099          0.071608
 Vib (V=0)   10  0.106116D+01          0.025780          0.059359
 Electronic      0.100000D+01          0.000000          0.000000
 Translational   0.569623D+08          7.755587         17.857900
 Rotational      0.120497D+06          5.080977         11.699382
 ***** Axes restored to original set *****
 -------------------------------------------------------------------
 Center     Atomic                   Forces (Hartrees/Bohr)
 Number     Number              X              Y              Z
 -------------------------------------------------------------------
      1        6           0.000005912    0.000028610   -0.000024417
      2        6          -0.000020237   -0.000016090   -0.000027950
      3        6           0.000063200    0.000075879    0.000052356
      4        6          -0.000134569   -0.000230031   -0.000018182
      5        6           0.000038306    0.000097634   -0.000038642
      6        6          -0.000005912   -0.000028610    0.000024417
      7        6           0.000020237    0.000016090    0.000027950
      8        6          -0.000063200   -0.000075879   -0.000052356
      9        6           0.000134569    0.000230031    0.000018182
     10        6          -0.000038306   -0.000097634    0.000038642
     11        1          -0.000003128   -0.000011251    0.000007624
     12        1           0.000007699    0.000007256    0.000009086
     13        1          -0.000009045   -0.000000105   -0.000022150
     14        1           0.000002844   -0.000010496    0.000021312
     15        1           0.000003128    0.000011251   -0.000007624
     16        1          -0.000007699   -0.000007256   -0.000009086
     17        1           0.000009045    0.000000105    0.000022150
     18        1          -0.000002844    0.000010496   -0.000021312
 -------------------------------------------------------------------
 Cartesian Forces:  Max     0.000230031 RMS     0.000061093
 FormGI is forming the generalized inverse of G from B-inverse, IUseBI=4.

 GradGradGradGradGradGradGradGradGradGradGradGradGradGradGradGradGradGrad
 Berny optimization.
 Internal  Forces:  Max     0.000133509 RMS     0.000022985
 Search for a local minimum.
 Step number   1 out of a maximum of    2
 All quantities printed in internal units (Hartrees-Bohrs-Radians)
 Second derivative matrix not updated -- analytic derivatives used.
 ITU=  0
     Eigenvalues ---    0.00834   0.01180   0.01334   0.01553   0.01572
     Eigenvalues ---    0.01705   0.01893   0.01992   0.02135   0.02210
     Eigenvalues ---    0.02229   0.02518   0.02528   0.02624   0.02677
     Eigenvalues ---    0.11781   0.11969   0.12423   0.12511   0.13137
     Eigenvalues ---    0.13350   0.13352   0.13636   0.19218   0.19521
     Eigenvalues ---    0.20226   0.20420   0.21426   0.21496   0.25985
     Eigenvalues ---    0.26281   0.33762   0.35315   0.35555   0.35730
     Eigenvalues ---    0.35909   0.35954   0.36024   0.36150   0.36310
     Eigenvalues ---    0.36894   0.37547   0.38058   0.41640   0.46299
     Eigenvalues ---    0.46880   0.48167   0.48871
 Angle between quadratic step and forces=  13.43 degrees.
 Linear search not attempted -- first point.
 Iteration  1 RMS(Cart)=  0.00007627 RMS(Int)=  0.00000001
 Iteration  2 RMS(Cart)=  0.00000002 RMS(Int)=  0.00000001
 ClnCor:  largest displacement from symmetrization is 1.96D-08 for atom    15.
 Variable       Old X    -DE/DX   Delta X   Delta X   Delta X     New X
                                 (Linear)    (Quad)   (Total)
    R1        2.70028   0.00001   0.00000   0.00003   0.00003   2.70031
    R2        2.61913   0.00003   0.00000   0.00009   0.00009   2.61921
    R3        2.05440  -0.00000   0.00000  -0.00000  -0.00000   2.05439
    R4        2.61913   0.00003   0.00000   0.00009   0.00009   2.61921
    R5        2.05440  -0.00000   0.00000  -0.00000  -0.00000   2.05439
    R6        2.70780   0.00003   0.00000   0.00012   0.00012   2.70792
    R7        2.05878  -0.00001   0.00000  -0.00004  -0.00004   2.05875
    R8        2.70780   0.00003   0.00000   0.00012   0.00012   2.70792
    R9        2.72388  -0.00013   0.00000  -0.00057  -0.00057   2.72332
   R10        2.61913   0.00003   0.00000   0.00009   0.00009   2.61921
   R11        2.05878  -0.00001   0.00000  -0.00004  -0.00004   2.05875
   R12        2.70028   0.00001   0.00000   0.00003   0.00003   2.70031
   R13        2.05440  -0.00000   0.00000  -0.00000  -0.00000   2.05439
   R14        2.61913   0.00003   0.00000   0.00009   0.00009   2.61921
   R15        2.05440  -0.00000   0.00000  -0.00000  -0.00000   2.05439
   R16        2.70780   0.00003   0.00000   0.00012   0.00012   2.70792
   R17        2.05878  -0.00001   0.00000  -0.00004  -0.00004   2.05875
   R18        2.70780   0.00003   0.00000   0.00012   0.00012   2.70792
   R19        2.05878  -0.00001   0.00000  -0.00004  -0.00004   2.05875
    A1        2.10024  -0.00000   0.00000   0.00003   0.00003   2.10027
    A2        2.08590   0.00001   0.00000   0.00008   0.00008   2.08599
    A3        2.09704  -0.00001   0.00000  -0.00011  -0.00011   2.09693
    A4        2.10024  -0.00000   0.00000   0.00003   0.00003   2.10027
    A5        2.08590   0.00001   0.00000   0.00008   0.00008   2.08599
    A6        2.09704  -0.00001   0.00000  -0.00011  -0.00011   2.09693
    A7        2.10674  -0.00003   0.00000  -0.00017  -0.00017   2.10657
    A8        2.10260  -0.00001   0.00000  -0.00009  -0.00009   2.10251
    A9        2.07385   0.00004   0.00000   0.00026   0.00026   2.07410
   A10        2.13079  -0.00006   0.00000  -0.00029  -0.00029   2.13050
   A11        2.07620   0.00003   0.00000   0.00014   0.00014   2.07634
   A12        2.07620   0.00003   0.00000   0.00014   0.00014   2.07634
   A13        2.10674  -0.00003   0.00000  -0.00017  -0.00017   2.10657
   A14        2.07385   0.00004   0.00000   0.00026   0.00026   2.07410
   A15        2.10260  -0.00001   0.00000  -0.00009  -0.00009   2.10251
   A16        2.10024  -0.00000   0.00000   0.00003   0.00003   2.10027
   A17        2.09704  -0.00001   0.00000  -0.00011  -0.00011   2.09693
   A18        2.08590   0.00001   0.00000   0.00008   0.00008   2.08599
   A19        2.10024  -0.00000   0.00000   0.00003   0.00003   2.10027
   A20        2.08590   0.00001   0.00000   0.00008   0.00008   2.08599
   A21        2.09704  -0.00001   0.00000  -0.00011  -0.00011   2.09693
   A22        2.10674  -0.00003   0.00000  -0.00017  -0.00017   2.10657
   A23        2.10260  -0.00001   0.00000  -0.00009  -0.00009   2.10251
   A24        2.07385   0.00004   0.00000   0.00026   0.00026   2.07410
   A25        2.07620   0.00003   0.00000   0.00014   0.00014   2.07634
   A26        2.07620   0.00003   0.00000   0.00014   0.00014   2.07634
   A27        2.13079  -0.00006   0.00000  -0.00029  -0.00029   2.13050
   A28        2.10674  -0.00003   0.00000  -0.00017  -0.00017   2.10657
   A29        2.10260  -0.00001   0.00000  -0.00009  -0.00009   2.10251
   A30        2.07385   0.00004   0.00000   0.00026   0.00026   2.07410
    D1        0.00000  -0.00000   0.00000  -0.00000  -0.00000   0.00000
    D2        3.14159  -0.00000   0.00000  -0.00000   0.00000   3.14159
    D3       -3.14159  -0.00000   0.00000  -0.00000  -0.00000   3.14159
    D4        0.00000  -0.00000   0.00000  -0.00000   0.00000   0.00000
    D5       -0.00000  -0.00000   0.00000  -0.00000   0.00000   0.00000
    D6        3.14159   0.00000   0.00000  -0.00000  -0.00000   3.14159
    D7        3.14159  -0.00000   0.00000  -0.00000   0.00000   3.14159
    D8        0.00000  -0.00000   0.00000  -0.00000  -0.00000  -0.00000
    D9       -0.00000   0.00000   0.00000   0.00000   0.00000  -0.00000
   D10        3.14159   0.00000   0.00000   0.00000   0.00000   3.14159
   D11        3.14159   0.00000   0.00000   0.00000   0.00000   3.14159
   D12       -0.00000   0.00000   0.00000   0.00000   0.00000   0.00000
   D13        3.14159  -0.00000   0.00000  -0.00000   0.00000   3.14159
   D14        0.00000  -0.00000   0.00000  -0.00000   0.00000   0.00000
   D15        0.00000  -0.00000   0.00000  -0.00000   0.00000   0.00000
   D16        3.14159   0.00000   0.00000   0.00000   0.00000  -3.14159
   D17       -3.14159   0.00000   0.00000   0.00000  -0.00000   3.14159
   D18        0.00000   0.00000   0.00000   0.00000  -0.00000   0.00000
   D19       -0.00000   0.00000   0.00000   0.00000   0.00000   0.00000
   D20        3.14159   0.00000   0.00000   0.00000   0.00000   3.14159
   D21        3.14159  -0.00000   0.00000  -0.00000  -0.00000   3.14159
   D22       -0.00000  -0.00000   0.00000  -0.00000  -0.00000  -0.00000
   D23        0.00000  -0.00000   0.00000  -0.00000   0.00000   0.00000
   D24       -3.14159  -0.00000   0.00000  -0.00000  -0.00000   3.14159
   D25       -0.00000   0.00000   0.00000   0.00000  -0.00000  -0.00000
   D26        3.14159   0.00000   0.00000   0.00000  -0.00000   3.14159
   D27        3.14159   0.00000   0.00000   0.00000   0.00000   3.14159
   D28        0.00000   0.00000   0.00000   0.00000   0.00000   0.00000
   D29        0.00000  -0.00000   0.00000  -0.00000   0.00000   0.00000
   D30        3.14159  -0.00000   0.00000  -0.00000   0.00000   3.14159
   D31        3.14159  -0.00000   0.00000  -0.00000   0.00000   3.14159
   D32       -0.00000   0.00000   0.00000  -0.00000   0.00000   0.00000
   D33       -0.00000   0.00000   0.00000   0.00000   0.00000   0.00000
   D34        3.14159   0.00000   0.00000   0.00000   0.00000   3.14159
   D35        3.14159   0.00000   0.00000   0.00000   0.00000   3.14159
   D36       -0.00000   0.00000   0.00000   0.00000   0.00000   0.00000
   D37        0.00000   0.00000   0.00000   0.00000   0.00000   0.00000
   D38       -3.14159  -0.00000   0.00000  -0.00000  -0.00000   3.14159
   D39        3.14159   0.00000   0.00000   0.00000   0.00000   3.14159
   D40        0.00000   0.00000   0.00000   0.00000   0.00000   0.00000
   D41        0.00000   0.00000   0.00000   0.00000   0.00000   0.00000
   D42        3.14159   0.00000   0.00000   0.00000   0.00000   3.14159
   D43        3.14159   0.00000   0.00000   0.00000   0.00000  -3.14159
   D44       -0.00000   0.00000   0.00000   0.00000  -0.00000  -0.00000
         Item               Value     Threshold  Converged?
 Maximum Force            0.000134     0.000450     YES
 RMS     Force            0.000023     0.000300     YES
 Maximum Displacement     0.000244     0.001800     YES
 RMS     Displacement     0.000076     0.001200     YES
 Predicted change in Energy=-1.156526D-07
 Optimization completed.
    -- Stationary point found.
                           ----------------------------
                           !   Optimized Parameters   !
                           ! (Angstroms and Degrees)  !
 --------------------------                            --------------------------
 ! Name  Definition              Value          Derivative Info.                !
 --------------------------------------------------------------------------------
 ! R1    R(1,2)                  1.4289         -DE/DX =    0.0                 !
 ! R2    R(1,10)                 1.386          -DE/DX =    0.0                 !
 ! R3    R(1,11)                 1.0871         -DE/DX =    0.0                 !
 ! R4    R(2,3)                  1.386          -DE/DX =    0.0                 !
 ! R5    R(2,12)                 1.0871         -DE/DX =    0.0                 !
 ! R6    R(3,4)                  1.4329         -DE/DX =    0.0                 !
 ! R7    R(3,13)                 1.0895         -DE/DX =    0.0                 !
 ! R8    R(4,5)                  1.4329         -DE/DX =    0.0                 !
 ! R9    R(4,9)                  1.4414         -DE/DX =   -0.0001              !
 ! R10   R(5,6)                  1.386          -DE/DX =    0.0                 !
 ! R11   R(5,14)                 1.0895         -DE/DX =    0.0                 !
 ! R12   R(6,7)                  1.4289         -DE/DX =    0.0                 !
 ! R13   R(6,15)                 1.0871         -DE/DX =    0.0                 !
 ! R14   R(7,8)                  1.386          -DE/DX =    0.0                 !
 ! R15   R(7,16)                 1.0871         -DE/DX =    0.0                 !
 ! R16   R(8,9)                  1.4329         -DE/DX =    0.0                 !
 ! R17   R(8,17)                 1.0895         -DE/DX =    0.0                 !
 ! R18   R(9,10)                 1.4329         -DE/DX =    0.0                 !
 ! R19   R(10,18)                1.0895         -DE/DX =    0.0                 !
 ! A1    A(2,1,10)             120.3351         -DE/DX =    0.0                 !
 ! A2    A(2,1,11)             119.5135         -DE/DX =    0.0                 !
 ! A3    A(10,1,11)            120.1514         -DE/DX =    0.0                 !
 ! A4    A(1,2,3)              120.3351         -DE/DX =    0.0                 !
 ! A5    A(1,2,12)             119.5135         -DE/DX =    0.0                 !
 ! A6    A(3,2,12)             120.1514         -DE/DX =    0.0                 !
 ! A7    A(2,3,4)              120.7075         -DE/DX =    0.0                 !
 ! A8    A(2,3,13)             120.4699         -DE/DX =    0.0                 !
 ! A9    A(4,3,13)             118.8226         -DE/DX =    0.0                 !
 ! A10   A(3,4,5)              122.0852         -DE/DX =   -0.0001              !
 ! A11   A(3,4,9)              118.9574         -DE/DX =    0.0                 !
 ! A12   A(5,4,9)              118.9574         -DE/DX =    0.0                 !
 ! A13   A(4,5,6)              120.7075         -DE/DX =    0.0                 !
 ! A14   A(4,5,14)             118.8226         -DE/DX =    0.0                 !
 ! A15   A(6,5,14)             120.4699         -DE/DX =    0.0                 !
 ! A16   A(5,6,7)              120.3351         -DE/DX =    0.0                 !
 ! A17   A(5,6,15)             120.1514         -DE/DX =    0.0                 !
 ! A18   A(7,6,15)             119.5135         -DE/DX =    0.0                 !
 ! A19   A(6,7,8)              120.3351         -DE/DX =    0.0                 !
 ! A20   A(6,7,16)             119.5135         -DE/DX =    0.0                 !
 ! A21   A(8,7,16)             120.1514         -DE/DX =    0.0                 !
 ! A22   A(7,8,9)              120.7075         -DE/DX =    0.0                 !
 ! A23   A(7,8,17)             120.4699         -DE/DX =    0.0                 !
 ! A24   A(9,8,17)             118.8226         -DE/DX =    0.0                 !
 ! A25   A(4,9,8)              118.9574         -DE/DX =    0.0                 !
 ! A26   A(4,9,10)             118.9574         -DE/DX =    0.0                 !
 ! A27   A(8,9,10)             122.0852         -DE/DX =   -0.0001              !
 ! A28   A(1,10,9)             120.7075         -DE/DX =    0.0                 !
 ! A29   A(1,10,18)            120.4699         -DE/DX =    0.0                 !
 ! A30   A(9,10,18)            118.8226         -DE/DX =    0.0                 !
 ! D1    D(10,1,2,3)             0.0            -DE/DX =    0.0                 !
 ! D2    D(10,1,2,12)          180.0            -DE/DX =    0.0                 !
 ! D3    D(11,1,2,3)           180.0            -DE/DX =    0.0                 !
 ! D4    D(11,1,2,12)            0.0            -DE/DX =    0.0                 !
 ! D5    D(2,1,10,9)             0.0            -DE/DX =    0.0                 !
 ! D6    D(2,1,10,18)          180.0            -DE/DX =    0.0                 !
 ! D7    D(11,1,10,9)          180.0            -DE/DX =    0.0                 !
 ! D8    D(11,1,10,18)           0.0            -DE/DX =    0.0                 !
 ! D9    D(1,2,3,4)              0.0            -DE/DX =    0.0                 !
 ! D10   D(1,2,3,13)           180.0            -DE/DX =    0.0                 !
 ! D11   D(12,2,3,4)           180.0            -DE/DX =    0.0                 !
 ! D12   D(12,2,3,13)            0.0            -DE/DX =    0.0                 !
 ! D13   D(2,3,4,5)            180.0            -DE/DX =    0.0                 !
 ! D14   D(2,3,4,9)              0.0            -DE/DX =    0.0                 !
 ! D15   D(13,3,4,5)             0.0            -DE/DX =    0.0                 !
 ! D16   D(13,3,4,9)          -180.0            -DE/DX =    0.0                 !
 ! D17   D(3,4,5,6)            180.0            -DE/DX =    0.0                 !
 ! D18   D(3,4,5,14)             0.0            -DE/DX =    0.0                 !
 ! D19   D(9,4,5,6)              0.0            -DE/DX =    0.0                 !
 ! D20   D(9,4,5,14)           180.0            -DE/DX =    0.0                 !
 ! D21   D(3,4,9,8)            180.0            -DE/DX =    0.0                 !
 ! D22   D(3,4,9,10)             0.0            -DE/DX =    0.0                 !
 ! D23   D(5,4,9,8)              0.0            -DE/DX =    0.0                 !
 ! D24   D(5,4,9,10)           180.0            -DE/DX =    0.0                 !
 ! D25   D(4,5,6,7)              0.0            -DE/DX =    0.0                 !
 ! D26   D(4,5,6,15)           180.0            -DE/DX =    0.0                 !
 ! D27   D(14,5,6,7)           180.0            -DE/DX =    0.0                 !
 ! D28   D(14,5,6,15)            0.0            -DE/DX =    0.0                 !
 ! D29   D(5,6,7,8)              0.0            -DE/DX =    0.0                 !
 ! D30   D(5,6,7,16)           180.0            -DE/DX =    0.0                 !
 ! D31   D(15,6,7,8)           180.0            -DE/DX =    0.0                 !
 ! D32   D(15,6,7,16)            0.0            -DE/DX =    0.0                 !
 ! D33   D(6,7,8,9)              0.0            -DE/DX =    0.0                 !
 ! D34   D(6,7,8,17)           180.0            -DE/DX =    0.0                 !
 ! D35   D(16,7,8,9)           180.0            -DE/DX =    0.0                 !
 ! D36   D(16,7,8,17)            0.0            -DE/DX =    0.0                 !
 ! D37   D(7,8,9,4)              0.0            -DE/DX =    0.0                 !
 ! D38   D(7,8,9,10)           180.0            -DE/DX =    0.0                 !
 ! D39   D(17,8,9,4)           180.0            -DE/DX =    0.0                 !
 ! D40   D(17,8,9,10)            0.0            -DE/DX =    0.0                 !
 ! D41   D(4,9,10,1)             0.0            -DE/DX =    0.0                 !
 ! D42   D(4,9,10,18)          180.0            -DE/DX =    0.0                 !
 ! D43   D(8,9,10,1)          -180.0            -DE/DX =    0.0                 !
 ! D44   D(8,9,10,18)            0.0            -DE/DX =    0.0                 !
 --------------------------------------------------------------------------------
 GradGradGradGradGradGradGradGradGradGradGradGradGradGradGradGradGradGrad

 Dipole is zero, so no output in dipole orientation.

 ----------------------------------------------------------------------

 Electric dipole moment (input orientation):
 (Debye = 10**-18 statcoulomb cm , SI units = C m)
                  (au)            (Debye)         (10**-30 SI)
   Tot        0.000000D+00      0.000000D+00      0.000000D+00
   x          0.000000D+00      0.000000D+00      0.000000D+00
   y          0.000000D+00      0.000000D+00      0.000000D+00
   z          0.000000D+00      0.000000D+00      0.000000D+00

 Dipole polarizability, Alpha (input orientation).
 (esu units = cm**3 , SI units = C**2 m**2 J**-1)
 Alpha(0;0):
               (au)            (10**-24 esu)      (10**-40 SI)
   iso        0.892298D+02      0.132225D+02      0.147120D+02
   aniso      0.104891D+03      0.155433D+02      0.172942D+02
   xx         0.511352D+02      0.757745D+01      0.843106D+01
   yx         0.277222D+02      0.410801D+01      0.457077D+01
   yy         0.881693D+02      0.130653D+02      0.145372D+02
   zx         0.314494D+02      0.466031D+01      0.518530D+01
   zy        -0.204223D+02     -0.302628D+01     -0.336719D+01
   zz         0.128385D+03      0.190247D+02      0.211678D+02

 ----------------------------------------------------------------------
 Unable to Open any file for archive entry.
 1\1\GINC-BS001\Freq\RMP2-FC\3-21G\C10H8\PNATT\14-Aug-2026\0\\#N Geom=A
 llCheck Guess=TCheck SCRF=Check GenChk RMP2(FC)/3-21G Freq\\Naphthalen
 e C10H8 - size6to10_D2h\\0,1\C,-0.8591275314,0.1260639613,-2.695412141
 3\C,-0.1392706532,1.3565854649,-2.5981506078\C,0.520941202,1.690593237
 7,-1.4261826164\C,0.4938106625,0.811439695,-0.2949995761\C,1.165671750
 7,1.1271406502,0.9306258452\C,1.1206007667,0.2555397446,2.0073014354\C
 ,0.4007438884,-0.974981759,1.9100399019\C,-0.2594679667,-1.3089895318,
 0.7380719105\C,-0.2323374272,-0.4298359891,-0.3931111298\C,-0.90419851
 54,-0.7455369444,-1.6187365511\H,-1.3721784276,-0.122543138,-3.6210714
 615\H,-0.112723763,2.0303654393,-3.4509036188\H,1.0704407276,2.6282038
 748,-1.3496184906\H,1.7138532545,2.0659031527,1.0023719508\H,1.6336516
 629,0.5041468439,2.9329607556\H,0.3741969983,-1.6487617334,2.762792913
 \H,-0.8089674923,-2.246600169,0.6615077848\H,-1.4523800192,-1.68429944
 68,-1.6904826567\\Version=ES64L-G16RevC.01\State=1-AG\HF=-381.208784\M
 P2=-382.0797209\RMSD=5.827e-10\RMSF=6.109e-05\ZeroPoint=0.1456349\Ther
 mal=0.1527418\ETot=-381.9269791\HTot=-381.9260349\GTot=-381.9641841\Di
 pole=0.,0.,0.\DipoleDeriv=-0.0729904,0.0621703,0.0860449,0.0572132,-0.
 0710891,0.0439924,0.0928001,0.0562094,0.0098338,-0.1222536,0.0366344,-
 0.0005686,0.0415915,0.0025053,-0.0947973,-0.0073237,-0.1070143,-0.0144
 974,-0.0745677,0.1359194,-0.0011839,0.1054353,0.0930587,-0.0703379,0.0
 403577,0.0047919,-0.0563075,-0.0232275,-0.086156,0.0048486,-0.086156,-
 0.1177645,-0.0212709,0.0048486,-0.0212709,0.0633796,-0.0566322,0.11292
 75,0.0743509,0.1434116,0.0662649,0.0597697,0.0328093,-0.0153602,-0.047
 4491,-0.0729904,0.0621703,0.0860449,0.0572132,-0.0710891,0.0439924,0.0
 928001,0.0562094,0.0098338,-0.1222536,0.0366344,-0.0005686,0.0415915,0
 .0025053,-0.0947973,-0.0073237,-0.1070143,-0.0144974,-0.0745677,0.1359
 194,-0.0011839,0.1054353,0.0930587,-0.070338,0.0403577,0.0047919,-0.05
 63075,-0.0232274,-0.0861559,0.0048486,-0.0861559,-0.1177644,-0.0212709
 ,0.0048486,-0.0212709,0.0633796,-0.0566322,0.1129275,0.0743509,0.14341
 16,0.0662648,0.0597697,0.0328093,-0.0153602,-0.0474491,0.0805841,-0.04
 48931,-0.0904704,-0.04501,0.0758397,-0.0206138,-0.0903111,-0.0203258,-
 0.052763,0.1184655,-0.0291857,-0.0185144,-0.0290689,0.0192486,0.095792
 3,-0.0186737,0.0955043,-0.0340533,0.0744409,-0.1027005,-0.0171439,-0.0
 854431,-0.0327322,0.022332,-0.0406609,-0.0201997,0.0654988,0.0761808,-
 0.0847163,-0.0373633,-0.1019737,-0.0353314,-0.0148665,-0.0138463,0.027
 6652,0.0663581,0.0805841,-0.0448931,-0.0904704,-0.04501,0.0758397,-0.0
 206138,-0.0903111,-0.0203258,-0.052763,0.1184655,-0.0291857,-0.0185144
 ,-0.0290689,0.0192486,0.0957923,-0.0186737,0.0955043,-0.0340533,0.0744
 409,-0.1027005,-0.0171438,-0.0854431,-0.0327323,0.022332,-0.0406609,-0
 .0201997,0.0654988,0.0761808,-0.0847163,-0.0373633,-0.1019737,-0.03533
 14,-0.0148665,-0.0138463,0.0276652,0.0663581\Polar=51.1351995,27.72220
 2,88.1693273,31.4493552,-20.4223373,128.3849461\PG=D02H [C2"(C1.C1),SG
 (C8H8)]\NImag=0\\0.28695572,0.18961141,0.51181164,0.18418994,-0.083824
 75,0.67555537,-0.10509192,-0.08200238,-0.03746637,0.27361902,-0.097219
 78,-0.20986127,-0.01432690,0.18404025,0.53173538,-0.01672918,0.0231772
 5,-0.11736257,0.15891284,-0.12470584,0.66896834,-0.02174216,-0.0241083
 4,-0.01291781,-0.11934665,-0.05211406,-0.12697751,0.30678933,-0.016049
 37,-0.00614059,-0.03550717,-0.06730884,-0.12405642,-0.04999097,0.24670
 548,0.57113616,-0.02389999,-0.05536894,0.01337947,-0.10627115,-0.01254
 258,-0.28382898,0.17752278,-0.03626210,0.58527856,0.00121920,-0.004954
 30,0.00119958,-0.00229274,0.01784974,-0.01318785,-0.05817550,-0.035051
 88,-0.01912078,0.25572561,-0.01122722,-0.02600606,0.01250026,0.0243094
 0,0.02776468,0.01279410,-0.04241858,-0.16221731,0.07422159,0.18451287,
 0.49136436,0.00974787,0.02796023,-0.01060618,-0.02199062,-0.00312612,-
 0.05674850,-0.00908196,0.09237725,-0.17930410,0.15516759,-0.09119540,0
 .59743723,-0.00386239,-0.00438665,0.00199559,0.00905513,-0.00002870,0.
 00389732,-0.00508577,0.00918335,-0.00568286,-0.09310456,-0.04964284,-0
 .08532192,0.27998767,0.00092641,0.00026916,-0.00114510,-0.00449992,-0.
 00396977,0.00452577,0.01807506,0.00766997,0.02338702,-0.05700954,-0.11
 003672,-0.03284666,0.23550959,0.61117523,-0.00524466,-0.01423942,0.004
 23212,0.00999038,0.01554535,0.01092742,-0.01779985,0.00147289,-0.05373
 359,-0.07528311,-0.01469100,-0.19655564,0.12672550,-0.11841741,0.57204
 115,-0.00115934,-0.00475040,0.00233680,0.00332199,0.00429432,0.0020885
 4,0.00191875,-0.00300979,-0.00962828,0.00382956,0.02040721,-0.00158424
 ,-0.06848631,-0.03086811,-0.03058177,0.28695572,-0.00475040,-0.0122560
 7,0.00570152,0.00866222,0.01032564,0.00741391,-0.00748101,0.00669129,-
 0.01734942,0.02686688,0.01861856,0.03156082,-0.04606289,-0.20003679,0.
 10591151,0.18961141,0.51181164,0.00233680,0.00570152,-0.00149131,-0.00
 386373,-0.00335104,-0.00485571,-0.00353522,-0.00632983,0.00740275,-0.0
 1038701,0.01564061,-0.05372468,-0.00987541,0.14335991,-0.25870895,0.18
 418994,-0.08382475,0.67555537,0.00332199,0.00866222,-0.00386373,-0.004
 93477,-0.00632752,-0.00481880,-0.00004134,-0.00279048,0.00923763,-0.01
 038061,-0.00979990,-0.02078557,0.00316149,-0.01370531,0.03428215,-0.10
 509192,-0.08200238,-0.03746637,0.27361902,0.00429432,0.01032564,-0.003
 35104,-0.00632752,-0.00661593,-0.00587136,0.00252257,-0.00543911,0.010
 56757,-0.01607282,-0.00867708,-0.02305670,-0.00564634,-0.04334420,0.04
 083013,-0.09721978,-0.20986127,-0.01432690,0.18404025,0.53173537,0.002
 08854,0.00741391,-0.00485571,-0.00481880,-0.00587136,-0.00335601,0.001
 99738,-0.00252675,0.00611934,-0.01223729,-0.00759673,-0.01633535,0.023
 29997,0.02096836,0.02567943,-0.01672918,0.02317725,-0.11736257,0.15891
 284,-0.12470584,0.66896834,0.00191876,-0.00748101,-0.00353522,-0.00004
 134,0.00252257,0.00199738,0.00359115,-0.00483231,-0.00646606,-0.003351
 74,-0.00380622,0.02622595,0.00029693,0.00091243,-0.01355475,-0.0217421
 6,-0.02410834,-0.01291781,-0.11934665,-0.05211406,-0.12697751,0.306789
 33,-0.00300979,0.00669129,-0.00632983,-0.00279048,-0.00543911,-0.00252
 675,-0.00483231,-0.00210081,0.00306348,-0.00483886,-0.03278572,0.01655
 170,-0.00031240,-0.00191964,0.00905796,-0.01604937,-0.00614059,-0.0355
 0717,-0.06730884,-0.12405642,-0.04999097,0.24670548,0.57113616,-0.0096
 2828,-0.01734942,0.00740275,0.00923763,0.01056757,0.00611934,-0.006466
 06,0.00306348,-0.01122397,0.02763317,0.01909672,0.03019147,-0.01188563
 ,0.01207664,-0.04045770,-0.02389999,-0.05536894,0.01337947,-0.10627115
 ,-0.01254258,-0.28382898,0.17752278,-0.03626211,0.58527856,0.00382956,
 0.02686688,-0.01038701,-0.01038061,-0.01607282,-0.01223729,-0.00335174
 ,-0.00483886,0.02763317,-0.08182463,-0.07814163,-0.03515778,-0.0213563
 6,-0.01132731,-0.00789825,0.00121920,-0.00495430,0.00119958,-0.0022927
 4,0.01784974,-0.01318785,-0.05817550,-0.03505188,-0.01912078,0.2557256
 1,0.02040721,0.01861857,0.01564061,-0.00979990,-0.00867708,-0.00759673
 ,-0.00380622,-0.03278572,0.01909672,-0.07814163,-0.17549469,0.01338143
 ,-0.01235995,-0.00588858,-0.03863796,-0.01122722,-0.02600605,0.0125002
 6,0.02430940,0.02776468,0.01279410,-0.04241858,-0.16221731,0.07422158,
 0.18451287,0.49136436,-0.00158424,0.03156082,-0.05372468,-0.02078557,-
 0.02305670,-0.01633535,0.02622595,0.01655170,0.03019147,-0.03515778,0.
 01338143,-0.12923603,-0.00649104,-0.03609295,0.02129895,0.00974787,0.0
 2796023,-0.01060618,-0.02199062,-0.00312612,-0.05674850,-0.00908196,0.
 09237725,-0.17930410,0.15516759,-0.09119540,0.59743723,-0.06848631,-0.
 04606289,-0.00987541,0.00316149,-0.00564634,0.02329997,0.00029693,-0.0
 0031240,-0.01188563,-0.02135636,-0.01235995,-0.00649104,0.00416700,-0.
 00459177,-0.00537466,-0.00386238,-0.00438665,0.00199559,0.00905513,-0.
 00002870,0.00389732,-0.00508577,0.00918335,-0.00568286,-0.09310456,-0.
 04964283,-0.08532192,0.27998767,-0.03086811,-0.20003679,0.14335991,-0.
 01370531,-0.04334420,0.02096836,0.00091243,-0.00191964,0.01207664,-0.0
 1132731,-0.00588858,-0.03609295,-0.00459177,-0.00296107,0.00482863,0.0
 0092640,0.00026916,-0.00114510,-0.00449992,-0.00396976,0.00452577,0.01
 807506,0.00766997,0.02338702,-0.05700954,-0.11003672,-0.03284666,0.235
 50959,0.61117523,-0.03058177,0.10591151,-0.25870895,0.03428215,0.04083
 013,0.02567943,-0.01355475,0.00905796,-0.04045770,-0.00789826,-0.03863
 796,0.02129895,-0.00537465,0.00482863,-0.01093955,-0.00524466,-0.01423
 942,0.00423212,0.00999038,0.01554535,0.01092742,-0.01779985,0.00147289
 ,-0.05373359,-0.07528311,-0.01469100,-0.19655564,0.12672550,-0.1184174
 1,0.57204115,-0.10248579,-0.04160550,-0.12138629,-0.00690201,-0.000364
 45,-0.01315470,0.00346332,-0.00486775,-0.00102800,-0.00083534,0.000473
 61,0.00106360,-0.00067420,0.00043774,0.00005134,0.00007699,-0.00017513
 ,0.00002150,-0.00045849,0.00038321,0.00028849,0.00029238,-0.00010890,-
 0.00013183,0.00734671,-0.00419029,-0.00193418,0.00149441,0.00042896,0.
 00454040,0.10233852,-0.04214185,-0.06935714,-0.05053870,-0.01200965,-0
 .00371320,-0.02639569,-0.00474803,-0.00313058,0.00152014,0.00062313,-0
 .00097460,0.00078057,0.00027560,0.00001412,-0.00061698,-0.00021440,-0.
 00031736,0.00012906,0.00045429,-0.00017850,0.00028981,0.00036438,0.000
 82882,0.00032197,-0.00429420,-0.00074787,0.00467424,0.01254394,0.00703
 370,0.02053297,0.04702091,0.07087070,-0.12065538,-0.04921683,-0.260521
 00,0.00271454,0.00230456,0.00218671,-0.00119114,0.00122508,0.00196687,
 0.00085983,0.00041205,0.00002882,0.00027230,-0.00021737,0.00003025,0.0
 0007502,0.00022585,0.00004222,0.00019163,0.00011463,-0.00047137,-0.000
 77679,-0.00084447,-0.00035758,-0.00179258,0.00493034,-0.00068818,-0.01
 196904,-0.00932511,-0.01737585,0.13028834,0.05129746,0.27467299,-0.000
 25276,-0.00923205,0.01531687,-0.04027009,-0.01615241,-0.00273777,0.000
 95081,0.01231686,-0.01299933,0.00553756,-0.00504994,-0.00522147,0.0005
 8360,0.00048604,-0.00022483,-0.00059774,0.00039612,-0.00007229,-0.0000
 3576,-0.00026150,-0.00013868,-0.00051806,0.00034082,0.00056822,-0.0013
 9869,0.00038780,-0.00020789,0.00283893,-0.00500885,-0.00237454,-0.0011
 2741,0.00103624,0.00049713,0.03658506,0.00241315,-0.01364652,0.0226865
 3,-0.01561605,-0.16230132,0.14149335,0.00020188,0.00784578,-0.01099141
 ,-0.00494603,0.00195482,-0.00061526,0.00001275,0.00039376,0.00004822,0
 .00032504,0.00002953,-0.00031221,-0.00022223,-0.00014892,-0.00011977,0
 .00050296,-0.00021913,0.00026123,0.00023828,-0.00013301,-0.00131478,-0
 .00512857,-0.00219781,-0.00068885,0.00068086,-0.00002751,-0.00087653,0
 .01955363,0.16909994,-0.00055237,-0.00601373,0.00547079,-0.00346868,0.
 14017148,-0.22979253,0.00351011,0.01886667,-0.01764433,-0.00536307,-0.
 00087135,-0.00158172,0.00042013,0.00121466,-0.00021374,0.00002457,-0.0
 0013704,-0.00054014,-0.00019220,-0.00021656,-0.00001346,0.00034727,-0.
 00013838,0.00010737,-0.00000412,-0.00094626,-0.00024942,-0.00221139,-0
 .00039379,0.00165848,0.00098142,-0.00000068,0.00051760,0.00566561,-0.1
 5025702,0.24219721,0.00599530,-0.00340518,-0.00497374,-0.00646935,-0.0
 1225956,0.00199723,-0.10750030,-0.13104294,-0.01882056,-0.00125193,0.0
 0218022,-0.00036862,-0.00037783,0.00140801,0.00050069,-0.00021876,-0.0
 0001624,0.00021169,0.00003721,0.00011305,0.00008242,0.00000504,0.00008
 785,-0.00021509,0.00483220,-0.00164601,-0.00176057,-0.00097608,0.00097
 955,0.00005932,-0.00019389,-0.00073114,0.00001129,-0.00264685,0.002077
 35,0.00105575,0.10916417,-0.00353944,0.00303392,0.00062833,-0.00029101
 ,-0.00288138,0.00252652,-0.13145301,-0.25657506,-0.01167845,-0.0091894
 7,-0.01549630,-0.00467572,0.00068358,0.00058216,-0.00096124,0.00026030
 ,0.00014430,0.00004197,0.00000541,0.00005405,-0.00014036,-0.00063045,-
 0.00065502,-0.00060156,-0.00141585,0.00107634,0.00384252,0.00097591,0.
 00019798,0.00003437,-0.00016703,-0.00020622,0.00014982,0.00178675,-0.0
 0008557,-0.00123582,0.14215178,0.27087029,-0.00479079,0.00095921,-0.00
 321808,-0.01431265,-0.02697064,0.00097826,-0.01826175,-0.01066783,-0.0
 5787596,0.01512518,0.02334553,0.00315539,0.00148789,0.00082415,0.00118
 438,-0.00016517,-0.00063959,0.00016885,0.00022910,0.00012491,0.0003356
 7,0.00076375,0.00116872,0.00033339,-0.00207423,0.00327525,-0.00311866,
 0.00006428,0.00004334,-0.00144241,-0.00075744,-0.00124047,0.00002946,0
 .00145176,-0.00051961,0.00006218,0.02155777,0.01094915,0.06002666,-0.0
 0001076,-0.00001462,0.00013818,-0.00008503,0.00031617,0.00008830,-0.00
 061674,0.00058378,0.00103508,-0.00834729,-0.01215343,0.00167731,-0.107
 41839,-0.13141879,-0.01810651,0.00059040,0.00265807,-0.00093229,0.0071
 1391,-0.00307216,-0.00267069,-0.00092944,0.00099539,0.00015267,0.00382
 855,-0.00183510,-0.00397644,-0.00024327,-0.00073418,0.00029313,0.00002
 595,0.00003758,-0.00002932,0.00012146,-0.00004909,-0.00009142,0.000210
 67,0.00049283,-0.00057687,0.10904591,0.00009301,0.00012572,-0.00002214
 ,0.00003962,-0.00005549,-0.00022965,0.00130821,0.00093906,0.00009182,-
 0.00078374,-0.00489652,0.00159606,-0.13100873,-0.25669742,-0.01041676,
 -0.00931048,-0.01342795,-0.00533034,-0.00293791,0.00136284,0.00438808,
 0.00099903,0.00012831,0.00018630,-0.00206527,0.00257569,0.00019877,-0.
 00001588,-0.00028407,0.00040758,0.00000248,0.00004251,-0.00002856,-0.0
 0008095,0.00004723,-0.00001081,-0.00016340,0.00036727,-0.00066849,0.14
 210238,0.27104696,-0.00000850,-0.00028740,0.00031197,0.00046515,0.0004
 5190,0.00023490,0.00004788,-0.00169358,0.00106638,-0.01381649,-0.02642
 519,-0.00034903,-0.01866532,-0.01142738,-0.05783550,0.01537759,0.02416
 682,0.00446509,-0.00285365,0.00405720,-0.00266560,0.00014771,0.0001773
 3,-0.00141937,-0.00366279,0.00076604,-0.00361436,-0.00068572,-0.001362
 71,0.00021075,0.00001851,0.00005794,-0.00001626,-0.00004801,0.00006771
 ,-0.00002489,0.00031740,0.00094884,-0.00033853,0.02133363,0.01058663,0
 .05996825,0.00007699,-0.00017513,0.00002150,-0.00045849,0.00038321,0.0
 0028849,0.00029238,-0.00010890,-0.00013183,0.00734671,-0.00419029,-0.0
 0193418,0.00149441,0.00042896,0.00454040,-0.10248579,-0.04160550,-0.12
 138629,-0.00690201,-0.00036445,-0.01315470,0.00346332,-0.00486775,-0.0
 0102800,-0.00083534,0.00047361,0.00106360,-0.00067420,0.00043774,0.000
 05134,0.00006825,-0.00003589,-0.00004255,-0.00001192,0.00001384,0.0000
 1251,0.00012854,-0.00004613,-0.00007800,-0.00254601,0.00211948,0.00124
 687,0.10233852,-0.00021440,-0.00031736,0.00012906,0.00045429,-0.000178
 50,0.00028981,0.00036438,0.00082882,0.00032197,-0.00429420,-0.00074787
 ,0.00467424,0.01254394,0.00703370,0.02053297,-0.04214185,-0.06935714,-
 0.05053870,-0.01200965,-0.00371320,-0.02639569,-0.00474803,-0.00313058
 ,0.00152014,0.00062313,-0.00097460,0.00078057,0.00027560,0.00001412,-0
 .00061698,-0.00003589,0.00003408,0.00000867,0.00006821,0.00002864,0.00
 009550,-0.00007799,0.00003665,0.00001091,0.00182888,-0.00023621,-0.000
 92671,0.04702091,0.07087070,0.00007502,0.00022585,0.00004222,0.0001916
 3,0.00011463,-0.00047137,-0.00077679,-0.00084447,-0.00035758,-0.001792
 58,0.00493033,-0.00068818,-0.01196904,-0.00932511,-0.01737585,-0.12065
 538,-0.04921683,-0.26052100,0.00271454,0.00230456,0.00218671,-0.001191
 14,0.00122508,0.00196687,0.00085983,0.00041206,0.00002882,0.00027230,-
 0.00021737,0.00003025,-0.00004255,0.00000867,-0.00001131,-0.00006160,-
 0.00003851,-0.00012397,-0.00003458,0.00008942,-0.00002139,0.00164289,-
 0.00021050,0.00011199,0.13028834,0.05129746,0.27467299,-0.00059774,0.0
 0039612,-0.00007229,-0.00003576,-0.00026150,-0.00013868,-0.00051806,0.
 00034082,0.00056822,-0.00139869,0.00038780,-0.00020789,0.00283893,-0.0
 0500885,-0.00237454,-0.00025276,-0.00923205,0.01531687,-0.04027009,-0.
 01615241,-0.00273777,0.00095081,0.01231686,-0.01299933,0.00553756,-0.0
 0504994,-0.00522147,0.00058360,0.00048604,-0.00022483,-0.00001192,0.00
 006821,-0.00006160,0.00007673,-0.00003235,-0.00002647,0.00002322,0.000
 03644,-0.00003449,0.00014192,-0.00059086,0.00064776,-0.00112741,0.0010
 3624,0.00049713,0.03658506,0.00032504,0.00002953,-0.00031221,-0.000222
 23,-0.00014892,-0.00011977,0.00050296,-0.00021913,0.00026123,0.0002382
 8,-0.00013301,-0.00131478,-0.00512857,-0.00219781,-0.00068885,0.002413
 15,-0.01364652,0.02268653,-0.01561605,-0.16230132,0.14149335,0.0002018
 8,0.00784578,-0.01099141,-0.00494603,0.00195482,-0.00061526,0.00001275
 ,0.00039376,0.00004822,0.00001384,0.00002864,-0.00003851,-0.00003235,0
 .00002141,0.00003467,0.00000134,0.00004660,-0.00003693,-0.00002675,-0.
 00070789,0.00117919,0.00068086,-0.00002751,-0.00087653,0.01955363,0.16
 909994,0.00002457,-0.00013704,-0.00054014,-0.00019220,-0.00021656,-0.0
 0001346,0.00034727,-0.00013838,0.00010737,-0.00000412,-0.00094626,-0.0
 0024942,-0.00221139,-0.00039379,0.00165848,-0.00055237,-0.00601373,0.0
 0547079,-0.00346868,0.14017148,-0.22979253,0.00351011,0.01886667,-0.01
 764433,-0.00536307,-0.00087135,-0.00158172,0.00042013,0.00121466,-0.00
 021374,0.00001251,0.00009550,-0.00012397,-0.00002647,0.00003467,-0.000
 00712,0.00001333,0.00004956,-0.00001761,-0.00012098,-0.00021110,0.0001
 9532,0.00098142,-0.00000068,0.00051760,0.00566561,-0.15025702,0.242197
 21,-0.00021876,-0.00001624,0.00021169,0.00003721,0.00011305,0.00008242
 ,0.00000504,0.00008785,-0.00021509,0.00483220,-0.00164601,-0.00176057,
 -0.00097608,0.00097955,0.00005932,0.00599530,-0.00340518,-0.00497374,-
 0.00646935,-0.01225956,0.00199723,-0.10750030,-0.13104294,-0.01882056,
 -0.00125193,0.00218022,-0.00036862,-0.00037783,0.00140801,0.00050069,0
 .00012854,-0.00007799,-0.00003458,0.00002322,0.00000134,0.00001333,0.0
 0017385,-0.00009727,-0.00005561,-0.00093522,0.00044060,0.00042189,-0.0
 0019389,-0.00073114,0.00001129,-0.00264685,0.00207735,0.00105575,0.109
 16417,0.00026030,0.00014430,0.00004197,0.00000541,0.00005405,-0.000140
 36,-0.00063045,-0.00065502,-0.00060156,-0.00141585,0.00107634,0.003842
 52,0.00097591,0.00019798,0.00003437,-0.00353944,0.00303392,0.00062834,
 -0.00029101,-0.00288138,0.00252652,-0.13145301,-0.25657506,-0.01167845
 ,-0.00918947,-0.01549630,-0.00467572,0.00068358,0.00058216,-0.00096124
 ,-0.00004613,0.00003665,0.00008942,0.00003644,0.00004660,0.00004956,-0
 .00009727,-0.00014611,0.00030033,0.00043665,-0.00036389,-0.00026767,-0
 .00016703,-0.00020622,0.00014982,0.00178675,-0.00008557,-0.00123582,0.
 14215178,0.27087029,-0.00016517,-0.00063959,0.00016885,0.00022910,0.00
 012491,0.00033567,0.00076375,0.00116872,0.00033339,-0.00207423,0.00327
 525,-0.00311866,0.00006428,0.00004334,-0.00144241,-0.00479079,0.000959
 21,-0.00321808,-0.01431265,-0.02697064,0.00097826,-0.01826175,-0.01066
 783,-0.05787596,0.01512518,0.02334553,0.00315539,0.00148789,0.00082415
 ,0.00118438,-0.00007800,0.00001091,-0.00002139,-0.00003449,-0.00003693
 ,-0.00001761,-0.00005561,0.00030033,-0.00029613,0.00042726,-0.00025795
 ,0.00005451,-0.00075744,-0.00124047,0.00002946,0.00145176,-0.00051961,
 0.00006218,0.02155777,0.01094914,0.06002666,0.00059040,0.00265807,-0.0
 0093229,0.00711391,-0.00307216,-0.00267069,-0.00092944,0.00099539,0.00
 015267,0.00382855,-0.00183510,-0.00397644,-0.00024327,-0.00073418,0.00
 029313,-0.00001076,-0.00001462,0.00013818,-0.00008503,0.00031617,0.000
 08830,-0.00061674,0.00058378,0.00103508,-0.00834729,-0.01215343,0.0016
 7731,-0.10741839,-0.13141879,-0.01810651,-0.00254601,0.00182888,0.0016
 4289,0.00014192,-0.00002675,-0.00012098,-0.00093522,0.00043665,0.00042
 726,0.00005339,-0.00014759,-0.00028393,0.00002595,0.00003758,-0.000029
 32,0.00012146,-0.00004909,-0.00009142,0.00021067,0.00049283,-0.0005768
 7,0.10904591,-0.00931048,-0.01342795,-0.00533034,-0.00293791,0.0013628
 4,0.00438808,0.00099903,0.00012831,0.00018630,-0.00206527,0.00257569,0
 .00019877,-0.00001588,-0.00028407,0.00040758,0.00009301,0.00012572,-0.
 00002214,0.00003962,-0.00005549,-0.00022965,0.00130821,0.00093907,0.00
 009182,-0.00078374,-0.00489652,0.00159606,-0.13100873,-0.25669742,-0.0
 1041676,0.00211948,-0.00023621,-0.00021050,-0.00059086,-0.00070789,-0.
 00021110,0.00044060,-0.00036389,-0.00025795,-0.00014759,0.00003386,-0.
 00006893,0.00000248,0.00004251,-0.00002856,-0.00008095,0.00004723,-0.0
 0001080,-0.00016340,0.00036727,-0.00066849,0.14210238,0.27104696,0.015
 37759,0.02416682,0.00446509,-0.00285365,0.00405720,-0.00266560,0.00014
 771,0.00017733,-0.00141937,-0.00366279,0.00076604,-0.00361436,-0.00068
 572,-0.00136271,0.00021075,-0.00000850,-0.00028740,0.00031198,0.000465
 15,0.00045190,0.00023490,0.00004788,-0.00169358,0.00106638,-0.01381649
 ,-0.02642519,-0.00034903,-0.01866532,-0.01142738,-0.05783550,0.0012468
 7,-0.00092671,0.00011199,0.00064776,0.00117919,0.00019532,0.00042189,-
 0.00026767,0.00005451,-0.00028393,-0.00006893,-0.00035562,0.00001851,0
 .00005794,-0.00001626,-0.00004801,0.00006771,-0.00002489,0.00031740,0.
 00094884,-0.00033853,0.02133363,0.01058663,0.05996825\\-0.00000591,-0.
 00002861,0.00002442,0.00002024,0.00001609,0.00002795,-0.00006320,-0.00
 007588,-0.00005236,0.00013457,0.00023003,0.00001818,-0.00003831,-0.000
 09763,0.00003864,0.00000591,0.00002861,-0.00002442,-0.00002024,-0.0000
 1609,-0.00002795,0.00006320,0.00007588,0.00005236,-0.00013457,-0.00023
 003,-0.00001818,0.00003831,0.00009763,-0.00003864,0.00000313,0.0000112
 5,-0.00000762,-0.00000770,-0.00000726,-0.00000909,0.00000905,0.0000001
 1,0.00002215,-0.00000284,0.00001050,-0.00002131,-0.00000313,-0.0000112
 5,0.00000762,0.00000770,0.00000726,0.00000909,-0.00000905,-0.00000011,
 -0.00002215,0.00000284,-0.00001050,0.00002131\\\@
 The archive entry for this job was punched.


 KNOWLEDGE IS EXPERIMENT'S DAUGHTER.
 -- LEONARDO DA VINCI, IN "PENSIERI" CA. 1492
 Job cpu time:       0 days  0 hours  7 minutes  4.1 seconds.
 Elapsed time:       0 days  0 hours  0 minutes 53.0 seconds.
 File lengths (MBytes):  RWF=   1169 Int=      0 D2E=      0 Chk=      3 Scr=      1
 Normal termination of Gaussian 16 at Fri Aug 14 18:19:41 2026.
