 Entering Gaussian System, Link 0=g16
 Input=AlCl3.com
 Output=AlCl3.log
 Initial command:
 /opt/g16/g16/l1.exe "/home/pnatt/scratch/Gau-1447098.inp" -scrdir="/home/pnatt/scratch/"
 Entering Link 1 = /opt/g16/g16/l1.exe PID=   1447104.
  
 Copyright (c) 1988-2019, Gaussian, Inc.  All Rights Reserved.
  
 This is part of the Gaussian(R) 16 program.  It is based on
 the Gaussian(R) 09 system (copyright 2009, Gaussian, Inc.),
 the Gaussian(R) 03 system (copyright 2003, Gaussian, Inc.),
 the Gaussian(R) 98 system (copyright 1998, Gaussian, Inc.),
 the Gaussian(R) 94 system (copyright 1995, Gaussian, Inc.),
 the Gaussian 92(TM) system (copyright 1992, Gaussian, Inc.),
 the Gaussian 90(TM) system (copyright 1990, Gaussian, Inc.),
 the Gaussian 88(TM) system (copyright 1988, Gaussian, Inc.),
 the Gaussian 86(TM) system (copyright 1986, Carnegie Mellon
 University), and the Gaussian 82(TM) system (copyright 1983,
 Carnegie Mellon University). Gaussian is a federally registered
 trademark of Gaussian, Inc.
  
 This software contains proprietary and confidential information,
 including trade secrets, belonging to Gaussian, Inc.
  
 This software is provided under written license and may be
 used, copied, transmitted, or stored only in accord with that
 written license.
  
 The following legend is applicable only to US Government
 contracts under FAR:
  
                    RESTRICTED RIGHTS LEGEND
  
 Use, reproduction and disclosure by the US Government is
 subject to restrictions as set forth in subparagraphs (a)
 and (c) of the Commercial Computer Software - Restricted
 Rights clause in FAR 52.227-19.
  
 Gaussian, Inc.
 340 Quinnipiac St., Bldg. 40, Wallingford CT 06492
  
  
 ---------------------------------------------------------------
 Warning -- This program may not be used in any manner that
 competes with the business of Gaussian, Inc. or will provide
 assistance to any competitor of Gaussian, Inc.  The licensee
 of this program is prohibited from giving any competitor of
 Gaussian, Inc. access to this program.  By using this program,
 the user acknowledges that Gaussian, Inc. is engaged in the
 business of creating and licensing software in the field of
 computational chemistry and represents and warrants to the
 licensee that it is not a competitor of Gaussian, Inc. and that
 it will not use this program in any manner prohibited above.
 ---------------------------------------------------------------
  

 Cite this work as:
 Gaussian 16, Revision C.01,
 M. J. Frisch, G. W. Trucks, H. B. Schlegel, G. E. Scuseria, 
 M. A. Robb, J. R. Cheeseman, G. Scalmani, V. Barone, 
 G. A. Petersson, H. Nakatsuji, X. Li, M. Caricato, A. V. Marenich, 
 J. Bloino, B. G. Janesko, R. Gomperts, B. Mennucci, H. P. Hratchian, 
 J. V. Ortiz, A. F. Izmaylov, J. L. Sonnenberg, D. Williams-Young, 
 F. Ding, F. Lipparini, F. Egidi, J. Goings, B. Peng, A. Petrone, 
 T. Henderson, D. Ranasinghe, V. G. Zakrzewski, J. Gao, N. Rega, 
 G. Zheng, W. Liang, M. Hada, M. Ehara, K. Toyota, R. Fukuda, 
 J. Hasegawa, M. Ishida, T. Nakajima, Y. Honda, O. Kitao, H. Nakai, 
 T. Vreven, K. Throssell, J. A. Montgomery, Jr., J. E. Peralta, 
 F. Ogliaro, M. J. Bearpark, J. J. Heyd, E. N. Brothers, K. N. Kudin, 
 V. N. Staroverov, T. A. Keith, R. Kobayashi, J. Normand, 
 K. Raghavachari, A. P. Rendell, J. C. Burant, S. S. Iyengar, 
 J. Tomasi, M. Cossi, J. M. Millam, M. Klene, C. Adamo, R. Cammi, 
 J. W. Ochterski, R. L. Martin, K. Morokuma, O. Farkas, 
 J. B. Foresman, and D. J. Fox, Gaussian, Inc., Wallingford CT, 2019.
 
 ******************************************
 Gaussian 16:  ES64L-G16RevC.01  3-Jul-2019
                10-Aug-2026 
 ******************************************
 %chk=AlCl3.chk
 ----------------------------------------------
 # opt freq=hpmodes mp2/3-21g geom=connectivity
 ----------------------------------------------
 1/18=20,19=15,38=1,57=2/1,3;
 2/9=110,12=2,17=6,18=5,40=1/2;
 3/5=5,11=9,25=1,30=1,71=1/1,2,3;
 4//1;
 5/5=2,38=5/2;
 8/6=4,10=1/1;
 9/15=2,16=-3/6;
 10/5=1/2;
 6/7=2,8=2,9=2,10=2/1;
 7/12=2/1,2,3,16;
 1/18=20,19=15/3(2);
 2/9=110/2;
 99//99;
 2/9=110/2;
 3/5=5,11=9,25=1,30=1,71=1/1,2,3;
 4/5=5,16=3,69=1/1;
 5/5=2,38=5/2;
 8/6=4,10=1/1;
 9/15=2,16=-3/6;
 10/5=1/2;
 7/12=2/1,2,3,16;
 1/18=20,19=15/3(-8);
 2/9=110/2;
 6/7=2,8=2,9=2,10=2/1;
 99/9=10/99;
 -------------------
 Title Card Required
 -------------------
 Symbolic Z-matrix:
 Charge =  0 Multiplicity = 1
 Al                    0.        0.        0. 
 Cl                    0.        2.24      0. 
 Cl                    1.9399   -1.12      0. 
 Cl                   -1.9399   -1.12      0. 
 

 GradGradGradGradGradGradGradGradGradGradGradGradGradGradGradGradGradGrad
 Berny optimization.
 Initialization pass.
                           ----------------------------
                           !    Initial Parameters    !
                           ! (Angstroms and Degrees)  !
 --------------------------                            --------------------------
 ! Name  Definition              Value          Derivative Info.                !
 --------------------------------------------------------------------------------
 ! R1    R(1,2)                  2.24           estimate D2E/DX2                !
 ! R2    R(1,3)                  2.24           estimate D2E/DX2                !
 ! R3    R(1,4)                  2.24           estimate D2E/DX2                !
 ! A1    A(2,1,3)              120.0            estimate D2E/DX2                !
 ! A2    A(2,1,4)              120.0            estimate D2E/DX2                !
 ! A3    A(3,1,4)              120.0            estimate D2E/DX2                !
 ! D1    D(2,1,4,3)            180.0            estimate D2E/DX2                !
 --------------------------------------------------------------------------------
 Trust Radius=3.00D-01 FncErr=1.00D-07 GrdErr=1.00D-07 EigMax=2.50D+02 EigMin=1.00D-04
 Number of steps in this run=     20 maximum allowed number of steps=    100.
 GradGradGradGradGradGradGradGradGradGradGradGradGradGradGradGradGradGrad

                          Input orientation:                          
 ---------------------------------------------------------------------
 Center     Atomic      Atomic             Coordinates (Angstroms)
 Number     Number       Type             X           Y           Z
 ---------------------------------------------------------------------
      1         13           0        0.000000    0.000000    0.000000
      2         17           0        0.000000    2.240000    0.000000
      3         17           0        1.939897   -1.120000    0.000000
      4         17           0       -1.939897   -1.120000    0.000000
 ---------------------------------------------------------------------
                    Distance matrix (angstroms):
                    1          2          3          4
     1  Al   0.000000
     2  Cl   2.240000   0.000000
     3  Cl   2.240000   3.879794   0.000000
     4  Cl   2.240000   3.879794   3.879794   0.000000
 Stoichiometry    AlCl3
 Framework group  D3H[O(Al),3C2(Cl)]
 Deg. of freedom     1
 Full point group                 D3H     NOp  12
 Largest Abelian subgroup         C2V     NOp   4
 Largest concise Abelian subgroup C2      NOp   2
                         Standard orientation:                         
 ---------------------------------------------------------------------
 Center     Atomic      Atomic             Coordinates (Angstroms)
 Number     Number       Type             X           Y           Z
 ---------------------------------------------------------------------
      1         13           0        0.000000    0.000000    0.000000
      2         17           0        0.000000    2.240000    0.000000
      3         17           0       -1.939897   -1.120000    0.000000
      4         17           0        1.939897   -1.120000    0.000000
 ---------------------------------------------------------------------
 Rotational constants (GHZ):           1.9202091           1.9202091           0.9601045
 Standard basis: 3-21G (6D, 7F)
 There are    24 symmetry adapted cartesian basis functions of A1  symmetry.
 There are     3 symmetry adapted cartesian basis functions of A2  symmetry.
 There are    16 symmetry adapted cartesian basis functions of B1  symmetry.
 There are     9 symmetry adapted cartesian basis functions of B2  symmetry.
 There are    24 symmetry adapted basis functions of A1  symmetry.
 There are     3 symmetry adapted basis functions of A2  symmetry.
 There are    16 symmetry adapted basis functions of B1  symmetry.
 There are     9 symmetry adapted basis functions of B2  symmetry.
    52 basis functions,   108 primitive gaussians,    52 cartesian basis functions
    32 alpha electrons       32 beta electrons
       nuclear repulsion energy       274.8798462168 Hartrees.
 NAtoms=    4 NActive=    4 NUniq=    2 SFac= 4.00D+00 NAtFMM=   60 NAOKFM=F Big=F
 Integral buffers will be    131072 words long.
 Raffenetti 1 integral format.
 Two-electron integral symmetry is turned on.
 One-electron integrals computed using PRISM.
 NBasis=    52 RedAO= T EigKep=  5.11D-02  NBF=    24     3    16     9
 NBsUse=    52 1.00D-06 EigRej= -1.00D+00 NBFU=    24     3    16     9
 ExpMin= 6.39D-02 ExpMax= 1.38D+03 ExpMxC= 1.38D+03 IAcc=3 IRadAn=         5 AccDes= 0.00D+00
 Harris functional with IExCor=  205 and IRadAn=       5 diagonalized for initial guess.
 HarFok:  IExCor=  205 AccDes= 0.00D+00 IRadAn=         5 IDoV= 1 UseB2=F ITyADJ=14
 ICtDFT=  3500011 ScaDFX=  1.000000  1.000000  1.000000  1.000000
 FoFCou: FMM=F IPFlag=           0 FMFlag=      100000 FMFlg1=           0
         NFxFlg=           0 DoJE=T BraDBF=F KetDBF=T FulRan=T
         wScrn=  0.000000 ICntrl=       500 IOpCl=  0 I1Cent=   200000004 NGrid=           0
         NMat0=    1 NMatS0=      1 NMatT0=    0 NMatD0=    1 NMtDS0=    0 NMtDT0=    0
 Petite list used in FoFCou.
 Initial guess orbital symmetries:
       Occupied  (A1') (E') (E') (A1') (A1') (E') (E') (E') (E')
                 (A1') (A2") (E') (E') (A2') (E") (E") (A1') (E')
                 (E') (A2") (A1') (E') (E') (A1') (E') (E') (A2")
                 (E') (E') (E") (E") (A2')
       Virtual   (A1') (A2") (E') (E') (A1') (A2") (E') (E') (E')
                 (E') (A1') (E") (E") (A2') (E') (E') (A2") (A1')
                 (E') (E')
 The electronic state of the initial guess is 1-A1'.
 Keep R1 ints in memory in symmetry-blocked form, NReq=1765330.
 Requested convergence on RMS density matrix=1.00D-08 within 128 cycles.
 Requested convergence on MAX density matrix=1.00D-06.
 Requested convergence on             energy=1.00D-06.
 No special actions if energy rises.
 SCF Done:  E(RHF) =  -1612.69056143     A.U. after   10 cycles
            NFock= 10  Conv=0.18D-08     -V/T= 2.0012
 ExpMin= 6.39D-02 ExpMax= 1.38D+03 ExpMxC= 1.38D+03 IAcc=3 IRadAn=         5 AccDes= 0.00D+00
 HarFok:  IExCor=  205 AccDes= 0.00D+00 IRadAn=         5 IDoV=-2 UseB2=F ITyADJ=14
 ICtDFT= 12500011 ScaDFX=  1.000000  1.000000  1.000000  1.000000
 Range of M.O.s used for correlation:    21    52
 NBasis=    52 NAE=    32 NBE=    32 NFC=    20 NFV=     0
 NROrb=     32 NOA=    12 NOB=    12 NVA=    20 NVB=    20
 Fully direct method using O(ONN) memory.
 JobTyp=1 Pass  1:  I=  21 to  32 NPSUse=  1 ParTrn=F ParDer=F DoDerP=T.
 Spin components of T(2) and E(2):
     alpha-alpha T2 =       0.9764473077D-02 E2=     -0.2040966750D-01
     alpha-beta  T2 =       0.5895865694D-01 E2=     -0.1256959394D+00
     beta-beta   T2 =       0.9764473077D-02 E2=     -0.2040966750D-01
 ANorm=    0.1038502577D+01
 E2 =    -0.1665152744D+00 EUMP2 =    -0.16128570767087D+04
          IDoAtm=1111
          Differentiating once with respect to electric field.
                with respect to dipole field.
          Differentiating once with respect to nuclear coordinates.
 Keep R1 ints in memory in symmetry-blocked form, NReq=1766101.
          There are     1 degrees of freedom in the 1st order CPHF.  IDoFFX=0 NUNeed=     1.
 LinEq1:  Iter=  0 NonCon=     1 RMS=7.25D-03 Max=1.24D-01 NDo=     1
 AX will form     1 AO Fock derivatives at one time.
 LinEq1:  Iter=  1 NonCon=     1 RMS=1.83D-03 Max=1.65D-02 NDo=     1
 LinEq1:  Iter=  2 NonCon=     1 RMS=3.74D-04 Max=3.11D-03 NDo=     1
 LinEq1:  Iter=  3 NonCon=     1 RMS=6.91D-05 Max=8.70D-04 NDo=     1
 LinEq1:  Iter=  4 NonCon=     1 RMS=6.09D-06 Max=6.24D-05 NDo=     1
 LinEq1:  Iter=  5 NonCon=     1 RMS=6.00D-07 Max=5.52D-06 NDo=     1
 LinEq1:  Iter=  6 NonCon=     1 RMS=4.69D-08 Max=3.60D-07 NDo=     1
 LinEq1:  Iter=  7 NonCon=     1 RMS=5.96D-09 Max=4.89D-08 NDo=     1
 LinEq1:  Iter=  8 NonCon=     1 RMS=3.38D-10 Max=3.07D-09 NDo=     1
 LinEq1:  Iter=  9 NonCon=     0 RMS=2.32D-11 Max=1.63D-10 NDo=     1
 Linear equations converged to 1.000D-10 1.000D-09 after     9 iterations.
 End of Minotr F.D. properties file   721 does not exist.
 End of Minotr F.D. properties file   722 does not exist.
 End of Minotr F.D. properties file   788 does not exist.

 **********************************************************************

            Population analysis using the SCF Density.

 **********************************************************************

 Orbital symmetries:
       Occupied  (A1') (E') (E') (A1') (A1') (E') (E') (E') (E')
                 (A1') (A2") (E") (E") (E') (E') (A2') (A1') (A2")
                 (E') (E') (A1') (E') (E') (A1') (E') (E') (A2")
                 (E") (E") (E') (E') (A2')
       Virtual   (A1') (A2") (E') (E') (A1') (A2") (E') (E') (E')
                 (E') (A1') (E") (E") (A2') (E') (E') (A2") (A1')
                 (E') (E')
 The electronic state is 1-A1'.
 Alpha  occ. eigenvalues -- -104.13750-104.13750-104.13750 -58.25446 -10.52807
 Alpha  occ. eigenvalues --  -10.52806 -10.52806  -7.99092  -7.99092  -7.99087
 Alpha  occ. eigenvalues --   -7.98808  -7.98784  -7.98784  -7.98777  -7.98777
 Alpha  occ. eigenvalues --   -7.98769  -5.05011  -3.35459  -3.35432  -3.35432
 Alpha  occ. eigenvalues --   -1.12072  -1.10583  -1.10583  -0.61846  -0.53957
 Alpha  occ. eigenvalues --   -0.53957  -0.51404  -0.49163  -0.49163  -0.49146
 Alpha  occ. eigenvalues --   -0.49146  -0.48235
 Alpha virt. eigenvalues --   -0.00727   0.00902   0.13502   0.13502   0.23254
 Alpha virt. eigenvalues --    0.28222   0.32178   0.32178   0.71924   0.71924
 Alpha virt. eigenvalues --    0.75505   0.77172   0.77172   0.83558   0.85653
 Alpha virt. eigenvalues --    0.85653   0.87527   0.94873   0.99955   0.99955
          Condensed to atoms (all electrons):
               1          2          3          4
     1  Al  10.883239   0.237427   0.237427   0.237427
     2  Cl   0.237427  17.259439  -0.014353  -0.014353
     3  Cl   0.237427  -0.014353  17.259439  -0.014353
     4  Cl   0.237427  -0.014353  -0.014353  17.259439
 Mulliken charges:
               1
     1  Al   1.404481
     2  Cl  -0.468160
     3  Cl  -0.468160
     4  Cl  -0.468160
 Sum of Mulliken charges =  -0.00000
 Mulliken charges with hydrogens summed into heavy atoms:
               1
     1  Al   1.404481
     2  Cl  -0.468160
     3  Cl  -0.468160
     4  Cl  -0.468160
 Electronic spatial extent (au):  <R**2>=           1043.3187
 Charge=             -0.0000 electrons
 Dipole moment (field-independent basis, Debye):
    X=             -0.0000    Y=             -0.0000    Z=              0.0000  Tot=              0.0000
 Quadrupole moment (field-independent basis, Debye-Ang):
   XX=            -63.1370   YY=            -63.1370   ZZ=            -47.8969
   XY=              0.0000   XZ=              0.0000   YZ=             -0.0000
 Traceless Quadrupole moment (field-independent basis, Debye-Ang):
   XX=             -5.0800   YY=             -5.0800   ZZ=             10.1601
   XY=              0.0000   XZ=              0.0000   YZ=             -0.0000
 Octapole moment (field-independent basis, Debye-Ang**2):
  XXX=             -0.0000  YYY=            -12.1335  ZZZ=              0.0000  XYY=              0.0000
  XXY=             12.1335  XXZ=              0.0000  XZZ=              0.0000  YZZ=              0.0000
  YYZ=              0.0000  XYZ=             -0.0000
 Hexadecapole moment (field-independent basis, Debye-Ang**3):
 XXXX=           -706.0833 YYYY=           -706.0833 ZZZZ=            -56.1744 XXXY=              0.0000
 XXXZ=              0.0000 YYYX=              0.0000 YYYZ=             -0.0000 ZZZX=              0.0000
 ZZZY=             -0.0000 XXYY=           -235.3611 XXZZ=           -123.1935 YYZZ=           -123.1935
 XXYZ=             -0.0000 YYXZ=              0.0000 ZZXY=              0.0000
 N-N= 2.748798462168D+02 E-N=-4.391411113491D+03  KE= 1.610783757268D+03
 Symmetry A1   KE= 9.787224052825D+02
 Symmetry A2   KE= 4.514738786139D+01
 Symmetry B1   KE= 4.774960617718D+02
 Symmetry B2   KE= 1.094179023526D+02
 Calling FoFJK, ICntrl=  10002127 FMM=F ISym2X=1 I1Cent= 0 IOpClX= 0 NMat=1 NMatS=1 NMatT=0.
 ***** Axes restored to original set *****
 -------------------------------------------------------------------
 Center     Atomic                   Forces (Hartrees/Bohr)
 Number     Number              X              Y              Z
 -------------------------------------------------------------------
      1       13           0.000000000   -0.000000000   -0.000000000
      2       17           0.000000000   -0.016592708   -0.000000000
      3       17          -0.014369706    0.008296354    0.000000000
      4       17           0.014369706    0.008296354   -0.000000000
 -------------------------------------------------------------------
 Cartesian Forces:  Max     0.016592708 RMS     0.008296354

 GradGradGradGradGradGradGradGradGradGradGradGradGradGradGradGradGradGrad
 Berny optimization.
 FormGI is forming the generalized inverse of G from B-inverse, IUseBI=4.
 Internal  Forces:  Max     0.016592708 RMS     0.010862477
 Search for a local minimum.
 Step number   1 out of a maximum of   20
 All quantities printed in internal units (Hartrees-Bohrs-Radians)
 Mixed Optimization -- RFO/linear search
 Second derivative matrix not updated -- first step.
 The second derivative matrix:
                          R1        R2        R3        A1        A2
           R1           0.17088
           R2           0.00000   0.17088
           R3           0.00000   0.00000   0.17088
           A1           0.00000   0.00000   0.00000   0.25000
           A2           0.00000   0.00000   0.00000   0.00000   0.25000
           A3           0.00000   0.00000   0.00000   0.00000   0.00000
           D1           0.00000   0.00000   0.00000   0.00000   0.00000
                          A3        D1
           A3           0.25000
           D1           0.00000   0.00902
 ITU=  0
     Eigenvalues ---    0.00902   0.17088   0.17088   0.17088   0.25000
     Eigenvalues ---    0.25000
 RFO step:  Lambda=-4.70411417D-03 EMin= 9.01551834D-03
 Linear search not attempted -- first point.
 Iteration  1 RMS(Cart)=  0.06186588 RMS(Int)=  0.00000000
 Iteration  2 RMS(Cart)=  0.00000000 RMS(Int)=  0.00000000
 ClnCor:  largest displacement from symmetrization is 4.57D-12 for atom     1.
 Variable       Old X    -DE/DX   Delta X   Delta X   Delta X     New X
                                 (Linear)    (Quad)   (Total)
    R1        4.23299  -0.01659   0.00000  -0.09450  -0.09450   4.13848
    R2        4.23299  -0.01659   0.00000  -0.09450  -0.09450   4.13848
    R3        4.23299  -0.01659   0.00000  -0.09450  -0.09450   4.13848
    A1        2.09440   0.00000   0.00000   0.00000   0.00000   2.09440
    A2        2.09440   0.00000   0.00000   0.00000   0.00000   2.09440
    A3        2.09440  -0.00000   0.00000  -0.00000   0.00000   2.09440
    D1        3.14159   0.00000   0.00000  -0.00000   0.00000   3.14159
         Item               Value     Threshold  Converged?
 Maximum Force            0.016593     0.000450     NO 
 RMS     Force            0.010862     0.000300     NO 
 Maximum Displacement     0.094502     0.001800     NO 
 RMS     Displacement     0.061866     0.001200     NO 
 Predicted change in Energy=-2.415074D-03
 GradGradGradGradGradGradGradGradGradGradGradGradGradGradGradGradGradGrad

                          Input orientation:                          
 ---------------------------------------------------------------------
 Center     Atomic      Atomic             Coordinates (Angstroms)
 Number     Number       Type             X           Y           Z
 ---------------------------------------------------------------------
      1         13           0        0.000000    0.000000    0.000000
      2         17           0       -0.000000    2.189992   -0.000000
      3         17           0        1.896589   -1.094996    0.000000
      4         17           0       -1.896589   -1.094996   -0.000000
 ---------------------------------------------------------------------
                    Distance matrix (angstroms):
                    1          2          3          4
     1  Al   0.000000
     2  Cl   2.189992   0.000000
     3  Cl   2.189992   3.793177   0.000000
     4  Cl   2.189992   3.793177   3.793177   0.000000
 Stoichiometry    AlCl3
 Framework group  D3H[O(Al),3C2(Cl)]
 Deg. of freedom     1
 Full point group                 D3H     NOp  12
 Largest Abelian subgroup         C2V     NOp   4
 Largest concise Abelian subgroup C2      NOp   2
                         Standard orientation:                         
 ---------------------------------------------------------------------
 Center     Atomic      Atomic             Coordinates (Angstroms)
 Number     Number       Type             X           Y           Z
 ---------------------------------------------------------------------
      1         13           0        0.000000    0.000000    0.000000
      2         17           0        0.000000    2.189992    0.000000
      3         17           0       -1.896589   -1.094996    0.000000
      4         17           0        1.896589   -1.094996    0.000000
 ---------------------------------------------------------------------
 Rotational constants (GHZ):           2.0089057           2.0089057           1.0044529
 Standard basis: 3-21G (6D, 7F)
 There are    24 symmetry adapted cartesian basis functions of A1  symmetry.
 There are     3 symmetry adapted cartesian basis functions of A2  symmetry.
 There are    16 symmetry adapted cartesian basis functions of B1  symmetry.
 There are     9 symmetry adapted cartesian basis functions of B2  symmetry.
 There are    24 symmetry adapted basis functions of A1  symmetry.
 There are     3 symmetry adapted basis functions of A2  symmetry.
 There are    16 symmetry adapted basis functions of B1  symmetry.
 There are     9 symmetry adapted basis functions of B2  symmetry.
    52 basis functions,   108 primitive gaussians,    52 cartesian basis functions
    32 alpha electrons       32 beta electrons
       nuclear repulsion energy       281.1566868263 Hartrees.
 NAtoms=    4 NActive=    4 NUniq=    2 SFac= 4.00D+00 NAtFMM=   60 NAOKFM=F Big=F
 Integral buffers will be    131072 words long.
 Raffenetti 1 integral format.
 Two-electron integral symmetry is turned on.
 One-electron integrals computed using PRISM.
 NBasis=    52 RedAO= T EigKep=  4.87D-02  NBF=    24     3    16     9
 NBsUse=    52 1.00D-06 EigRej= -1.00D+00 NBFU=    24     3    16     9
 Initial guess from the checkpoint file:  "AlCl3.chk"
 B after Tr=     0.000000    0.000000    0.000000
         Rot=    1.000000   -0.000000    0.000000   -0.000000 Ang=   0.00 deg.
 Initial guess orbital symmetries:
       Occupied  (A1') (?A) (?A) (?B) (?B) (?A) (?A) (?A) (?A)
                 (?B) (A2") (E") (E") (?A) (?A) (?B) (?B) (A2")
                 (?A) (?A) (?B) (?A) (?A) (?B) (?A) (?A) (A2")
                 (E") (E") (?A) (?A) (?B)
       Virtual   (?B) (A2") (?A) (?A) (?B) (A2") (?A) (?A) (?A)
                 (?A) (?B) (E") (E") (?B) (?A) (?A) (A2") (?B)
                 (?A) (?A)
 ExpMin= 6.39D-02 ExpMax= 1.38D+03 ExpMxC= 1.38D+03 IAcc=3 IRadAn=         5 AccDes= 0.00D+00
 Harris functional with IExCor=  205 and IRadAn=       5 diagonalized for initial guess.
 HarFok:  IExCor=  205 AccDes= 0.00D+00 IRadAn=         5 IDoV= 1 UseB2=F ITyADJ=14
 ICtDFT=  3500011 ScaDFX=  1.000000  1.000000  1.000000  1.000000
 FoFCou: FMM=F IPFlag=           0 FMFlag=      100000 FMFlg1=           0
         NFxFlg=           0 DoJE=T BraDBF=F KetDBF=T FulRan=T
         wScrn=  0.000000 ICntrl=       500 IOpCl=  0 I1Cent=   200000004 NGrid=           0
         NMat0=    1 NMatS0=      1 NMatT0=    0 NMatD0=    1 NMtDS0=    0 NMtDT0=    0
 Petite list used in FoFCou.
 Keep R1 ints in memory in symmetry-blocked form, NReq=1765381.
 Requested convergence on RMS density matrix=1.00D-08 within 128 cycles.
 Requested convergence on MAX density matrix=1.00D-06.
 Requested convergence on             energy=1.00D-06.
 No special actions if energy rises.
 SCF Done:  E(RHF) =  -1612.69525581     A.U. after    9 cycles
            NFock=  9  Conv=0.32D-08     -V/T= 2.0011
 ExpMin= 6.39D-02 ExpMax= 1.38D+03 ExpMxC= 1.38D+03 IAcc=3 IRadAn=         5 AccDes= 0.00D+00
 HarFok:  IExCor=  205 AccDes= 0.00D+00 IRadAn=         5 IDoV=-2 UseB2=F ITyADJ=14
 ICtDFT= 12500011 ScaDFX=  1.000000  1.000000  1.000000  1.000000
 Range of M.O.s used for correlation:    21    52
 NBasis=    52 NAE=    32 NBE=    32 NFC=    20 NFV=     0
 NROrb=     32 NOA=    12 NOB=    12 NVA=    20 NVB=    20
 Fully direct method using O(ONN) memory.
 JobTyp=1 Pass  1:  I=  21 to  32 NPSUse=  1 ParTrn=F ParDer=F DoDerP=T.
 Spin components of T(2) and E(2):
     alpha-alpha T2 =       0.9543600929D-02 E2=     -0.2024558871D-01
     alpha-beta  T2 =       0.5708929022D-01 E2=     -0.1242085562D+00
     beta-beta   T2 =       0.9543600929D-02 E2=     -0.2024558871D-01
 ANorm=    0.1037389267D+01
 E2 =    -0.1646997337D+00 EUMP2 =    -0.16128599555475D+04
          IDoAtm=1111
          Differentiating once with respect to electric field.
                with respect to dipole field.
          Differentiating once with respect to nuclear coordinates.
 Keep R1 ints in memory in symmetry-blocked form, NReq=1766101.
          There are     1 degrees of freedom in the 1st order CPHF.  IDoFFX=0 NUNeed=     1.
 LinEq1:  Iter=  0 NonCon=     1 RMS=6.95D-03 Max=1.20D-01 NDo=     1
 AX will form     1 AO Fock derivatives at one time.
 LinEq1:  Iter=  1 NonCon=     1 RMS=1.72D-03 Max=1.59D-02 NDo=     1
 LinEq1:  Iter=  2 NonCon=     1 RMS=3.43D-04 Max=2.91D-03 NDo=     1
 LinEq1:  Iter=  3 NonCon=     1 RMS=6.39D-05 Max=7.98D-04 NDo=     1
 LinEq1:  Iter=  4 NonCon=     1 RMS=5.46D-06 Max=5.46D-05 NDo=     1
 LinEq1:  Iter=  5 NonCon=     1 RMS=5.47D-07 Max=5.04D-06 NDo=     1
 LinEq1:  Iter=  6 NonCon=     1 RMS=4.49D-08 Max=3.38D-07 NDo=     1
 LinEq1:  Iter=  7 NonCon=     1 RMS=5.53D-09 Max=4.73D-08 NDo=     1
 LinEq1:  Iter=  8 NonCon=     1 RMS=3.22D-10 Max=2.81D-09 NDo=     1
 LinEq1:  Iter=  9 NonCon=     0 RMS=2.29D-11 Max=2.05D-10 NDo=     1
 Linear equations converged to 1.000D-10 1.000D-09 after     9 iterations.
 End of Minotr F.D. properties file   721 does not exist.
 End of Minotr F.D. properties file   722 does not exist.
 End of Minotr F.D. properties file   788 does not exist.
 Calling FoFJK, ICntrl=  10002127 FMM=F ISym2X=1 I1Cent= 0 IOpClX= 0 NMat=1 NMatS=1 NMatT=0.
 ***** Axes restored to original set *****
 -------------------------------------------------------------------
 Center     Atomic                   Forces (Hartrees/Bohr)
 Number     Number              X              Y              Z
 -------------------------------------------------------------------
      1       13           0.000000000   -0.000000000   -0.000000000
      2       17           0.000000000   -0.003253771   -0.000000000
      3       17          -0.002817849    0.001626886    0.000000000
      4       17           0.002817849    0.001626886   -0.000000000
 -------------------------------------------------------------------
 Cartesian Forces:  Max     0.003253771 RMS     0.001626886

 GradGradGradGradGradGradGradGradGradGradGradGradGradGradGradGradGradGrad
 Berny optimization.
 Using GEDIIS/GDIIS optimizer.
 FormGI is forming the generalized inverse of G from B-inverse, IUseBI=4.
 Internal  Forces:  Max     0.003253771 RMS     0.002130093
 Search for a local minimum.
 Step number   2 out of a maximum of   20
 All quantities printed in internal units (Hartrees-Bohrs-Radians)
 Mixed Optimization -- RFO/linear search
 Update second derivatives using D2CorX and points    1    2
 DE= -2.88D-03 DEPred=-2.42D-03 R= 1.19D+00
 TightC=F SS=  1.41D+00  RLast= 1.64D-01 DXNew= 5.0454D-01 4.9105D-01
 Trust test= 1.19D+00 RLast= 1.64D-01 DXMaxT set to 4.91D-01
 The second derivative matrix:
                          R1        R2        R3        A1        A2
           R1           0.16097
           R2          -0.00991   0.16097
           R3          -0.00991  -0.00991   0.16097
           A1          -0.00000  -0.00000  -0.00000   0.25000
           A2          -0.00000  -0.00000  -0.00000   0.00000   0.25000
           A3           0.00000   0.00000   0.00000  -0.00000  -0.00000
           D1           0.00000   0.00000   0.00000  -0.00000  -0.00000
                          A3        D1
           A3           0.25000
           D1           0.00000   0.00902
 ITU=  1  0
 Use linear search instead of GDIIS.
     Eigenvalues ---    0.00902   0.14115   0.17088   0.17088   0.25000
     Eigenvalues ---    0.25000
 RFO step:  Lambda= 0.00000000D+00 EMin= 9.01551834D-03
 Quartic linear search produced a step of  0.21594.
 Iteration  1 RMS(Cart)=  0.01335954 RMS(Int)=  0.00000000
 Iteration  2 RMS(Cart)=  0.00000000 RMS(Int)=  0.00000000
 ClnCor:  largest displacement from symmetrization is 1.86D-12 for atom     4.
 Variable       Old X    -DE/DX   Delta X   Delta X   Delta X     New X
                                 (Linear)    (Quad)   (Total)
    R1        4.13848  -0.00325  -0.02041  -0.00000  -0.02041   4.11808
    R2        4.13848  -0.00325  -0.02041  -0.00000  -0.02041   4.11808
    R3        4.13848  -0.00325  -0.02041   0.00000  -0.02041   4.11808
    A1        2.09440  -0.00000   0.00000  -0.00000   0.00000   2.09440
    A2        2.09440  -0.00000  -0.00000  -0.00000   0.00000   2.09440
    A3        2.09440   0.00000   0.00000   0.00000   0.00000   2.09440
    D1        3.14159   0.00000   0.00000   0.00000   0.00000   3.14159
         Item               Value     Threshold  Converged?
 Maximum Force            0.003254     0.000450     NO 
 RMS     Force            0.002130     0.000300     NO 
 Maximum Displacement     0.020407     0.001800     NO 
 RMS     Displacement     0.013360     0.001200     NO 
 Predicted change in Energy=-1.110271D-04
 GradGradGradGradGradGradGradGradGradGradGradGradGradGradGradGradGradGrad

                          Input orientation:                          
 ---------------------------------------------------------------------
 Center     Atomic      Atomic             Coordinates (Angstroms)
 Number     Number       Type             X           Y           Z
 ---------------------------------------------------------------------
      1         13           0        0.000000   -0.000000    0.000000
      2         17           0       -0.000000    2.179193   -0.000000
      3         17           0        1.887236   -1.089596   -0.000000
      4         17           0       -1.887236   -1.089596   -0.000000
 ---------------------------------------------------------------------
                    Distance matrix (angstroms):
                    1          2          3          4
     1  Al   0.000000
     2  Cl   2.179193   0.000000
     3  Cl   2.179193   3.774473   0.000000
     4  Cl   2.179193   3.774473   3.774473   0.000000
 Stoichiometry    AlCl3
 Framework group  D3H[O(Al),3C2(Cl)]
 Deg. of freedom     1
 Full point group                 D3H     NOp  12
 Largest Abelian subgroup         C2V     NOp   4
 Largest concise Abelian subgroup C2      NOp   2
                         Standard orientation:                         
 ---------------------------------------------------------------------
 Center     Atomic      Atomic             Coordinates (Angstroms)
 Number     Number       Type             X           Y           Z
 ---------------------------------------------------------------------
      1         13           0        0.000000    0.000000    0.000000
      2         17           0        0.000000    2.179193    0.000000
      3         17           0       -1.887236   -1.089596    0.000000
      4         17           0        1.887236   -1.089596    0.000000
 ---------------------------------------------------------------------
 Rotational constants (GHZ):           2.0288652           2.0288652           1.0144326
 Standard basis: 3-21G (6D, 7F)
 There are    24 symmetry adapted cartesian basis functions of A1  symmetry.
 There are     3 symmetry adapted cartesian basis functions of A2  symmetry.
 There are    16 symmetry adapted cartesian basis functions of B1  symmetry.
 There are     9 symmetry adapted cartesian basis functions of B2  symmetry.
 There are    24 symmetry adapted basis functions of A1  symmetry.
 There are     3 symmetry adapted basis functions of A2  symmetry.
 There are    16 symmetry adapted basis functions of B1  symmetry.
 There are     9 symmetry adapted basis functions of B2  symmetry.
    52 basis functions,   108 primitive gaussians,    52 cartesian basis functions
    32 alpha electrons       32 beta electrons
       nuclear repulsion energy       282.5499516934 Hartrees.
 NAtoms=    4 NActive=    4 NUniq=    2 SFac= 4.00D+00 NAtFMM=   60 NAOKFM=F Big=F
 Integral buffers will be    131072 words long.
 Raffenetti 1 integral format.
 Two-electron integral symmetry is turned on.
 One-electron integrals computed using PRISM.
 NBasis=    52 RedAO= T EigKep=  4.82D-02  NBF=    24     3    16     9
 NBsUse=    52 1.00D-06 EigRej= -1.00D+00 NBFU=    24     3    16     9
 Initial guess from the checkpoint file:  "AlCl3.chk"
 B after Tr=    -0.000000    0.000000    0.000000
         Rot=    1.000000    0.000000   -0.000000   -0.000000 Ang=   0.00 deg.
 Initial guess orbital symmetries:
       Occupied  (?A) (?A) (A1') (?B) (?A) (?A) (?B) (?A) (?A)
                 (?B) (A2") (E") (E") (?A) (?A) (?B) (?B) (?A)
                 (?A) (A2") (?B) (?A) (?A) (?B) (?A) (?A) (A2")
                 (?A) (?A) (E") (E") (?B)
       Virtual   (?B) (A2") (?A) (?A) (?B) (A2") (?A) (?A) (?A)
                 (?A) (?B) (E") (E") (?B) (?A) (?A) (A2") (?B)
                 (?A) (?A)
 ExpMin= 6.39D-02 ExpMax= 1.38D+03 ExpMxC= 1.38D+03 IAcc=3 IRadAn=         5 AccDes= 0.00D+00
 Harris functional with IExCor=  205 and IRadAn=       5 diagonalized for initial guess.
 HarFok:  IExCor=  205 AccDes= 0.00D+00 IRadAn=         5 IDoV= 1 UseB2=F ITyADJ=14
 ICtDFT=  3500011 ScaDFX=  1.000000  1.000000  1.000000  1.000000
 FoFCou: FMM=F IPFlag=           0 FMFlag=      100000 FMFlg1=           0
         NFxFlg=           0 DoJE=T BraDBF=F KetDBF=T FulRan=T
         wScrn=  0.000000 ICntrl=       500 IOpCl=  0 I1Cent=   200000004 NGrid=           0
         NMat0=    1 NMatS0=      1 NMatT0=    0 NMatD0=    1 NMtDS0=    0 NMtDT0=    0
 Petite list used in FoFCou.
 Keep R1 ints in memory in symmetry-blocked form, NReq=1765381.
 Requested convergence on RMS density matrix=1.00D-08 within 128 cycles.
 Requested convergence on MAX density matrix=1.00D-06.
 Requested convergence on             energy=1.00D-06.
 No special actions if energy rises.
 SCF Done:  E(RHF) =  -1612.69574093     A.U. after    8 cycles
            NFock=  8  Conv=0.50D-08     -V/T= 2.0010
 ExpMin= 6.39D-02 ExpMax= 1.38D+03 ExpMxC= 1.38D+03 IAcc=3 IRadAn=         5 AccDes= 0.00D+00
 HarFok:  IExCor=  205 AccDes= 0.00D+00 IRadAn=         5 IDoV=-2 UseB2=F ITyADJ=14
 ICtDFT= 12500011 ScaDFX=  1.000000  1.000000  1.000000  1.000000
 Range of M.O.s used for correlation:    21    52
 NBasis=    52 NAE=    32 NBE=    32 NFC=    20 NFV=     0
 NROrb=     32 NOA=    12 NOB=    12 NVA=    20 NVB=    20
 Fully direct method using O(ONN) memory.
 JobTyp=1 Pass  1:  I=  21 to  32 NPSUse=  1 ParTrn=F ParDer=F DoDerP=T.
 Spin components of T(2) and E(2):
     alpha-alpha T2 =       0.9496437604D-02 E2=     -0.2021039327D-01
     alpha-beta  T2 =       0.5670336490D-01 E2=     -0.1238939974D+00
     beta-beta   T2 =       0.9496437604D-02 E2=     -0.2021039327D-01
 ANorm=    0.1037157770D+01
 E2 =    -0.1643147839D+00 EUMP2 =    -0.16128600557095D+04
          IDoAtm=1111
          Differentiating once with respect to electric field.
                with respect to dipole field.
          Differentiating once with respect to nuclear coordinates.
 Keep R1 ints in memory in symmetry-blocked form, NReq=1766101.
          There are     1 degrees of freedom in the 1st order CPHF.  IDoFFX=0 NUNeed=     1.
 LinEq1:  Iter=  0 NonCon=     1 RMS=6.89D-03 Max=1.19D-01 NDo=     1
 AX will form     1 AO Fock derivatives at one time.
 LinEq1:  Iter=  1 NonCon=     1 RMS=1.69D-03 Max=1.58D-02 NDo=     1
 LinEq1:  Iter=  2 NonCon=     1 RMS=3.37D-04 Max=2.86D-03 NDo=     1
 LinEq1:  Iter=  3 NonCon=     1 RMS=6.27D-05 Max=7.82D-04 NDo=     1
 LinEq1:  Iter=  4 NonCon=     1 RMS=5.33D-06 Max=5.31D-05 NDo=     1
 LinEq1:  Iter=  5 NonCon=     1 RMS=5.37D-07 Max=4.94D-06 NDo=     1
 LinEq1:  Iter=  6 NonCon=     1 RMS=4.45D-08 Max=3.38D-07 NDo=     1
 LinEq1:  Iter=  7 NonCon=     1 RMS=5.42D-09 Max=4.69D-08 NDo=     1
 LinEq1:  Iter=  8 NonCon=     1 RMS=3.22D-10 Max=2.88D-09 NDo=     1
 LinEq1:  Iter=  9 NonCon=     0 RMS=2.33D-11 Max=2.34D-10 NDo=     1
 Linear equations converged to 1.000D-10 1.000D-09 after     9 iterations.
 End of Minotr F.D. properties file   721 does not exist.
 End of Minotr F.D. properties file   722 does not exist.
 End of Minotr F.D. properties file   788 does not exist.
 Calling FoFJK, ICntrl=  10002127 FMM=F ISym2X=1 I1Cent= 0 IOpClX= 0 NMat=1 NMatS=1 NMatT=0.
 ***** Axes restored to original set *****
 -------------------------------------------------------------------
 Center     Atomic                   Forces (Hartrees/Bohr)
 Number     Number              X              Y              Z
 -------------------------------------------------------------------
      1       13          -0.000000000   -0.000000000   -0.000000000
      2       17           0.000000000    0.000005425   -0.000000000
      3       17           0.000004698   -0.000002713    0.000000000
      4       17          -0.000004698   -0.000002713   -0.000000000
 -------------------------------------------------------------------
 Cartesian Forces:  Max     0.000005425 RMS     0.000002713

 GradGradGradGradGradGradGradGradGradGradGradGradGradGradGradGradGradGrad
 Berny optimization.
 Using GEDIIS/GDIIS optimizer.
 FormGI is forming the generalized inverse of G from B-inverse, IUseBI=4.
 Internal  Forces:  Max     0.000005425 RMS     0.000003552
 Search for a local minimum.
 Step number   3 out of a maximum of   20
 All quantities printed in internal units (Hartrees-Bohrs-Radians)
 Mixed Optimization -- En-DIIS/RFO-DIIS
 Update second derivatives using D2CorX and points    1    2    3
 DE= -1.00D-04 DEPred=-1.11D-04 R= 9.02D-01
 TightC=F SS=  1.41D+00  RLast= 3.53D-02 DXNew= 8.2584D-01 1.0604D-01
 Trust test= 9.02D-01 RLast= 3.53D-02 DXMaxT set to 4.91D-01
 The second derivative matrix:
                          R1        R2        R3        A1        A2
           R1           0.16715
           R2          -0.00372   0.16715
           R3          -0.00372  -0.00372   0.16715
           A1           0.00000   0.00000   0.00000   0.25000
           A2           0.00000   0.00000   0.00000   0.00000   0.25000
           A3          -0.00000  -0.00000  -0.00000  -0.00000  -0.00000
           D1           0.00000   0.00000   0.00000   0.00000   0.00000
                          A3        D1
           A3           0.25000
           D1          -0.00000   0.00902
 ITU=  1  1  0
 Use linear search instead of GDIIS.
     Eigenvalues ---    0.00902   0.15971   0.17088   0.17088   0.25000
     Eigenvalues ---    0.25000
 RFO step:  Lambda= 0.00000000D+00 EMin= 9.01551834D-03
 Quartic linear search produced a step of -0.00163.
 Iteration  1 RMS(Cart)=  0.00002176 RMS(Int)=  0.00000000
 Iteration  2 RMS(Cart)=  0.00000000 RMS(Int)=  0.00000000
 ClnCor:  largest displacement from symmetrization is 1.67D-13 for atom     3.
 Variable       Old X    -DE/DX   Delta X   Delta X   Delta X     New X
                                 (Linear)    (Quad)   (Total)
    R1        4.11808   0.00001   0.00003   0.00000   0.00003   4.11811
    R2        4.11808   0.00001   0.00003  -0.00000   0.00003   4.11811
    R3        4.11808   0.00001   0.00003  -0.00000   0.00003   4.11811
    A1        2.09440  -0.00000   0.00000  -0.00000   0.00000   2.09440
    A2        2.09440   0.00000   0.00000   0.00000   0.00000   2.09440
    A3        2.09440  -0.00000   0.00000  -0.00000   0.00000   2.09440
    D1        3.14159   0.00000   0.00000   0.00000   0.00000   3.14159
         Item               Value     Threshold  Converged?
 Maximum Force            0.000005     0.000450     YES
 RMS     Force            0.000004     0.000300     YES
 Maximum Displacement     0.000033     0.001800     YES
 RMS     Displacement     0.000022     0.001200     YES
 Predicted change in Energy=-2.762948D-10
 Optimization completed.
    -- Stationary point found.
                           ----------------------------
                           !   Optimized Parameters   !
                           ! (Angstroms and Degrees)  !
 --------------------------                            --------------------------
 ! Name  Definition              Value          Derivative Info.                !
 --------------------------------------------------------------------------------
 ! R1    R(1,2)                  2.1792         -DE/DX =    0.0                 !
 ! R2    R(1,3)                  2.1792         -DE/DX =    0.0                 !
 ! R3    R(1,4)                  2.1792         -DE/DX =    0.0                 !
 ! A1    A(2,1,3)              120.0            -DE/DX =    0.0                 !
 ! A2    A(2,1,4)              120.0            -DE/DX =    0.0                 !
 ! A3    A(3,1,4)              120.0            -DE/DX =    0.0                 !
 ! D1    D(2,1,4,3)            180.0            -DE/DX =    0.0                 !
 --------------------------------------------------------------------------------
 GradGradGradGradGradGradGradGradGradGradGradGradGradGradGradGradGradGrad

                          Input orientation:                          
 ---------------------------------------------------------------------
 Center     Atomic      Atomic             Coordinates (Angstroms)
 Number     Number       Type             X           Y           Z
 ---------------------------------------------------------------------
      1         13           0        0.000000   -0.000000   -0.000000
      2         17           0       -0.000000    2.179193   -0.000000
      3         17           0        1.887236   -1.089596   -0.000000
      4         17           0       -1.887236   -1.089596   -0.000000
 ---------------------------------------------------------------------
                    Distance matrix (angstroms):
                    1          2          3          4
     1  Al   0.000000
     2  Cl   2.179193   0.000000
     3  Cl   2.179193   3.774473   0.000000
     4  Cl   2.179193   3.774473   3.774473   0.000000
 Stoichiometry    AlCl3
 Framework group  D3H[O(Al),3C2(Cl)]
 Deg. of freedom     1
 Full point group                 D3H     NOp  12
 Largest Abelian subgroup         C2V     NOp   4
 Largest concise Abelian subgroup C2      NOp   2
                         Standard orientation:                         
 ---------------------------------------------------------------------
 Center     Atomic      Atomic             Coordinates (Angstroms)
 Number     Number       Type             X           Y           Z
 ---------------------------------------------------------------------
      1         13           0        0.000000    0.000000    0.000000
      2         17           0        0.000000    2.179193    0.000000
      3         17           0       -1.887236   -1.089596    0.000000
      4         17           0        1.887236   -1.089596    0.000000
 ---------------------------------------------------------------------
 Rotational constants (GHZ):           2.0288652           2.0288652           1.0144326

 **********************************************************************

            Population analysis using the SCF Density.

 **********************************************************************

 Orbital symmetries:
       Occupied  (?A) (?A) (A1') (?B) (?A) (?A) (?B) (?A) (?A)
                 (?B) (A2") (E") (E") (?A) (?A) (?B) (?B) (?A)
                 (?A) (A2") (?B) (?A) (?A) (?B) (?A) (?A) (A2")
                 (?A) (?A) (E") (E") (?B)
       Virtual   (?B) (A2") (?A) (?A) (?B) (A2") (?A) (?A) (?A)
                 (?A) (?B) (E") (E") (?B) (?A) (?A) (A2") (?B)
                 (?A) (?A)
 Unable to determine electronic state:  an orbital has unidentified symmetry.
 Alpha  occ. eigenvalues -- -104.13662-104.13662-104.13661 -58.24426 -10.52849
 Alpha  occ. eigenvalues --  -10.52849 -10.52845  -7.99138  -7.99138  -7.99128
 Alpha  occ. eigenvalues --   -7.98836  -7.98811  -7.98811  -7.98803  -7.98803
 Alpha  occ. eigenvalues --   -7.98796  -5.04316  -3.34752  -3.34752  -3.34704
 Alpha  occ. eigenvalues --   -1.12978  -1.11174  -1.11174  -0.62511  -0.54734
 Alpha  occ. eigenvalues --   -0.54734  -0.51998  -0.49464  -0.49464  -0.49412
 Alpha  occ. eigenvalues --   -0.49412  -0.48332
 Alpha virt. eigenvalues --    0.01031   0.01791   0.14560   0.14560   0.23754
 Alpha virt. eigenvalues --    0.28112   0.33162   0.33162   0.72222   0.72222
 Alpha virt. eigenvalues --    0.75671   0.77229   0.77229   0.84353   0.86381
 Alpha virt. eigenvalues --    0.86381   0.87944   0.93837   1.00175   1.00175
          Condensed to atoms (all electrons):
               1          2          3          4
     1  Al  10.884763   0.244579   0.244579   0.244579
     2  Cl   0.244579  17.252488  -0.018283  -0.018283
     3  Cl   0.244579  -0.018283  17.252488  -0.018283
     4  Cl   0.244579  -0.018283  -0.018283  17.252488
 Mulliken charges:
               1
     1  Al   1.381501
     2  Cl  -0.460500
     3  Cl  -0.460500
     4  Cl  -0.460500
 Sum of Mulliken charges =   0.00000
 Mulliken charges with hydrogens summed into heavy atoms:
               1
     1  Al   1.381501
     2  Cl  -0.460500
     3  Cl  -0.460500
     4  Cl  -0.460500
 Electronic spatial extent (au):  <R**2>=            993.1399
 Charge=              0.0000 electrons
 Dipole moment (field-independent basis, Debye):
    X=             -0.0000    Y=              0.0000    Z=             -0.0000  Tot=              0.0000
 Quadrupole moment (field-independent basis, Debye-Ang):
   XX=            -62.3732   YY=            -62.3732   ZZ=            -47.7584
   XY=             -0.0000   XZ=             -0.0000   YZ=             -0.0000
 Traceless Quadrupole moment (field-independent basis, Debye-Ang):
   XX=             -4.8716   YY=             -4.8716   ZZ=              9.7432
   XY=             -0.0000   XZ=             -0.0000   YZ=             -0.0000
 Octapole moment (field-independent basis, Debye-Ang**2):
  XXX=             -0.0000  YYY=            -11.3259  ZZZ=              0.0000  XYY=              0.0000
  XXY=             11.3259  XXZ=              0.0000  XZZ=             -0.0000  YZZ=              0.0000
  YYZ=             -0.0000  XYZ=              0.0000
 Hexadecapole moment (field-independent basis, Debye-Ang**3):
 XXXX=           -668.9817 YYYY=           -668.9817 ZZZZ=            -55.8303 XXXY=              0.0000
 XXXZ=             -0.0000 YYYX=             -0.0000 YYYZ=             -0.0000 ZZZX=             -0.0000
 ZZZY=             -0.0000 XXYY=           -222.9939 XXZZ=           -117.3395 YYZZ=           -117.3395
 XXYZ=             -0.0000 YYXZ=             -0.0000 ZZXY=             -0.0000
 N-N= 2.825499516934D+02 E-N=-4.406934265957D+03  KE= 1.611005515029D+03
 Symmetry A1   KE= 9.788831247110D+02
 Symmetry A2   KE= 4.514794197039D+01
 Symmetry B1   KE= 4.775886148853D+02
 Symmetry B2   KE= 1.093858334620D+02
 Unable to Open any file for archive entry.
 1\1\GINC-BS001\FOpt\RMP2-FC\3-21G\Al1Cl3\PNATT\10-Aug-2026\0\\# opt fr
 eq=hpmodes mp2/3-21g geom=connectivity\\Title Card Required\\0,1\Al,0.
 ,0.,0.\Cl,-0.0000000022,2.1791929244,0.\Cl,1.8872364334,-1.0895964603,
 0.\Cl,-1.8872364312,-1.0895964641,0.\\Version=ES64L-G16RevC.01\HF=-161
 2.6957409\MP2=-1612.8600557\RMSD=5.013e-09\RMSF=2.713e-06\Dipole=0.,0.
 ,0.\PG=D03H [O(Al1),3C2(Cl1)]\\@
 The archive entry for this job was punched.


 WE TEND TO MEET ANY NEW SITUATION BY REORGANIZING. IT CAN BE A
 WONDERFUL METHOD FOR CREATING THE ILLUSION OF PROGRESS WHILE PRODUCING
 CONFUSION, INEFFICIENCY, AND DEMORALIZATION.
     -- PETRONIUS ARBITER, 210 B.C.
 Job cpu time:       0 days  0 hours  0 minutes  4.3 seconds.
 Elapsed time:       0 days  0 hours  0 minutes  4.0 seconds.
 File lengths (MBytes):  RWF=      6 Int=      0 D2E=      0 Chk=      1 Scr=      1
 Normal termination of Gaussian 16 at Mon Aug 10 15:49:15 2026.
 Link1:  Proceeding to internal job step number  2.
 -------------------------------------------------------------------
 #N Geom=AllCheck Guess=TCheck SCRF=Check GenChk RMP2(FC)/3-21G Freq
 -------------------------------------------------------------------
 1/10=4,29=7,30=1,38=1,40=1/1,3;
 2/12=2,40=1/2;
 3/5=5,11=1,14=-4,25=1,30=1,70=2,71=2,116=1,140=1/1,2,3;
 4/5=101/1;
 5/5=2,38=6,98=1/2;
 8/6=3,8=1,10=1,19=11,30=-1/1;
 9/15=3,16=-3/6;
 11/6=1,8=1,15=11,17=12,24=-1,27=1,28=-2,29=300,32=6,42=3/1,2,10;
 10/6=2,21=1/2;
 8/6=4,8=1,10=1,19=11,30=-1/11,4;
 10/5=1,20=4/2;
 11/12=2,14=11,16=1,17=2,28=-2,42=3,76=2/2,10,12;
 6/7=2,8=2,9=2,10=2/1;
 7/8=11,10=1,12=2,25=1,44=2/1,2,3,16;
 1/10=4,30=1/3;
 99//99;
 Structure from the checkpoint file:  "AlCl3.chk"
 -------------------
 Title Card Required
 -------------------
 Charge =  0 Multiplicity = 1
 Redundant internal coordinates found in file.  (old form).
 Al,0,0.,0.,0.
 Cl,0,-0.0000000022,2.1791929244,0.
 Cl,0,1.8872364334,-1.0895964603,0.
 Cl,0,-1.8872364312,-1.0895964641,0.
 Recover connectivity data from disk.

 GradGradGradGradGradGradGradGradGradGradGradGradGradGradGradGradGradGrad
 Berny optimization.
 Initialization pass.
                           ----------------------------
                           !    Initial Parameters    !
                           ! (Angstroms and Degrees)  !
 --------------------------                            --------------------------
 ! Name  Definition              Value          Derivative Info.                !
 --------------------------------------------------------------------------------
 ! R1    R(1,2)                  2.1792         calculate D2E/DX2 analytically  !
 ! R2    R(1,3)                  2.1792         calculate D2E/DX2 analytically  !
 ! R3    R(1,4)                  2.1792         calculate D2E/DX2 analytically  !
 ! A1    A(2,1,3)              120.0            calculate D2E/DX2 analytically  !
 ! A2    A(2,1,4)              120.0            calculate D2E/DX2 analytically  !
 ! A3    A(3,1,4)              120.0            calculate D2E/DX2 analytically  !
 ! D1    D(2,1,4,3)            180.0            calculate D2E/DX2 analytically  !
 --------------------------------------------------------------------------------
 Trust Radius=3.00D-01 FncErr=1.00D-07 GrdErr=1.00D-07 EigMax=2.50D+02 EigMin=1.00D-04
 Number of steps in this run=      2 maximum allowed number of steps=      2.
 GradGradGradGradGradGradGradGradGradGradGradGradGradGradGradGradGradGrad

                          Input orientation:                          
 ---------------------------------------------------------------------
 Center     Atomic      Atomic             Coordinates (Angstroms)
 Number     Number       Type             X           Y           Z
 ---------------------------------------------------------------------
      1         13           0       -0.000000   -0.000000   -0.000000
      2         17           0       -0.000000    2.179193   -0.000000
      3         17           0        1.887236   -1.089596   -0.000000
      4         17           0       -1.887236   -1.089596   -0.000000
 ---------------------------------------------------------------------
                    Distance matrix (angstroms):
                    1          2          3          4
     1  Al   0.000000
     2  Cl   2.179193   0.000000
     3  Cl   2.179193   3.774473   0.000000
     4  Cl   2.179193   3.774473   3.774473   0.000000
 Stoichiometry    AlCl3
 Framework group  D3H[O(Al),3C2(Cl)]
 Deg. of freedom     1
 Full point group                 D3H     NOp  12
 Largest Abelian subgroup         C2V     NOp   4
 Largest concise Abelian subgroup C2      NOp   2
                         Standard orientation:                         
 ---------------------------------------------------------------------
 Center     Atomic      Atomic             Coordinates (Angstroms)
 Number     Number       Type             X           Y           Z
 ---------------------------------------------------------------------
      1         13           0        0.000000    0.000000    0.000000
      2         17           0        0.000000    2.179193    0.000000
      3         17           0       -1.887236   -1.089596    0.000000
      4         17           0        1.887236   -1.089596    0.000000
 ---------------------------------------------------------------------
 Rotational constants (GHZ):           2.0288652           2.0288652           1.0144326
 Standard basis: 3-21G (6D, 7F)
 There are    24 symmetry adapted cartesian basis functions of A1  symmetry.
 There are     3 symmetry adapted cartesian basis functions of A2  symmetry.
 There are    16 symmetry adapted cartesian basis functions of B1  symmetry.
 There are     9 symmetry adapted cartesian basis functions of B2  symmetry.
 There are    24 symmetry adapted basis functions of A1  symmetry.
 There are     3 symmetry adapted basis functions of A2  symmetry.
 There are    16 symmetry adapted basis functions of B1  symmetry.
 There are     9 symmetry adapted basis functions of B2  symmetry.
    52 basis functions,   108 primitive gaussians,    52 cartesian basis functions
    32 alpha electrons       32 beta electrons
       nuclear repulsion energy       282.5499516934 Hartrees.
 NAtoms=    4 NActive=    4 NUniq=    2 SFac= 4.00D+00 NAtFMM=   60 NAOKFM=F Big=F
 Integral buffers will be    131072 words long.
 Raffenetti 1 integral format.
 Two-electron integral symmetry is turned on.
 One-electron integrals computed using PRISM.
 NBasis=    52 RedAO= T EigKep=  4.82D-02  NBF=    24     3    16     9
 NBsUse=    52 1.00D-06 EigRej= -1.00D+00 NBFU=    24     3    16     9
 Initial guess from the checkpoint file:  "AlCl3.chk"
 B after Tr=     0.000000   -0.000000    0.000000
         Rot=    1.000000    0.000000    0.000000    0.000000 Ang=   0.00 deg.
 Initial guess orbital symmetries:
       Occupied  (?A) (?A) (A1') (?B) (?A) (?A) (?B) (?A) (?A)
                 (?B) (A2") (E") (E") (?A) (?A) (?B) (?B) (?A)
                 (?A) (A2") (?B) (?A) (?A) (?B) (?A) (?A) (A2")
                 (?A) (?A) (E") (E") (?B)
       Virtual   (?B) (A2") (?A) (?A) (?B) (A2") (?A) (?A) (?A)
                 (?A) (?B) (E") (E") (?B) (?A) (?A) (A2") (?B)
                 (?A) (?A)
 Keep R1 ints in memory in symmetry-blocked form, NReq=1765381.
 Requested convergence on RMS density matrix=1.00D-08 within 128 cycles.
 Requested convergence on MAX density matrix=1.00D-06.
 Requested convergence on             energy=1.00D-06.
 No special actions if energy rises.
 SCF Done:  E(RHF) =  -1612.69574093     A.U. after    1 cycles
            NFock=  1  Conv=0.48D-09     -V/T= 2.0010
 ExpMin= 6.39D-02 ExpMax= 1.38D+03 ExpMxC= 1.38D+03 IAcc=3 IRadAn=         5 AccDes= 0.00D+00
 HarFok:  IExCor=  205 AccDes= 0.00D+00 IRadAn=         5 IDoV=-2 UseB2=F ITyADJ=14
 ICtDFT= 12500011 ScaDFX=  1.000000  1.000000  1.000000  1.000000
 Range of M.O.s used for correlation:    21    52
 NBasis=    52 NAE=    32 NBE=    32 NFC=    20 NFV=     0
 NROrb=     32 NOA=    12 NOB=    12 NVA=    20 NVB=    20
 Disk-based method using ON**2 memory for 12 occupieds at a time.
 Permanent disk used for amplitudes=      503840 words.
 Estimated scratch disk usage=     2632692 words.
 Actual    scratch disk usage=     2632692 words.
 JobTyp=1 Pass  1:  I=  21 to  32 NPSUse=  1 ParTrn=F ParDer=F DoDerP=T.
 (rs|ai) integrals will be sorted in core.
 Spin components of T(2) and E(2):
     alpha-alpha T2 =       0.9496437568D-02 E2=     -0.2021039323D-01
     alpha-beta  T2 =       0.5670336475D-01 E2=     -0.1238939973D+00
     beta-beta   T2 =       0.9496437568D-02 E2=     -0.2021039323D-01
 ANorm=    0.1037157770D+01
 E2 =    -0.1643147837D+00 EUMP2 =    -0.16128600557092D+04
 G2DrvN: will do     5 centers at a time, making    1 passes.
 Calling FoFCou, ICntrl=  3107 FMM=F I1Cent=   0 AccDes= 0.00D+00.
 End of G2Drv F.D. properties file   721 does not exist.
 End of G2Drv F.D. properties file   722 does not exist.
 End of G2Drv F.D. properties file   788 does not exist.
          IDoAtm=1111
          Differentiating once with respect to electric field.
                with respect to dipole field.
          Differentiating once with respect to nuclear coordinates.
 Keep R1 ints in memory in symmetry-blocked form, NReq=1766050.
          There are    15 degrees of freedom in the 1st order CPHF.  IDoFFX=6 NUNeed=    15.
     12 vectors produced by pass  0 Test12= 4.27D-15 6.67D-09 XBig12= 1.60D+01 1.94D+00.
 AX will form    12 AO Fock derivatives at one time.
     12 vectors produced by pass  1 Test12= 4.27D-15 6.67D-09 XBig12= 5.98D-01 2.53D-01.
     12 vectors produced by pass  2 Test12= 4.27D-15 6.67D-09 XBig12= 1.87D-02 6.93D-02.
     12 vectors produced by pass  3 Test12= 4.27D-15 6.67D-09 XBig12= 2.50D-04 5.57D-03.
     12 vectors produced by pass  4 Test12= 4.27D-15 6.67D-09 XBig12= 2.27D-06 4.93D-04.
     12 vectors produced by pass  5 Test12= 4.27D-15 6.67D-09 XBig12= 1.13D-08 3.07D-05.
     11 vectors produced by pass  6 Test12= 4.27D-15 6.67D-09 XBig12= 2.86D-11 1.46D-06.
      3 vectors produced by pass  7 Test12= 4.27D-15 6.67D-09 XBig12= 1.42D-13 1.07D-07.
      2 vectors produced by pass  8 Test12= 4.27D-15 6.67D-09 XBig12= 6.68D-16 7.59D-09.
 InvSVY:  IOpt=1 It=  1 EMax= 8.88D-16
 Solved reduced A of dimension    88 with    12 vectors.
 End of Minotr F.D. properties file   721 does not exist.
 End of Minotr F.D. properties file   722 does not exist.
 End of Minotr F.D. properties file   788 does not exist.
 MDV=   104857600.
 Form MO integral derivatives with frozen-active canonical formalism.
 Discarding MO integrals.
 Reordered first order wavefunction length =       819200
 In DefCFB: NBatch=  1 ICI= 32 ICA= 20 LFMax= 32
            Large arrays: LIAPS=     6922240 LIARS=     3028480 words.
 Semi-Direct transformation.
 ModeAB=           4 MOrb=            32 LenV=     104701787
 LASXX=      1066136 LTotXX=     1066136 LenRXX=     2337720
 LTotAB=     1271584 MaxLAS=     1475968 LenRXY=           0
 NonZer=     3403856 LenScr=     5832704 LnRSAI=     1475968
 LnScr1=     2951168 LExtra=           0 Total=     12597560
 MaxDsk=          -1 SrtSym=           T ITran=            4
 JobTyp=0 Pass  1:  I=   1 to  32.
 (rs|ai) integrals will be sorted in core.
 Spin components of T(2) and E(2):
     alpha-alpha T2 =       0.9496437568D-02 E2=     -0.2021039323D-01
     alpha-beta  T2 =       0.5670336475D-01 E2=     -0.1238939973D+00
     beta-beta   T2 =       0.9496437568D-02 E2=     -0.2021039323D-01
 ANorm=    0.1466762585D+01
 E2 =    -0.1643147837D+00 EUMP2 =    -0.16128600557092D+04
          IDoAtm=1111
          Differentiating once with respect to electric field.
                with respect to dipole field.
          Differentiating once with respect to nuclear coordinates.
          There are     1 degrees of freedom in the 1st order CPHF.  IDoFFX=0 NUNeed=     1.
 LinEq1:  Iter=  0 NonCon=     1 RMS=6.89D-03 Max=1.19D-01 NDo=     1
 LinEq1:  Iter=  1 NonCon=     1 RMS=1.69D-03 Max=1.58D-02 NDo=     1
 LinEq1:  Iter=  2 NonCon=     1 RMS=3.37D-04 Max=2.86D-03 NDo=     1
 LinEq1:  Iter=  3 NonCon=     1 RMS=6.27D-05 Max=7.82D-04 NDo=     1
 LinEq1:  Iter=  4 NonCon=     1 RMS=5.33D-06 Max=5.31D-05 NDo=     1
 LinEq1:  Iter=  5 NonCon=     1 RMS=5.37D-07 Max=4.94D-06 NDo=     1
 LinEq1:  Iter=  6 NonCon=     1 RMS=4.45D-08 Max=3.38D-07 NDo=     1
 LinEq1:  Iter=  7 NonCon=     1 RMS=5.42D-09 Max=4.69D-08 NDo=     1
 LinEq1:  Iter=  8 NonCon=     1 RMS=3.22D-10 Max=2.88D-09 NDo=     1
 LinEq1:  Iter=  9 NonCon=     0 RMS=2.33D-11 Max=2.34D-10 NDo=     1
 Linear equations converged to 1.000D-10 1.000D-09 after     9 iterations.
 End of Minotr F.D. properties file   721 does not exist.
 End of Minotr F.D. properties file   722 does not exist.
 End of Minotr F.D. properties file   788 does not exist.
 Symmetrizing basis deriv contribution to polar:
 IMax=3 JMax=2 DiffMx= 0.00D+00
 G2DrvN: will do     5 centers at a time, making    1 passes.
 Calling FoFCou, ICntrl=  3107 FMM=F I1Cent=   0 AccDes= 0.00D+00.
 End of G2Drv F.D. properties file   721 does not exist.
 End of G2Drv F.D. properties file   722 does not exist.
 End of G2Drv F.D. properties file   788 does not exist.
 R2 and R3 integrals will be kept in memory, NReq=     2700262.
 DD1Dir will call FoFMem   1 times, MxPair=      1056
 NAB=   528 NAA=     0 NBB=     0.
 Discarding MO integrals.

 **********************************************************************

            Population analysis using the SCF Density.

 **********************************************************************

 Orbital symmetries:
       Occupied  (?A) (?A) (A1') (?B) (?A) (?A) (?B) (?A) (?A)
                 (?B) (A2") (E") (E") (?A) (?A) (?B) (?B) (?A)
                 (?A) (A2") (?B) (?A) (?A) (?B) (?A) (?A) (A2")
                 (?A) (?A) (E") (E") (?B)
       Virtual   (?B) (A2") (?A) (?A) (?B) (A2") (?A) (?A) (?A)
                 (?A) (?B) (E") (E") (?B) (?A) (?A) (A2") (?B)
                 (?A) (?A)
 Unable to determine electronic state:  an orbital has unidentified symmetry.
 Alpha  occ. eigenvalues -- -104.13662-104.13662-104.13661 -58.24426 -10.52849
 Alpha  occ. eigenvalues --  -10.52849 -10.52845  -7.99138  -7.99138  -7.99128
 Alpha  occ. eigenvalues --   -7.98836  -7.98811  -7.98811  -7.98803  -7.98803
 Alpha  occ. eigenvalues --   -7.98796  -5.04316  -3.34752  -3.34752  -3.34704
 Alpha  occ. eigenvalues --   -1.12978  -1.11174  -1.11174  -0.62511  -0.54734
 Alpha  occ. eigenvalues --   -0.54734  -0.51998  -0.49464  -0.49464  -0.49412
 Alpha  occ. eigenvalues --   -0.49412  -0.48332
 Alpha virt. eigenvalues --    0.01031   0.01791   0.14560   0.14560   0.23754
 Alpha virt. eigenvalues --    0.28112   0.33162   0.33162   0.72222   0.72222
 Alpha virt. eigenvalues --    0.75671   0.77229   0.77229   0.84353   0.86381
 Alpha virt. eigenvalues --    0.86381   0.87944   0.93837   1.00175   1.00175
          Condensed to atoms (all electrons):
               1          2          3          4
     1  Al  10.884763   0.244579   0.244579   0.244579
     2  Cl   0.244579  17.252488  -0.018283  -0.018283
     3  Cl   0.244579  -0.018283  17.252488  -0.018283
     4  Cl   0.244579  -0.018283  -0.018283  17.252488
 Mulliken charges:
               1
     1  Al   1.381501
     2  Cl  -0.460500
     3  Cl  -0.460500
     4  Cl  -0.460500
 Sum of Mulliken charges =   0.00000
 Mulliken charges with hydrogens summed into heavy atoms:
               1
     1  Al   1.381501
     2  Cl  -0.460500
     3  Cl  -0.460500
     4  Cl  -0.460500
 APT charges:
               1
     1  Al   1.676494
     2  Cl  -0.558831
     3  Cl  -0.558831
     4  Cl  -0.558831
 Sum of APT charges =   0.00000
 APT charges with hydrogens summed into heavy atoms:
               1
     1  Al   1.676494
     2  Cl  -0.558831
     3  Cl  -0.558831
     4  Cl  -0.558831
 Electronic spatial extent (au):  <R**2>=            993.1399
 Charge=              0.0000 electrons
 Dipole moment (field-independent basis, Debye):
    X=             -0.0000    Y=              0.0000    Z=             -0.0000  Tot=              0.0000
 Quadrupole moment (field-independent basis, Debye-Ang):
   XX=            -62.3732   YY=            -62.3732   ZZ=            -47.7584
   XY=             -0.0000   XZ=             -0.0000   YZ=             -0.0000
 Traceless Quadrupole moment (field-independent basis, Debye-Ang):
   XX=             -4.8716   YY=             -4.8716   ZZ=              9.7432
   XY=             -0.0000   XZ=             -0.0000   YZ=             -0.0000
 Octapole moment (field-independent basis, Debye-Ang**2):
  XXX=             -0.0000  YYY=            -11.3259  ZZZ=             -0.0000  XYY=              0.0000
  XXY=             11.3259  XXZ=              0.0000  XZZ=             -0.0000  YZZ=              0.0000
  YYZ=             -0.0000  XYZ=              0.0000
 Hexadecapole moment (field-independent basis, Debye-Ang**3):
 XXXX=           -668.9817 YYYY=           -668.9817 ZZZZ=            -55.8303 XXXY=             -0.0000
 XXXZ=             -0.0000 YYYX=             -0.0000 YYYZ=             -0.0000 ZZZX=             -0.0000
 ZZZY=             -0.0000 XXYY=           -222.9939 XXZZ=           -117.3395 YYZZ=           -117.3395
 XXYZ=             -0.0000 YYXZ=             -0.0000 ZZXY=             -0.0000
 N-N= 2.825499516934D+02 E-N=-4.406934265927D+03  KE= 1.611005515012D+03
 Symmetry A1   KE= 9.788831247216D+02
 Symmetry A2   KE= 4.514794195123D+01
 Symmetry B1   KE= 4.775886149315D+02
 Symmetry B2   KE= 1.093858334079D+02
  Exact polarizability:      56.325      -0.000      56.325       0.000      -0.000      22.725
 Approx polarizability:      39.915       0.000      39.915      -0.000      -0.000      15.297
 Calling FoFJK, ICntrl=  10100127 FMM=F ISym2X=1 I1Cent= 0 IOpClX= 0 NMat=1 NMatS=1 NMatT=0.
 Full mass-weighted force constant matrix:
 Low frequencies ---   -1.0017   -1.0017   -0.9988   -0.0067   -0.0049   -0.0010
 Low frequencies ---  139.7370  139.7370  189.5614
 Diagonal vibrational polarizability:
       32.4756326      32.4756326      47.8570256
 Harmonic frequencies (cm**-1), IR intensities (KM/Mole), Raman scattering
 activities (A**4/AMU), depolarization ratios for plane and unpolarized
 incident light, reduced masses (AMU), force constants (mDyne/A),
 and normal coordinates:
                           1         2         3         4         5
                          ?A        ?A        A2"       ?B        ?A
       Frequencies ---   139.7370  139.7370  189.5614  351.2037  586.2406
    Reduced masses ---    33.7431   33.7431   28.3041   34.9689   29.1616
   Force constants ---     0.3882    0.3882    0.5992    2.5413    5.9049
    IR Intensities ---    14.7681   14.7681   63.9017    0.0000  154.8114
 Coord Atom Element:
   1     1    13          0.00112  -0.39175   0.00000   0.00000   0.01561
   2     1    13         -0.39175  -0.00112   0.00000   0.00000   0.85254
   3     1    13          0.00000   0.00000   0.91346  -0.00000  -0.00000
   1     2    17         -0.00179   0.62231  -0.00000  -0.00000  -0.00022
   2     2    17         -0.42080  -0.00121  -0.00000   0.57735  -0.42632
   3     2    17         -0.00000  -0.00000  -0.23494   0.00000   0.00000
   1     3    17         -0.45122  -0.16132   0.00000  -0.50000  -0.18522
   2     3    17          0.36283  -0.45065   0.00000  -0.28868  -0.11903
   3     3    17         -0.00000  -0.00000  -0.23494   0.00000   0.00000
   1     4    17          0.45214  -0.15873   0.00000   0.50000   0.17340
   2     4    17          0.36024   0.45272  -0.00000  -0.28868  -0.11246
   3     4    17         -0.00000  -0.00000  -0.23494   0.00000   0.00000
                           6
                          ?A
       Frequencies ---   586.2406
    Reduced masses ---    29.1616
   Force constants ---     5.9049
    IR Intensities ---   154.8114
 Coord Atom Element:
   1     1    13          0.85254
   2     1    13         -0.01561
   3     1    13         -0.00000
   1     2    17         -0.01222
   2     2    17          0.00781
   3     2    17          0.00000
   1     3    17         -0.31951
   2     3    17         -0.17719
   3     3    17          0.00000
   1     4    17         -0.32608
   2     4    17          0.18143
   3     4    17          0.00000
 Harmonic frequencies (cm**-1), IR intensities (KM/Mole), Raman scattering
 activities (A**4/AMU), depolarization ratios for plane and unpolarized
 incident light, reduced masses (AMU), force constants (mDyne/A),
 and normal coordinates:
                      1                      2                      3
                     ?A                     ?A                     A2"
 Frequencies --    139.7370               139.7370               189.5614
 Red. masses --     33.7431                33.7431                28.3041
 Frc consts  --      0.3882                 0.3882                 0.5992
 IR Inten    --     14.7681                14.7681                63.9017
  Atom  AN      X      Y      Z        X      Y      Z        X      Y      Z
     1  13     0.00  -0.39   0.00    -0.39  -0.00   0.00     0.00   0.00   0.91
     2  17    -0.00  -0.42  -0.00     0.62  -0.00  -0.00    -0.00  -0.00  -0.23
     3  17    -0.45   0.36  -0.00    -0.16  -0.45  -0.00     0.00   0.00  -0.23
     4  17     0.45   0.36  -0.00    -0.16   0.45  -0.00     0.00  -0.00  -0.23
                      4                      5                      6
                     ?B                     ?A                     ?A
 Frequencies --    351.2037               586.2406               586.2406
 Red. masses --     34.9689                29.1616                29.1616
 Frc consts  --      2.5413                 5.9049                 5.9049
 IR Inten    --      0.0000               154.8114               154.8114
  Atom  AN      X      Y      Z        X      Y      Z        X      Y      Z
     1  13     0.00   0.00  -0.00     0.02   0.85  -0.00     0.85  -0.02  -0.00
     2  17    -0.00   0.58   0.00    -0.00  -0.43   0.00    -0.01   0.01   0.00
     3  17    -0.50  -0.29   0.00    -0.19  -0.12   0.00    -0.32  -0.18   0.00
     4  17     0.50  -0.29   0.00     0.17  -0.11   0.00    -0.33   0.18   0.00

 -------------------
 - Thermochemistry -
 -------------------
 Temperature   298.150 Kelvin.  Pressure   1.00000 Atm.
 Atom     1 has atomic number 13 and mass  26.98154
 Atom     2 has atomic number 17 and mass  34.96885
 Atom     3 has atomic number 17 and mass  34.96885
 Atom     4 has atomic number 17 and mass  34.96885
 Molecular mass:   131.88810 amu.
 Principal axes and moments of inertia in atomic units:
                           1         2         3
     Eigenvalues --   889.53233 889.532331779.06466
           X            0.38268   0.92388   0.00000
           Y            0.92388  -0.38268   0.00000
           Z            0.00000  -0.00000   1.00000
 This molecule is an oblate symmetric top.
 Rotational symmetry number  6.
 Warning -- assumption of classical behavior for rotation
           may cause significant error
 Rotational temperatures (Kelvin)      0.09737     0.09737     0.04869
 Rotational constants (GHZ):           2.02887     2.02887     1.01443
 Zero-point vibrational energy      11919.1 (Joules/Mol)
                                    2.84874 (Kcal/Mol)
 Warning -- explicit consideration of   6 degrees of freedom as
           vibrations may cause significant error
 Vibrational temperatures:    201.05   201.05   272.74   505.30   843.47
          (Kelvin)            843.47
 
 Zero-point correction=                           0.004540 (Hartree/Particle)
 Thermal correction to Energy=                    0.009968
 Thermal correction to Enthalpy=                  0.010912
 Thermal correction to Gibbs Free Energy=        -0.025042
 Sum of electronic and zero-point Energies=          -1612.855516
 Sum of electronic and thermal Energies=             -1612.850088
 Sum of electronic and thermal Enthalpies=           -1612.849144
 Sum of electronic and thermal Free Energies=        -1612.885098
 
                     E (Thermal)             CV                S
                      KCal/Mol        Cal/Mol-Kelvin    Cal/Mol-Kelvin
 Total                    6.255             15.338             75.672
 Electronic               0.000              0.000              0.000
 Translational            0.889              2.981             40.543
 Rotational               0.889              2.981             25.173
 Vibrational              4.477              9.376              9.956
 Vibration     1          0.615              1.914              2.807
 Vibration     2          0.615              1.914              2.807
 Vibration     3          0.633              1.854              2.232
 Vibration     4          0.728              1.573              1.161
 Vibration     5          0.943              1.061              0.474
 Vibration     6          0.943              1.061              0.474
                       Q            Log10(Q)             Ln(Q)
 Total Bot       0.330059D+12         11.518591         26.522537
 Total V=0       0.404324D+14         13.606730         31.330654
 Vib (Bot)       0.783208D-01         -1.106123         -2.546942
 Vib (Bot)    1  0.145523D+01          0.162932          0.375166
 Vib (Bot)    2  0.145523D+01          0.162932          0.375166
 Vib (Bot)    3  0.105597D+01          0.023653          0.054464
 Vib (Bot)    4  0.524923D+00         -0.279904         -0.644503
 Vib (Bot)    5  0.258304D+00         -0.587869         -1.353617
 Vib (Bot)    6  0.258304D+00         -0.587869         -1.353617
 Vib (V=0)       0.959435D+01          0.982016          2.261175
 Vib (V=0)    1  0.203873D+01          0.309361          0.712329
 Vib (V=0)    2  0.203873D+01          0.309361          0.712329
 Vib (V=0)    3  0.166837D+01          0.222292          0.511846
 Vib (V=0)    4  0.122494D+01          0.088116          0.202896
 Vib (V=0)    5  0.106278D+01          0.026443          0.060888
 Vib (V=0)    6  0.106278D+01          0.026443          0.060888
 Electronic      0.100000D+01          0.000000          0.000000
 Translational   0.595336D+08          7.774762         17.902052
 Rotational      0.707867D+05          4.849952         11.167427
 ***** Axes restored to original set *****
 -------------------------------------------------------------------
 Center     Atomic                   Forces (Hartrees/Bohr)
 Number     Number              X              Y              Z
 -------------------------------------------------------------------
      1       13          -0.000000000    0.000000000    0.000000000
      2       17          -0.000000000    0.000005424    0.000000000
      3       17           0.000004698   -0.000002712   -0.000000000
      4       17          -0.000004698   -0.000002712    0.000000000
 -------------------------------------------------------------------
 Cartesian Forces:  Max     0.000005424 RMS     0.000002712
 FormGI is forming the generalized inverse of G from B-inverse, IUseBI=4.

 GradGradGradGradGradGradGradGradGradGradGradGradGradGradGradGradGradGrad
 Berny optimization.
 Internal  Forces:  Max     0.000005424 RMS     0.000003551
 Search for a local minimum.
 Step number   1 out of a maximum of    2
 All quantities printed in internal units (Hartrees-Bohrs-Radians)
 Second derivative matrix not updated -- analytic derivatives used.
 The second derivative matrix:
                          R1        R2        R3        A1        A2
           R1           0.15831
           R2           0.00246   0.15831
           R3           0.00246   0.00246   0.15831
           A1           0.00496   0.00496  -0.00992   0.05909
           A2           0.00496  -0.00992   0.00496  -0.02955   0.05909
           A3          -0.00992   0.00496   0.00496  -0.02955  -0.02955
           D1           0.00000  -0.00000  -0.00000  -0.00000   0.00000
                          A3        D1
           A3           0.05909
           D1          -0.00000   0.04125
 ITU=  0
     Eigenvalues ---    0.04125   0.08549   0.08549   0.15899   0.15899
     Eigenvalues ---    0.16323
 Angle between quadratic step and forces=   0.00 degrees.
 Linear search not attempted -- first point.
 Iteration  1 RMS(Cart)=  0.00002176 RMS(Int)=  0.00000000
 Iteration  2 RMS(Cart)=  0.00000000 RMS(Int)=  0.00000000
 ClnCor:  largest displacement from symmetrization is 1.23D-12 for atom     4.
 Variable       Old X    -DE/DX   Delta X   Delta X   Delta X     New X
                                 (Linear)    (Quad)   (Total)
    R1        4.11808   0.00001   0.00000   0.00003   0.00003   4.11811
    R2        4.11808   0.00001   0.00000   0.00003   0.00003   4.11811
    R3        4.11808   0.00001   0.00000   0.00003   0.00003   4.11811
    A1        2.09440  -0.00000   0.00000  -0.00000   0.00000   2.09440
    A2        2.09440   0.00000   0.00000  -0.00000   0.00000   2.09440
    A3        2.09440  -0.00000   0.00000   0.00000   0.00000   2.09440
    D1        3.14159   0.00000   0.00000  -0.00000   0.00000   3.14159
         Item               Value     Threshold  Converged?
 Maximum Force            0.000005     0.000450     YES
 RMS     Force            0.000004     0.000300     YES
 Maximum Displacement     0.000033     0.001800     YES
 RMS     Displacement     0.000022     0.001200     YES
 Predicted change in Energy=-2.703819D-10
 Optimization completed.
    -- Stationary point found.
                           ----------------------------
                           !   Optimized Parameters   !
                           ! (Angstroms and Degrees)  !
 --------------------------                            --------------------------
 ! Name  Definition              Value          Derivative Info.                !
 --------------------------------------------------------------------------------
 ! R1    R(1,2)                  2.1792         -DE/DX =    0.0                 !
 ! R2    R(1,3)                  2.1792         -DE/DX =    0.0                 !
 ! R3    R(1,4)                  2.1792         -DE/DX =    0.0                 !
 ! A1    A(2,1,3)              120.0            -DE/DX =    0.0                 !
 ! A2    A(2,1,4)              120.0            -DE/DX =    0.0                 !
 ! A3    A(3,1,4)              120.0            -DE/DX =    0.0                 !
 ! D1    D(2,1,4,3)            180.0            -DE/DX =    0.0                 !
 --------------------------------------------------------------------------------
 GradGradGradGradGradGradGradGradGradGradGradGradGradGradGradGradGradGrad

 Dipole is zero, so no output in dipole orientation.

 ----------------------------------------------------------------------

 Electric dipole moment (input orientation):
 (Debye = 10**-18 statcoulomb cm , SI units = C m)
                  (au)            (Debye)         (10**-30 SI)
   Tot        0.000000D+00      0.000000D+00      0.000000D+00
   x          0.000000D+00      0.000000D+00      0.000000D+00
   y          0.000000D+00      0.000000D+00      0.000000D+00
   z          0.000000D+00      0.000000D+00      0.000000D+00

 Dipole polarizability, Alpha (input orientation).
 (esu units = cm**3 , SI units = C**2 m**2 J**-1)
 Alpha(0;0):
               (au)            (10**-24 esu)      (10**-40 SI)
   iso        0.451252D+02      0.668686D+01      0.744014D+01
   aniso      0.336000D+02      0.497901D+01      0.553989D+01
   xx         0.563252D+02      0.834653D+01      0.928677D+01
   yx         0.000000D+00      0.000000D+00      0.000000D+00
   yy         0.563252D+02      0.834653D+01      0.928677D+01
   zx         0.000000D+00      0.000000D+00      0.000000D+00
   zy         0.000000D+00      0.000000D+00      0.000000D+00
   zz         0.227252D+02      0.336752D+01      0.374688D+01

 ----------------------------------------------------------------------
 Unable to Open any file for archive entry.
 1\1\GINC-BS001\Freq\RMP2-FC\3-21G\Al1Cl3\PNATT\10-Aug-2026\0\\#N Geom=
 AllCheck Guess=TCheck SCRF=Check GenChk RMP2(FC)/3-21G Freq\\Title Car
 d Required\\0,1\Al,0.,0.,0.\Cl,-0.0000000022,2.1791929244,0.\Cl,1.8872
 364334,-1.0895964603,0.\Cl,-1.8872364312,-1.0895964641,0.\\Version=ES6
 4L-G16RevC.01\HF=-1612.6957409\MP2=-1612.8600557\RMSD=4.824e-10\RMSF=2
 .712e-06\ZeroPoint=0.0045398\Thermal=0.0099676\ETot=-1612.8500881\HTot
 =-1612.8491439\GTot=-1612.8850979\Dipole=0.,0.,0.\DipoleDeriv=1.921702
 6,0.,0.,0.,1.9217026,0.,0.,0.,1.1860756,-0.492622,0.,0.,0.,-0.7885131,
 0.,0.,0.,-0.3953585,-0.7145403,0.1281246,0.,0.1281246,-0.5665948,0.,0.
 ,0.,-0.3953585,-0.7145403,-0.1281246,0.,-0.1281246,-0.5665948,0.,0.,0.
 ,-0.3953585\Polar=56.3251725,0.,56.3251725,0.,0.,22.7251806\PG=D03H [O
 (Al1),3C2(Cl1)]\NImag=0\\0.23851399,0.,0.23851399,0.,0.,0.02918468,-0.
 00942136,0.,0.,0.01045187,0.,-0.14958796,0.,0.,0.15830558,0.,0.,-0.009
 72823,0.,0.,0.00324186,-0.11454631,0.06069392,0.,-0.00051526,0.0003245
 9,0.,0.12134215,0.06069392,-0.04446301,0.,0.00633264,-0.00435881,0.,-0
 .06402253,0.04741530,0.,0.,-0.00972823,0.,0.,0.00324318,0.,0.,0.003241
 86,-0.11454631,-0.06069392,0.,-0.00051526,-0.00032459,0.,-0.00628059,-
 0.00300402,0.,0.12134215,-0.06069392,-0.04446301,0.,-0.00633264,-0.004
 35881,0.,0.00300402,0.00140652,0.,0.06402253,0.04741530,0.,0.,-0.00972
 823,0.,0.,0.00324318,0.,0.,0.00324318,0.,0.,0.00324186\\0.,0.,0.,0.,-0
 .00000542,0.,-0.00000470,0.00000271,0.,0.00000470,0.00000271,0.\\\@
 The archive entry for this job was punched.


 DIATOMIC MOLECULES ARE PECULIAR BECAUSE THEY ONLY HAVE TWO ENDS,
 AND THESE ENDS ARE VERY CLOSE TOGETHER.
 KLAUS RUEDENBERG, REV.MOD.PHYS. PG 176, 32, (1960)
 Job cpu time:       0 days  0 hours  0 minutes  7.7 seconds.
 Elapsed time:       0 days  0 hours  0 minutes  7.5 seconds.
 File lengths (MBytes):  RWF=    110 Int=      0 D2E=      0 Chk=      1 Scr=      1
 Normal termination of Gaussian 16 at Mon Aug 10 15:49:23 2026.
