 Entering Gaussian System, Link 0=g16
 Input=AsCl3.com
 Output=AsCl3.log
 Initial command:
 /opt/g16/g16/l1.exe "/home/pnatt/scratch/Gau-1449255.inp" -scrdir="/home/pnatt/scratch/"
 Entering Link 1 = /opt/g16/g16/l1.exe PID=   1449261.
  
 Copyright (c) 1988-2019, Gaussian, Inc.  All Rights Reserved.
  
 This is part of the Gaussian(R) 16 program.  It is based on
 the Gaussian(R) 09 system (copyright 2009, Gaussian, Inc.),
 the Gaussian(R) 03 system (copyright 2003, Gaussian, Inc.),
 the Gaussian(R) 98 system (copyright 1998, Gaussian, Inc.),
 the Gaussian(R) 94 system (copyright 1995, Gaussian, Inc.),
 the Gaussian 92(TM) system (copyright 1992, Gaussian, Inc.),
 the Gaussian 90(TM) system (copyright 1990, Gaussian, Inc.),
 the Gaussian 88(TM) system (copyright 1988, Gaussian, Inc.),
 the Gaussian 86(TM) system (copyright 1986, Carnegie Mellon
 University), and the Gaussian 82(TM) system (copyright 1983,
 Carnegie Mellon University). Gaussian is a federally registered
 trademark of Gaussian, Inc.
  
 This software contains proprietary and confidential information,
 including trade secrets, belonging to Gaussian, Inc.
  
 This software is provided under written license and may be
 used, copied, transmitted, or stored only in accord with that
 written license.
  
 The following legend is applicable only to US Government
 contracts under FAR:
  
                    RESTRICTED RIGHTS LEGEND
  
 Use, reproduction and disclosure by the US Government is
 subject to restrictions as set forth in subparagraphs (a)
 and (c) of the Commercial Computer Software - Restricted
 Rights clause in FAR 52.227-19.
  
 Gaussian, Inc.
 340 Quinnipiac St., Bldg. 40, Wallingford CT 06492
  
  
 ---------------------------------------------------------------
 Warning -- This program may not be used in any manner that
 competes with the business of Gaussian, Inc. or will provide
 assistance to any competitor of Gaussian, Inc.  The licensee
 of this program is prohibited from giving any competitor of
 Gaussian, Inc. access to this program.  By using this program,
 the user acknowledges that Gaussian, Inc. is engaged in the
 business of creating and licensing software in the field of
 computational chemistry and represents and warrants to the
 licensee that it is not a competitor of Gaussian, Inc. and that
 it will not use this program in any manner prohibited above.
 ---------------------------------------------------------------
  

 Cite this work as:
 Gaussian 16, Revision C.01,
 M. J. Frisch, G. W. Trucks, H. B. Schlegel, G. E. Scuseria, 
 M. A. Robb, J. R. Cheeseman, G. Scalmani, V. Barone, 
 G. A. Petersson, H. Nakatsuji, X. Li, M. Caricato, A. V. Marenich, 
 J. Bloino, B. G. Janesko, R. Gomperts, B. Mennucci, H. P. Hratchian, 
 J. V. Ortiz, A. F. Izmaylov, J. L. Sonnenberg, D. Williams-Young, 
 F. Ding, F. Lipparini, F. Egidi, J. Goings, B. Peng, A. Petrone, 
 T. Henderson, D. Ranasinghe, V. G. Zakrzewski, J. Gao, N. Rega, 
 G. Zheng, W. Liang, M. Hada, M. Ehara, K. Toyota, R. Fukuda, 
 J. Hasegawa, M. Ishida, T. Nakajima, Y. Honda, O. Kitao, H. Nakai, 
 T. Vreven, K. Throssell, J. A. Montgomery, Jr., J. E. Peralta, 
 F. Ogliaro, M. J. Bearpark, J. J. Heyd, E. N. Brothers, K. N. Kudin, 
 V. N. Staroverov, T. A. Keith, R. Kobayashi, J. Normand, 
 K. Raghavachari, A. P. Rendell, J. C. Burant, S. S. Iyengar, 
 J. Tomasi, M. Cossi, J. M. Millam, M. Klene, C. Adamo, R. Cammi, 
 J. W. Ochterski, R. L. Martin, K. Morokuma, O. Farkas, 
 J. B. Foresman, and D. J. Fox, Gaussian, Inc., Wallingford CT, 2019.
 
 ******************************************
 Gaussian 16:  ES64L-G16RevC.01  3-Jul-2019
                10-Aug-2026 
 ******************************************
 %chk=AsCl3-MP2-cc.chk
 ------------------------------------------------
 # opt freq=hpmodes mp2/cc-pvdz geom=connectivity
 ------------------------------------------------
 1/18=20,19=15,38=1,57=2/1,3;
 2/9=110,12=2,17=6,18=5,40=1/2;
 3/5=16,11=9,25=1,30=1,71=1/1,2,3;
 4//1;
 5/5=2,38=5/2;
 8/6=4,10=1/1;
 9/15=2,16=-3/6;
 10/5=1/2;
 6/7=2,8=2,9=2,10=2/1;
 7/12=2/1,2,3,16;
 1/18=20,19=15/3(2);
 2/9=110/2;
 99//99;
 2/9=110/2;
 3/5=16,11=9,25=1,30=1,71=1/1,2,3;
 4/5=5,16=3,69=1/1;
 5/5=2,38=5/2;
 8/6=4,10=1/1;
 9/15=2,16=-3/6;
 10/5=1/2;
 7/12=2/1,2,3,16;
 1/18=20,19=15/3(-8);
 2/9=110/2;
 6/7=2,8=2,9=2,10=2/1;
 99/9=10/99;
 -------------------
 Title Card Required
 -------------------
 Symbolic Z-matrix:
 Charge =  0 Multiplicity = 1
 As                    0.        0.        0.6426 
 Cl                    0.        2.04991  -0.4158 
 Cl                   -1.77527  -1.02495  -0.4158 
 Cl                    1.77527  -1.02495  -0.4158 
 

 GradGradGradGradGradGradGradGradGradGradGradGradGradGradGradGradGradGrad
 Berny optimization.
 Initialization pass.
                           ----------------------------
                           !    Initial Parameters    !
                           ! (Angstroms and Degrees)  !
 --------------------------                            --------------------------
 ! Name  Definition              Value          Derivative Info.                !
 --------------------------------------------------------------------------------
 ! R1    R(1,2)                  2.307          estimate D2E/DX2                !
 ! R2    R(1,3)                  2.307          estimate D2E/DX2                !
 ! R3    R(1,4)                  2.307          estimate D2E/DX2                !
 ! A1    A(2,1,3)              100.6197         estimate D2E/DX2                !
 ! A2    A(2,1,4)              100.6197         estimate D2E/DX2                !
 ! A3    A(3,1,4)              100.6197         estimate D2E/DX2                !
 ! D1    D(2,1,4,3)           -103.0573         estimate D2E/DX2                !
 --------------------------------------------------------------------------------
 Trust Radius=3.00D-01 FncErr=1.00D-07 GrdErr=1.00D-07 EigMax=2.50D+02 EigMin=1.00D-04
 Number of steps in this run=     20 maximum allowed number of steps=    100.
 GradGradGradGradGradGradGradGradGradGradGradGradGradGradGradGradGradGrad

                          Input orientation:                          
 ---------------------------------------------------------------------
 Center     Atomic      Atomic             Coordinates (Angstroms)
 Number     Number       Type             X           Y           Z
 ---------------------------------------------------------------------
      1         33           0        0.000000    0.000000    0.642600
      2         17           0        0.000000    2.049909   -0.415800
      3         17           0       -1.775273   -1.024954   -0.415800
      4         17           0        1.775273   -1.024954   -0.415800
 ---------------------------------------------------------------------
                    Distance matrix (angstroms):
                    1          2          3          4
     1  As   0.000000
     2  Cl   2.307019   0.000000
     3  Cl   2.307019   3.550546   0.000000
     4  Cl   2.307019   3.550546   3.550546   0.000000
 Stoichiometry    AsCl3
 Framework group  C3V[C3(As),3SGV(Cl)]
 Deg. of freedom     2
 Full point group                 C3V     NOp   6
 Largest Abelian subgroup         CS      NOp   2
 Largest concise Abelian subgroup CS      NOp   2
                         Standard orientation:                         
 ---------------------------------------------------------------------
 Center     Atomic      Atomic             Coordinates (Angstroms)
 Number     Number       Type             X           Y           Z
 ---------------------------------------------------------------------
      1         33           0        0.000000   -0.000000    0.642600
      2         17           0        0.000000    2.049909   -0.415800
      3         17           0       -1.775273   -1.024954   -0.415800
      4         17           0        1.775273   -1.024954   -0.415800
 ---------------------------------------------------------------------
 Rotational constants (GHZ):           1.8761069           1.8761069           1.1464246
 Standard basis: CC-pVDZ (5D, 7F)
 There are    54 symmetry adapted cartesian basis functions of A'  symmetry.
 There are    32 symmetry adapted cartesian basis functions of A"  symmetry.
 There are    50 symmetry adapted basis functions of A'  symmetry.
 There are    31 symmetry adapted basis functions of A"  symmetry.
    81 basis functions,   359 primitive gaussians,    86 cartesian basis functions
    42 alpha electrons       42 beta electrons
       nuclear repulsion energy       515.2601846202 Hartrees.
 NAtoms=    4 NActive=    4 NUniq=    2 SFac= 4.00D+00 NAtFMM=   60 NAOKFM=F Big=F
 Integral buffers will be    131072 words long.
 Raffenetti 1 integral format.
 Two-electron integral symmetry is turned on.
 One-electron integrals computed using PRISM.
 NBasis=    81 RedAO= T EigKep=  1.75D-02  NBF=    50    31
 NBsUse=    81 1.00D-06 EigRej= -1.00D+00 NBFU=    50    31
 ExpMin= 1.08D-01 ExpMax= 5.60D+05 ExpMxC= 5.41D+03 IAcc=3 IRadAn=         5 AccDes= 0.00D+00
 Harris functional with IExCor=  205 and IRadAn=       5 diagonalized for initial guess.
 HarFok:  IExCor=  205 AccDes= 0.00D+00 IRadAn=         5 IDoV= 1 UseB2=F ITyADJ=14
 ICtDFT=  3500011 ScaDFX=  1.000000  1.000000  1.000000  1.000000
 FoFCou: FMM=F IPFlag=           0 FMFlag=      100000 FMFlg1=           0
         NFxFlg=           0 DoJE=T BraDBF=F KetDBF=T FulRan=T
         wScrn=  0.000000 ICntrl=       500 IOpCl=  0 I1Cent=   200000004 NGrid=           0
         NMat0=    1 NMatS0=      1 NMatT0=    0 NMatD0=    1 NMtDS0=    0 NMtDT0=    0
 Petite list used in FoFCou.
 Initial guess orbital symmetries:
       Occupied  (A1) (A1) (E) (E) (A1) (A1) (E) (E) (A1) (E) (E)
                 (E) (E) (A1) (A2) (E) (E) (A1) (E) (E) (A1) (A1)
                 (E) (E) (E) (E) (A1) (E) (E) (A1) (E) (E) (A1)
                 (E) (E) (A1) (E) (E) (E) (E) (A2) (A1)
       Virtual   (A1) (E) (E) (E) (E) (A1) (A1) (E) (E) (A1) (E)
                 (E) (A1) (E) (E) (A1) (E) (E) (A2) (E) (E) (E)
                 (E) (A2) (A1) (E) (E) (A2) (A1) (E) (E) (E) (E)
                 (E) (E) (A1) (E) (E) (A1)
 The electronic state of the initial guess is 1-A1.
 Keep R1 ints in memory in symmetry-blocked form, NReq=8295801.
 Requested convergence on RMS density matrix=1.00D-08 within 128 cycles.
 Requested convergence on MAX density matrix=1.00D-06.
 Requested convergence on             energy=1.00D-06.
 No special actions if energy rises.
 SCF Done:  E(RHF) =  -3612.74058159     A.U. after   12 cycles
            NFock= 12  Conv=0.41D-08     -V/T= 2.0003
 ExpMin= 1.08D-01 ExpMax= 5.60D+05 ExpMxC= 5.41D+03 IAcc=3 IRadAn=         5 AccDes= 0.00D+00
 HarFok:  IExCor=  205 AccDes= 0.00D+00 IRadAn=         5 IDoV=-2 UseB2=F ITyADJ=14
 ICtDFT= 12500011 ScaDFX=  1.000000  1.000000  1.000000  1.000000
 GSVD:  LWork=        -768 too small for GESVD, short by        3240 words or        3240 for optimal perf.
 Range of M.O.s used for correlation:    25    81
 NBasis=    81 NAE=    42 NBE=    42 NFC=    24 NFV=     0
 NROrb=     57 NOA=    18 NOB=    18 NVA=    39 NVB=    39
 Fully direct method using O(ONN) memory.
 JobTyp=1 Pass  1:  I=  25 to  42 NPSUse=  1 ParTrn=F ParDer=F DoDerP=T.
 Spin components of T(2) and E(2):
     alpha-alpha T2 =       0.2956774340D-01 E2=     -0.7161006583D-01
     alpha-beta  T2 =       0.1599145248D+00 E2=     -0.3811485716D+00
     beta-beta   T2 =       0.2956774340D-01 E2=     -0.7161006583D-01
 ANorm=    0.1104105978D+01
 E2 =    -0.5243687033D+00 EUMP2 =    -0.36132649502921D+04
          IDoAtm=1111
          Differentiating once with respect to electric field.
                with respect to dipole field.
          Differentiating once with respect to nuclear coordinates.
 Keep R1 ints in memory in symmetry-blocked form, NReq=8296580.
          There are     1 degrees of freedom in the 1st order CPHF.  IDoFFX=0 NUNeed=     1.
 LinEq1:  Iter=  0 NonCon=     1 RMS=5.41D-03 Max=9.54D-02 NDo=     1
 AX will form     1 AO Fock derivatives at one time.
 LinEq1:  Iter=  1 NonCon=     1 RMS=1.41D-03 Max=3.04D-02 NDo=     1
 LinEq1:  Iter=  2 NonCon=     1 RMS=4.54D-04 Max=7.65D-03 NDo=     1
 LinEq1:  Iter=  3 NonCon=     1 RMS=1.21D-04 Max=2.05D-03 NDo=     1
 LinEq1:  Iter=  4 NonCon=     1 RMS=2.37D-05 Max=2.23D-04 NDo=     1
 LinEq1:  Iter=  5 NonCon=     1 RMS=3.79D-06 Max=4.40D-05 NDo=     1
 LinEq1:  Iter=  6 NonCon=     1 RMS=5.76D-07 Max=4.89D-06 NDo=     1
 LinEq1:  Iter=  7 NonCon=     1 RMS=1.38D-07 Max=2.03D-06 NDo=     1
 LinEq1:  Iter=  8 NonCon=     1 RMS=2.17D-08 Max=2.55D-07 NDo=     1
 LinEq1:  Iter=  9 NonCon=     1 RMS=3.60D-09 Max=3.40D-08 NDo=     1
 LinEq1:  Iter= 10 NonCon=     1 RMS=8.69D-10 Max=2.07D-08 NDo=     1
 LinEq1:  Iter= 11 NonCon=     1 RMS=1.55D-10 Max=2.79D-09 NDo=     1
 LinEq1:  Iter= 12 NonCon=     0 RMS=1.83D-11 Max=1.65D-10 NDo=     1
 Linear equations converged to 1.000D-10 1.000D-09 after    12 iterations.
 End of Minotr F.D. properties file   721 does not exist.
 End of Minotr F.D. properties file   722 does not exist.
 End of Minotr F.D. properties file   788 does not exist.

 **********************************************************************

            Population analysis using the SCF Density.

 **********************************************************************

 Orbital symmetries:
       Occupied  (A1) (A1) (E) (E) (A1) (E) (E) (A1) (A1) (E) (E)
                 (A1) (E) (E) (A1) (A2) (E) (E) (E) (E) (A1) (E)
                 (E) (A1) (E) (E) (E) (E) (A1) (A1) (E) (E) (A1)
                 (E) (E) (A1) (E) (E) (E) (E) (A2) (A1)
       Virtual   (A1) (E) (E) (E) (E) (A1) (E) (E) (A1) (A1) (E)
                 (E) (A1) (E) (E) (A1) (E) (E) (A2) (E) (E) (E)
                 (E) (A2) (A1) (E) (E) (A1) (A2) (E) (E) (E) (E)
                 (E) (E) (A1) (E) (E) (A1)
 The electronic state is 1-A1.
 Alpha  occ. eigenvalues -- -432.80364-104.85772-104.85772-104.85772 -56.51743
 Alpha  occ. eigenvalues --  -50.36343 -50.36343 -50.36273 -10.58261 -10.58261
 Alpha  occ. eigenvalues --  -10.58261  -8.20970  -8.04965  -8.04965  -8.04965
 Alpha  occ. eigenvalues --   -8.04662  -8.04662  -8.04662  -8.04657  -8.04657
 Alpha  occ. eigenvalues --   -8.04656  -6.06088  -6.06088  -6.05692  -2.28821
 Alpha  occ. eigenvalues --   -2.28821  -2.28335  -2.28335  -2.28116  -1.13251
 Alpha  occ. eigenvalues --   -1.09206  -1.09206  -0.80912  -0.55972  -0.55972
 Alpha  occ. eigenvalues --   -0.53129  -0.49356  -0.49356  -0.46874  -0.46874
 Alpha  occ. eigenvalues --   -0.46698  -0.42456
 Alpha virt. eigenvalues --    0.01732   0.02883   0.02883   0.44704   0.44704
 Alpha virt. eigenvalues --    0.45023   0.50584   0.50584   0.51101   0.56702
 Alpha virt. eigenvalues --    0.62709   0.62709   0.72598   0.73461   0.73461
 Alpha virt. eigenvalues --    0.76158   0.79970   0.79970   0.82005   0.87128
 Alpha virt. eigenvalues --    0.87128   0.93164   0.93164   0.95431   0.95883
 Alpha virt. eigenvalues --    0.96598   0.96598   0.96904   0.97484   0.99423
 Alpha virt. eigenvalues --    0.99423   1.00903   1.00903   1.11538   1.11538
 Alpha virt. eigenvalues --    1.13310   1.44865   1.44865   1.46204
          Condensed to atoms (all electrons):
               1          2          3          4
     1  As  31.505759   0.206267   0.206267   0.206267
     2  Cl   0.206267  17.118574  -0.016514  -0.016514
     3  Cl   0.206267  -0.016514  17.118574  -0.016514
     4  Cl   0.206267  -0.016514  -0.016514  17.118574
 Mulliken charges:
               1
     1  As   0.875440
     2  Cl  -0.291813
     3  Cl  -0.291813
     4  Cl  -0.291813
 Sum of Mulliken charges =  -0.00000
 Mulliken charges with hydrogens summed into heavy atoms:
               1
     1  As   0.875440
     2  Cl  -0.291813
     3  Cl  -0.291813
     4  Cl  -0.291813
 Electronic spatial extent (au):  <R**2>=            974.6949
 Charge=              0.0000 electrons
 Dipole moment (field-independent basis, Debye):
    X=              0.0000    Y=              0.0000    Z=              2.6650  Tot=              2.6650
 Quadrupole moment (field-independent basis, Debye-Ang):
   XX=            -59.5221   YY=            -59.5221   ZZ=            -54.7825
   XY=             -0.0000   XZ=             -0.0000   YZ=              0.0000
 Traceless Quadrupole moment (field-independent basis, Debye-Ang):
   XX=             -1.5799   YY=             -1.5799   ZZ=              3.1597
   XY=             -0.0000   XZ=             -0.0000   YZ=              0.0000
 Octapole moment (field-independent basis, Debye-Ang**2):
  XXX=              0.0000  YYY=             -1.9317  ZZZ=             17.3324  XYY=             -0.0000
  XXY=              1.9317  XXZ=              5.6029  XZZ=              0.0000  YZZ=              0.0000
  YYZ=              5.6029  XYZ=              0.0000
 Hexadecapole moment (field-independent basis, Debye-Ang**3):
 XXXX=           -547.5987 YYYY=           -547.5987 ZZZZ=           -145.3815 XXXY=              0.0000
 XXXZ=             -0.0000 YYYX=              0.0000 YYYZ=             -5.2432 ZZZX=             -0.0000
 ZZZY=             -0.0000 XXYY=           -182.5329 XXZZ=           -112.7797 YYZZ=           -112.7797
 XXYZ=              5.2432 YYXZ=              0.0000 ZZXY=              0.0000
 N-N= 5.152601846202D+02 E-N=-9.656372306092D+03  KE= 3.611501668858D+03
 Symmetry A'   KE= 2.788998637519D+03
 Symmetry A"   KE= 8.225030313384D+02
 Calling FoFJK, ICntrl=  10002127 FMM=F ISym2X=1 I1Cent= 0 IOpClX= 0 NMat=1 NMatS=1 NMatT=0.
 ***** Axes restored to original set *****
 -------------------------------------------------------------------
 Center     Atomic                   Forces (Hartrees/Bohr)
 Number     Number              X              Y              Z
 -------------------------------------------------------------------
      1       33           0.000000000    0.000000000   -0.038858709
      2       17          -0.000000003   -0.029763604    0.012952903
      3       17           0.025776039    0.014881799    0.012952903
      4       17          -0.025776035    0.014881805    0.012952903
 -------------------------------------------------------------------
 Cartesian Forces:  Max     0.038858709 RMS     0.019729311

 GradGradGradGradGradGradGradGradGradGradGradGradGradGradGradGradGradGrad
 Berny optimization.
 FormGI is forming the generalized inverse of G from B-inverse, IUseBI=4.
 Internal  Forces:  Max     0.032388995 RMS     0.021572684
 Search for a local minimum.
 Step number   1 out of a maximum of   20
 All quantities printed in internal units (Hartrees-Bohrs-Radians)
 Mixed Optimization -- RFO/linear search
 Second derivative matrix not updated -- first step.
 The second derivative matrix:
                          R1        R2        R3        A1        A2
           R1           0.10634
           R2           0.00000   0.10634
           R3           0.00000   0.00000   0.10634
           A1           0.00000   0.00000   0.00000   0.25000
           A2           0.00000   0.00000   0.00000   0.00000   0.25000
           A3           0.00000   0.00000   0.00000   0.00000   0.00000
           D1           0.00000   0.00000   0.00000   0.00000   0.00000
                          A3        D1
           A3           0.25000
           D1           0.00000   0.00230
 ITU=  0
     Eigenvalues ---    0.10634   0.10634   0.10634   0.11478   0.25000
     Eigenvalues ---    0.25000
 RFO step:  Lambda=-2.46095469D-02 EMin= 1.06337538D-01
 Linear search not attempted -- first point.
 Maximum step size (   0.300) exceeded in Quadratic search.
    -- Step size scaled by   0.697
 Iteration  1 RMS(Cart)=  0.11919348 RMS(Int)=  0.00069987
 Iteration  2 RMS(Cart)=  0.00096216 RMS(Int)=  0.00016178
 Iteration  3 RMS(Cart)=  0.00000079 RMS(Int)=  0.00016178
 ClnCor:  largest displacement from symmetrization is 2.29D-03 for atom     4.
 Variable       Old X    -DE/DX   Delta X   Delta X   Delta X     New X
                                 (Linear)    (Quad)   (Total)
    R1        4.35963  -0.03239   0.00000  -0.17228  -0.17173   4.18790
    R2        4.35963  -0.03239   0.00000  -0.17228  -0.17173   4.18790
    R3        4.35963  -0.03239   0.00000  -0.17228  -0.17173   4.18790
    A1        1.75615  -0.00211   0.00000  -0.01642  -0.01777   1.73838
    A2        1.75615  -0.00630   0.00000  -0.01847  -0.01777   1.73838
    A3        1.75615  -0.00630   0.00000  -0.01847  -0.01777   1.73838
    D1       -1.79869   0.00518   0.00000   0.02586   0.02634  -1.77235
         Item               Value     Threshold  Converged?
 Maximum Force            0.032389     0.000450     NO 
 RMS     Force            0.021573     0.000300     NO 
 Maximum Displacement     0.180174     0.001800     NO 
 RMS     Displacement     0.118265     0.001200     NO 
 Predicted change in Energy=-1.226102D-02
 GradGradGradGradGradGradGradGradGradGradGradGradGradGradGradGradGradGrad

                          Input orientation:                          
 ---------------------------------------------------------------------
 Center     Atomic      Atomic             Coordinates (Angstroms)
 Number     Number       Type             X           Y           Z
 ---------------------------------------------------------------------
      1         33           0       -0.000000    0.000000    0.632251
      2         17           0        0.000000    1.954565   -0.412238
      3         17           0       -1.692703   -0.977282   -0.412238
      4         17           0        1.692703   -0.977283   -0.412238
 ---------------------------------------------------------------------
                    Distance matrix (angstroms):
                    1          2          3          4
     1  As   0.000000
     2  Cl   2.216141   0.000000
     3  Cl   2.216141   3.385406   0.000000
     4  Cl   2.216141   3.385406   3.385406   0.000000
 Stoichiometry    AsCl3
 Framework group  C3V[C3(As),3SGV(Cl)]
 Deg. of freedom     2
 Full point group                 C3V     NOp   6
 Largest Abelian subgroup         CS      NOp   2
 Largest concise Abelian subgroup CS      NOp   2
                         Standard orientation:                         
 ---------------------------------------------------------------------
 Center     Atomic      Atomic             Coordinates (Angstroms)
 Number     Number       Type             X           Y           Z
 ---------------------------------------------------------------------
      1         33           0        0.000000    0.000000    0.634154
      2         17           0        0.000000    1.954565   -0.410335
      3         17           0       -1.692703   -0.977283   -0.410335
      4         17           0        1.692703   -0.977283   -0.410335
 ---------------------------------------------------------------------
 Rotational constants (GHZ):           2.0372345           2.0372345           1.2609977
 Standard basis: CC-pVDZ (5D, 7F)
 There are    54 symmetry adapted cartesian basis functions of A'  symmetry.
 There are    32 symmetry adapted cartesian basis functions of A"  symmetry.
 There are    50 symmetry adapted basis functions of A'  symmetry.
 There are    31 symmetry adapted basis functions of A"  symmetry.
    81 basis functions,   359 primitive gaussians,    86 cartesian basis functions
    42 alpha electrons       42 beta electrons
       nuclear repulsion energy       537.3939862681 Hartrees.
 NAtoms=    4 NActive=    4 NUniq=    2 SFac= 4.00D+00 NAtFMM=   60 NAOKFM=F Big=F
 Integral buffers will be    131072 words long.
 Raffenetti 1 integral format.
 Two-electron integral symmetry is turned on.
 One-electron integrals computed using PRISM.
 NBasis=    81 RedAO= T EigKep=  1.38D-02  NBF=    50    31
 NBsUse=    81 1.00D-06 EigRej= -1.00D+00 NBFU=    50    31
 Initial guess from the checkpoint file:  "AsCl3-MP2-cc.chk"
 B after Tr=     0.000000   -0.000000    0.000000
         Rot=    1.000000    0.000000    0.000000   -0.000000 Ang=   0.00 deg.
 Initial guess orbital symmetries:
       Occupied  (A1) (A1) (E) (E) (A1) (E) (E) (A1) (A1) (E) (E)
                 (A1) (E) (E) (A1) (A2) (E) (E) (E) (E) (A1) (E)
                 (E) (A1) (E) (E) (E) (E) (A1) (A1) (E) (E) (A1)
                 (E) (E) (A1) (E) (E) (E) (E) (A2) (A1)
       Virtual   (A1) (E) (E) (E) (E) (A1) (E) (E) (A1) (A1) (E)
                 (E) (A1) (E) (E) (A1) (E) (E) (A2) (E) (E) (E)
                 (E) (A2) (A1) (E) (E) (A1) (A2) (E) (E) (E) (E)
                 (E) (E) (A1) (E) (E) (A1)
 ExpMin= 1.08D-01 ExpMax= 5.60D+05 ExpMxC= 5.41D+03 IAcc=3 IRadAn=         5 AccDes= 0.00D+00
 Harris functional with IExCor=  205 and IRadAn=       5 diagonalized for initial guess.
 HarFok:  IExCor=  205 AccDes= 0.00D+00 IRadAn=         5 IDoV= 1 UseB2=F ITyADJ=14
 ICtDFT=  3500011 ScaDFX=  1.000000  1.000000  1.000000  1.000000
 FoFCou: FMM=F IPFlag=           0 FMFlag=      100000 FMFlg1=           0
         NFxFlg=           0 DoJE=T BraDBF=F KetDBF=T FulRan=T
         wScrn=  0.000000 ICntrl=       500 IOpCl=  0 I1Cent=   200000004 NGrid=           0
         NMat0=    1 NMatS0=      1 NMatT0=    0 NMatD0=    1 NMtDS0=    0 NMtDT0=    0
 Petite list used in FoFCou.
 Keep R1 ints in memory in symmetry-blocked form, NReq=8295801.
 Requested convergence on RMS density matrix=1.00D-08 within 128 cycles.
 Requested convergence on MAX density matrix=1.00D-06.
 Requested convergence on             energy=1.00D-06.
 No special actions if energy rises.
 SCF Done:  E(RHF) =  -3612.75466906     A.U. after   10 cycles
            NFock= 10  Conv=0.81D-08     -V/T= 2.0002
 ExpMin= 1.08D-01 ExpMax= 5.60D+05 ExpMxC= 5.41D+03 IAcc=3 IRadAn=         5 AccDes= 0.00D+00
 HarFok:  IExCor=  205 AccDes= 0.00D+00 IRadAn=         5 IDoV=-2 UseB2=F ITyADJ=14
 ICtDFT= 12500011 ScaDFX=  1.000000  1.000000  1.000000  1.000000
 GSVD:  LWork=        -768 too small for GESVD, short by        3240 words or        3240 for optimal perf.
 Range of M.O.s used for correlation:    25    81
 NBasis=    81 NAE=    42 NBE=    42 NFC=    24 NFV=     0
 NROrb=     57 NOA=    18 NOB=    18 NVA=    39 NVB=    39
 Fully direct method using O(ONN) memory.
 JobTyp=1 Pass  1:  I=  25 to  42 NPSUse=  1 ParTrn=F ParDer=F DoDerP=T.
 Spin components of T(2) and E(2):
     alpha-alpha T2 =       0.2919684239D-01 E2=     -0.7200441436D-01
     alpha-beta  T2 =       0.1542103908D+00 E2=     -0.3780605393D+00
     beta-beta   T2 =       0.2919684239D-01 E2=     -0.7200441436D-01
 ANorm=    0.1101183035D+01
 E2 =    -0.5220693681D+00 EUMP2 =    -0.36132767384293D+04
          IDoAtm=1111
          Differentiating once with respect to electric field.
                with respect to dipole field.
          Differentiating once with respect to nuclear coordinates.
 Keep R1 ints in memory in symmetry-blocked form, NReq=8296580.
          There are     1 degrees of freedom in the 1st order CPHF.  IDoFFX=0 NUNeed=     1.
 LinEq1:  Iter=  0 NonCon=     1 RMS=4.90D-03 Max=8.34D-02 NDo=     1
 AX will form     1 AO Fock derivatives at one time.
 LinEq1:  Iter=  1 NonCon=     1 RMS=1.15D-03 Max=2.34D-02 NDo=     1
 LinEq1:  Iter=  2 NonCon=     1 RMS=3.77D-04 Max=6.42D-03 NDo=     1
 LinEq1:  Iter=  3 NonCon=     1 RMS=9.62D-05 Max=1.57D-03 NDo=     1
 LinEq1:  Iter=  4 NonCon=     1 RMS=1.93D-05 Max=1.92D-04 NDo=     1
 LinEq1:  Iter=  5 NonCon=     1 RMS=3.23D-06 Max=3.95D-05 NDo=     1
 LinEq1:  Iter=  6 NonCon=     1 RMS=5.70D-07 Max=8.01D-06 NDo=     1
 LinEq1:  Iter=  7 NonCon=     1 RMS=1.38D-07 Max=2.69D-06 NDo=     1
 LinEq1:  Iter=  8 NonCon=     1 RMS=2.37D-08 Max=4.34D-07 NDo=     1
 LinEq1:  Iter=  9 NonCon=     1 RMS=5.24D-09 Max=5.81D-08 NDo=     1
 LinEq1:  Iter= 10 NonCon=     1 RMS=1.15D-09 Max=1.74D-08 NDo=     1
 LinEq1:  Iter= 11 NonCon=     1 RMS=1.39D-10 Max=1.23D-09 NDo=     1
 LinEq1:  Iter= 12 NonCon=     0 RMS=1.43D-11 Max=1.32D-10 NDo=     1
 Linear equations converged to 1.000D-10 1.000D-09 after    12 iterations.
 End of Minotr F.D. properties file   721 does not exist.
 End of Minotr F.D. properties file   722 does not exist.
 End of Minotr F.D. properties file   788 does not exist.
 Calling FoFJK, ICntrl=  10002127 FMM=F ISym2X=1 I1Cent= 0 IOpClX= 0 NMat=1 NMatS=1 NMatT=0.
 ***** Axes restored to original set *****
 -------------------------------------------------------------------
 Center     Atomic                   Forces (Hartrees/Bohr)
 Number     Number              X              Y              Z
 -------------------------------------------------------------------
      1       33           0.000000000    0.000000000   -0.013224592
      2       17          -0.000000001   -0.009773208    0.004408197
      3       17           0.008463847    0.004886603    0.004408197
      4       17          -0.008463846    0.004886605    0.004408197
 -------------------------------------------------------------------
 Cartesian Forces:  Max     0.013224592 RMS     0.006581117

 GradGradGradGradGradGradGradGradGradGradGradGradGradGradGradGradGradGrad
 Berny optimization.
 Using GEDIIS/GDIIS optimizer.
 FormGI is forming the generalized inverse of G from B-inverse, IUseBI=4.
 Internal  Forces:  Max     0.010697281 RMS     0.007118959
 Search for a local minimum.
 Step number   2 out of a maximum of   20
 All quantities printed in internal units (Hartrees-Bohrs-Radians)
 Mixed Optimization -- RFO/linear search
 Update second derivatives using D2CorX and points    1    2
 DE= -1.18D-02 DEPred=-1.23D-02 R= 9.61D-01
 TightC=F SS=  1.41D+00  RLast= 3.00D-01 DXNew= 5.0454D-01 9.0059D-01
 Trust test= 9.61D-01 RLast= 3.00D-01 DXMaxT set to 5.05D-01
 The second derivative matrix:
                          R1        R2        R3        A1        A2
           R1           0.11288
           R2           0.00654   0.11288
           R3           0.00654   0.00654   0.11288
           A1          -0.00578  -0.00578  -0.00578   0.24812
           A2          -0.00036  -0.00036  -0.00036  -0.00153   0.24953
           A3          -0.00036  -0.00036  -0.00036  -0.00153  -0.00047
           D1          -0.00667  -0.00667  -0.00667  -0.00041  -0.00130
                          A3        D1
           A3           0.24953
           D1          -0.00130   0.00342
 ITU=  1  0
 Use linear search instead of GDIIS.
     Eigenvalues ---    0.10634   0.10634   0.11690   0.12626   0.25000
     Eigenvalues ---    0.25016
 RFO step:  Lambda=-3.93687603D-07 EMin= 1.06337538D-01
 Quartic linear search produced a step of  0.37140.
 Iteration  1 RMS(Cart)=  0.04391213 RMS(Int)=  0.00012375
 Iteration  2 RMS(Cart)=  0.00013728 RMS(Int)=  0.00007926
 Iteration  3 RMS(Cart)=  0.00000003 RMS(Int)=  0.00007926
 ClnCor:  largest displacement from symmetrization is 1.72D-03 for atom     4.
 Variable       Old X    -DE/DX   Delta X   Delta X   Delta X     New X
                                 (Linear)    (Quad)   (Total)
    R1        4.18790  -0.01070  -0.06378   0.00004  -0.06334   4.12456
    R2        4.18790  -0.01070  -0.06378   0.00004  -0.06334   4.12456
    R3        4.18790  -0.01070  -0.06378   0.00004  -0.06334   4.12456
    A1        1.73838  -0.00072  -0.00660   0.00082  -0.00672   1.73166
    A2        1.73838  -0.00205  -0.00660  -0.00067  -0.00672   1.73166
    A3        1.73838  -0.00205  -0.00660  -0.00067  -0.00672   1.73166
    D1       -1.77235   0.00160   0.00978  -0.00057   0.00965  -1.76270
         Item               Value     Threshold  Converged?
 Maximum Force            0.010697     0.000450     NO 
 RMS     Force            0.007119     0.000300     NO 
 Maximum Displacement     0.066205     0.001800     NO 
 RMS     Displacement     0.043481     0.001200     NO 
 Predicted change in Energy=-1.301474D-03
 GradGradGradGradGradGradGradGradGradGradGradGradGradGradGradGradGradGrad

                          Input orientation:                          
 ---------------------------------------------------------------------
 Center     Atomic      Atomic             Coordinates (Angstroms)
 Number     Number       Type             X           Y           Z
 ---------------------------------------------------------------------
      1         33           0       -0.000000    0.000000    0.628101
      2         17           0        0.000000    1.919531   -0.410768
      3         17           0       -1.662363   -0.959765   -0.410768
      4         17           0        1.662362   -0.959765   -0.410768
 ---------------------------------------------------------------------
                    Distance matrix (angstroms):
                    1          2          3          4
     1  As   0.000000
     2  Cl   2.182624   0.000000
     3  Cl   2.182624   3.324725   0.000000
     4  Cl   2.182624   3.324725   3.324725   0.000000
 Stoichiometry    AsCl3
 Framework group  C3V[C3(As),3SGV(Cl)]
 Deg. of freedom     2
 Full point group                 C3V     NOp   6
 Largest Abelian subgroup         CS      NOp   2
 Largest concise Abelian subgroup CS      NOp   2
                         Standard orientation:                         
 ---------------------------------------------------------------------
 Center     Atomic      Atomic             Coordinates (Angstroms)
 Number     Number       Type             X           Y           Z
 ---------------------------------------------------------------------
      1         33           0        0.000000    0.000000    0.630742
      2         17           0        0.000000    1.919531   -0.408127
      3         17           0       -1.662362   -0.959765   -0.408127
      4         17           0        1.662362   -0.959765   -0.408127
 ---------------------------------------------------------------------
 Rotational constants (GHZ):           2.1018918           2.1018918           1.3074479
 Standard basis: CC-pVDZ (5D, 7F)
 There are    54 symmetry adapted cartesian basis functions of A'  symmetry.
 There are    32 symmetry adapted cartesian basis functions of A"  symmetry.
 There are    50 symmetry adapted basis functions of A'  symmetry.
 There are    31 symmetry adapted basis functions of A"  symmetry.
    81 basis functions,   359 primitive gaussians,    86 cartesian basis functions
    42 alpha electrons       42 beta electrons
       nuclear repulsion energy       546.0387855163 Hartrees.
 NAtoms=    4 NActive=    4 NUniq=    2 SFac= 4.00D+00 NAtFMM=   60 NAOKFM=F Big=F
 Integral buffers will be    131072 words long.
 Raffenetti 1 integral format.
 Two-electron integral symmetry is turned on.
 One-electron integrals computed using PRISM.
 NBasis=    81 RedAO= T EigKep=  1.26D-02  NBF=    50    31
 NBsUse=    81 1.00D-06 EigRej= -1.00D+00 NBFU=    50    31
 Initial guess from the checkpoint file:  "AsCl3-MP2-cc.chk"
 B after Tr=     0.000000   -0.000000   -0.000000
         Rot=    1.000000   -0.000000    0.000000    0.000000 Ang=   0.00 deg.
 Initial guess orbital symmetries:
       Occupied  (A1) (A1) (E) (E) (A1) (E) (E) (A1) (A1) (E) (E)
                 (A1) (E) (E) (A1) (A2) (E) (E) (E) (E) (A1) (E)
                 (E) (A1) (E) (E) (E) (E) (A1) (A1) (E) (E) (A1)
                 (E) (E) (A1) (E) (E) (E) (E) (A2) (A1)
       Virtual   (E) (E) (A1) (E) (E) (A1) (E) (E) (A1) (A1) (E)
                 (E) (A1) (E) (E) (A1) (E) (E) (A2) (E) (E) (E)
                 (E) (A2) (A1) (E) (E) (A2) (A1) (E) (E) (E) (E)
                 (E) (E) (A1) (E) (E) (A1)
 ExpMin= 1.08D-01 ExpMax= 5.60D+05 ExpMxC= 5.41D+03 IAcc=3 IRadAn=         5 AccDes= 0.00D+00
 Harris functional with IExCor=  205 and IRadAn=       5 diagonalized for initial guess.
 HarFok:  IExCor=  205 AccDes= 0.00D+00 IRadAn=         5 IDoV= 1 UseB2=F ITyADJ=14
 ICtDFT=  3500011 ScaDFX=  1.000000  1.000000  1.000000  1.000000
 FoFCou: FMM=F IPFlag=           0 FMFlag=      100000 FMFlg1=           0
         NFxFlg=           0 DoJE=T BraDBF=F KetDBF=T FulRan=T
         wScrn=  0.000000 ICntrl=       500 IOpCl=  0 I1Cent=   200000004 NGrid=           0
         NMat0=    1 NMatS0=      1 NMatT0=    0 NMatD0=    1 NMtDS0=    0 NMtDT0=    0
 Petite list used in FoFCou.
 Keep R1 ints in memory in symmetry-blocked form, NReq=8295801.
 Requested convergence on RMS density matrix=1.00D-08 within 128 cycles.
 Requested convergence on MAX density matrix=1.00D-06.
 Requested convergence on             energy=1.00D-06.
 No special actions if energy rises.
 SCF Done:  E(RHF) =  -3612.75642845     A.U. after   10 cycles
            NFock= 10  Conv=0.33D-08     -V/T= 2.0002
 ExpMin= 1.08D-01 ExpMax= 5.60D+05 ExpMxC= 5.41D+03 IAcc=3 IRadAn=         5 AccDes= 0.00D+00
 HarFok:  IExCor=  205 AccDes= 0.00D+00 IRadAn=         5 IDoV=-2 UseB2=F ITyADJ=14
 ICtDFT= 12500011 ScaDFX=  1.000000  1.000000  1.000000  1.000000
 GSVD:  LWork=        -768 too small for GESVD, short by        3240 words or        3240 for optimal perf.
 Range of M.O.s used for correlation:    25    81
 NBasis=    81 NAE=    42 NBE=    42 NFC=    24 NFV=     0
 NROrb=     57 NOA=    18 NOB=    18 NVA=    39 NVB=    39
 Fully direct method using O(ONN) memory.
 JobTyp=1 Pass  1:  I=  25 to  42 NPSUse=  1 ParTrn=F ParDer=F DoDerP=T.
 Spin components of T(2) and E(2):
     alpha-alpha T2 =       0.2907174634D-01 E2=     -0.7217104285D-01
     alpha-beta  T2 =       0.1523226333D+00 E2=     -0.3770309791D+00
     beta-beta   T2 =       0.2907174634D-01 E2=     -0.7217104285D-01
 ANorm=    0.1100211855D+01
 E2 =    -0.5213730648D+00 EUMP2 =    -0.36132778015104D+04
          IDoAtm=1111
          Differentiating once with respect to electric field.
                with respect to dipole field.
          Differentiating once with respect to nuclear coordinates.
 Keep R1 ints in memory in symmetry-blocked form, NReq=8296580.
          There are     1 degrees of freedom in the 1st order CPHF.  IDoFFX=0 NUNeed=     1.
 LinEq1:  Iter=  0 NonCon=     1 RMS=4.73D-03 Max=7.94D-02 NDo=     1
 AX will form     1 AO Fock derivatives at one time.
 LinEq1:  Iter=  1 NonCon=     1 RMS=1.06D-03 Max=2.12D-02 NDo=     1
 LinEq1:  Iter=  2 NonCon=     1 RMS=3.51D-04 Max=5.99D-03 NDo=     1
 LinEq1:  Iter=  3 NonCon=     1 RMS=8.82D-05 Max=1.42D-03 NDo=     1
 LinEq1:  Iter=  4 NonCon=     1 RMS=1.79D-05 Max=1.80D-04 NDo=     1
 LinEq1:  Iter=  5 NonCon=     1 RMS=3.06D-06 Max=3.79D-05 NDo=     1
 LinEq1:  Iter=  6 NonCon=     1 RMS=5.76D-07 Max=9.02D-06 NDo=     1
 LinEq1:  Iter=  7 NonCon=     1 RMS=1.38D-07 Max=2.77D-06 NDo=     1
 LinEq1:  Iter=  8 NonCon=     1 RMS=2.49D-08 Max=4.05D-07 NDo=     1
 LinEq1:  Iter=  9 NonCon=     1 RMS=5.80D-09 Max=5.54D-08 NDo=     1
 LinEq1:  Iter= 10 NonCon=     1 RMS=1.16D-09 Max=1.75D-08 NDo=     1
 LinEq1:  Iter= 11 NonCon=     1 RMS=1.27D-10 Max=1.26D-09 NDo=     1
 LinEq1:  Iter= 12 NonCon=     0 RMS=1.32D-11 Max=1.13D-10 NDo=     1
 Linear equations converged to 1.000D-10 1.000D-09 after    12 iterations.
 End of Minotr F.D. properties file   721 does not exist.
 End of Minotr F.D. properties file   722 does not exist.
 End of Minotr F.D. properties file   788 does not exist.
 Calling FoFJK, ICntrl=  10002127 FMM=F ISym2X=1 I1Cent= 0 IOpClX= 0 NMat=1 NMatS=1 NMatT=0.
 ***** Axes restored to original set *****
 -------------------------------------------------------------------
 Center     Atomic                   Forces (Hartrees/Bohr)
 Number     Number              X              Y              Z
 -------------------------------------------------------------------
      1       33          -0.000000000   -0.000000000   -0.000326778
      2       17           0.000000000    0.000064776    0.000108926
      3       17          -0.000056098   -0.000032388    0.000108926
      4       17           0.000056098   -0.000032388    0.000108926
 -------------------------------------------------------------------
 Cartesian Forces:  Max     0.000326778 RMS     0.000113639

 GradGradGradGradGradGradGradGradGradGradGradGradGradGradGradGradGradGrad
 Berny optimization.
 Using GEDIIS/GDIIS optimizer.
 FormGI is forming the generalized inverse of G from B-inverse, IUseBI=4.
 Internal  Forces:  Max     0.000356760 RMS     0.000222260
 Search for a local minimum.
 Step number   3 out of a maximum of   20
 All quantities printed in internal units (Hartrees-Bohrs-Radians)
 Mixed Optimization -- En-DIIS/RFO-DIIS
 Update second derivatives using D2CorX and points    1    2    3
 DE= -1.06D-03 DEPred=-1.30D-03 R= 8.17D-01
 TightC=F SS=  1.41D+00  RLast= 1.11D-01 DXNew= 8.4853D-01 3.3223D-01
 Trust test= 8.17D-01 RLast= 1.11D-01 DXMaxT set to 5.05D-01
 The second derivative matrix:
                          R1        R2        R3        A1        A2
           R1           0.12662
           R2           0.02028   0.12662
           R3           0.02028   0.02028   0.12662
           A1          -0.00424  -0.00424  -0.00424   0.24827
           A2           0.00370   0.00370   0.00370  -0.00112   0.25064
           A3           0.00370   0.00370   0.00370  -0.00112   0.00064
           D1          -0.00947  -0.00947  -0.00947  -0.00070  -0.00209
                          A3        D1
           A3           0.25064
           D1          -0.00209   0.00398
 ITU=  1  1  0
 Use linear search instead of GDIIS.
     Eigenvalues ---    0.10634   0.10634   0.11762   0.16736   0.25000
     Eigenvalues ---    0.25324
 RFO step:  Lambda=-1.94440263D-06 EMin= 1.06337538D-01
 Quartic linear search produced a step of -0.00411.
 Iteration  1 RMS(Cart)=  0.00216818 RMS(Int)=  0.00000251
 Iteration  2 RMS(Cart)=  0.00000232 RMS(Int)=  0.00000110
 Iteration  3 RMS(Cart)=  0.00000000 RMS(Int)=  0.00000110
 ClnCor:  largest displacement from symmetrization is 2.63D-05 for atom     4.
 Variable       Old X    -DE/DX   Delta X   Delta X   Delta X     New X
                                 (Linear)    (Quad)   (Total)
    R1        4.12456   0.00001   0.00026  -0.00041  -0.00016   4.12440
    R2        4.12456   0.00001   0.00026  -0.00041  -0.00016   4.12440
    R3        4.12456   0.00001   0.00026  -0.00041  -0.00016   4.12440
    A1        1.73166   0.00013   0.00003   0.00157   0.00161   1.73327
    A2        1.73166   0.00036   0.00003   0.00159   0.00161   1.73327
    A3        1.73166   0.00036   0.00003   0.00159   0.00161   1.73327
    D1       -1.76270  -0.00027  -0.00004  -0.00225  -0.00230  -1.76499
         Item               Value     Threshold  Converged?
 Maximum Force            0.000357     0.000450     YES
 RMS     Force            0.000222     0.000300     YES
 Maximum Displacement     0.003499     0.001800     NO 
 RMS     Displacement     0.002163     0.001200     NO 
 Predicted change in Energy=-9.922552D-07
 GradGradGradGradGradGradGradGradGradGradGradGradGradGradGradGradGradGrad

                          Input orientation:                          
 ---------------------------------------------------------------------
 Center     Atomic      Atomic             Coordinates (Angstroms)
 Number     Number       Type             X           Y           Z
 ---------------------------------------------------------------------
      1         33           0       -0.000000    0.000000    0.626250
      2         17           0        0.000000    1.920770   -0.410152
      3         17           0       -1.663435   -0.960384   -0.410152
      4         17           0        1.663435   -0.960385   -0.410152
 ---------------------------------------------------------------------
                    Distance matrix (angstroms):
                    1          2          3          4
     1  As   0.000000
     2  Cl   2.182541   0.000000
     3  Cl   2.182541   3.326870   0.000000
     4  Cl   2.182541   3.326870   3.326870   0.000000
 Stoichiometry    AsCl3
 Framework group  C3V[C3(As),3SGV(Cl)]
 Deg. of freedom     2
 Full point group                 C3V     NOp   6
 Largest Abelian subgroup         CS      NOp   2
 Largest concise Abelian subgroup CS      NOp   2
                         Standard orientation:                         
 ---------------------------------------------------------------------
 Center     Atomic      Atomic             Coordinates (Angstroms)
 Number     Number       Type             X           Y           Z
 ---------------------------------------------------------------------
      1         33           0        0.000000    0.000000    0.629244
      2         17           0        0.000000    1.920770   -0.407158
      3         17           0       -1.663435   -0.960385   -0.407158
      4         17           0        1.663435   -0.960385   -0.407158
 ---------------------------------------------------------------------
 Rotational constants (GHZ):           2.1016669           2.1016669           1.3057621
 Standard basis: CC-pVDZ (5D, 7F)
 There are    54 symmetry adapted cartesian basis functions of A'  symmetry.
 There are    32 symmetry adapted cartesian basis functions of A"  symmetry.
 There are    50 symmetry adapted basis functions of A'  symmetry.
 There are    31 symmetry adapted basis functions of A"  symmetry.
    81 basis functions,   359 primitive gaussians,    86 cartesian basis functions
    42 alpha electrons       42 beta electrons
       nuclear repulsion energy       545.9653491345 Hartrees.
 NAtoms=    4 NActive=    4 NUniq=    2 SFac= 4.00D+00 NAtFMM=   60 NAOKFM=F Big=F
 Integral buffers will be    131072 words long.
 Raffenetti 1 integral format.
 Two-electron integral symmetry is turned on.
 One-electron integrals computed using PRISM.
 NBasis=    81 RedAO= T EigKep=  1.26D-02  NBF=    50    31
 NBsUse=    81 1.00D-06 EigRej= -1.00D+00 NBFU=    50    31
 Initial guess from the checkpoint file:  "AsCl3-MP2-cc.chk"
 B after Tr=     0.000000   -0.000000    0.000000
         Rot=    1.000000    0.000000    0.000000    0.000000 Ang=   0.00 deg.
 Initial guess orbital symmetries:
       Occupied  (A1) (A1) (E) (E) (A1) (E) (E) (A1) (A1) (E) (E)
                 (A1) (E) (E) (A1) (A2) (E) (E) (E) (E) (A1) (E)
                 (E) (A1) (E) (E) (E) (E) (A1) (A1) (E) (E) (A1)
                 (E) (E) (A1) (E) (E) (E) (E) (A2) (A1)
       Virtual   (E) (E) (A1) (E) (E) (A1) (E) (E) (A1) (A1) (E)
                 (E) (A1) (E) (E) (A1) (E) (E) (A2) (E) (E) (E)
                 (E) (A2) (A1) (E) (E) (A2) (E) (E) (A1) (E) (E)
                 (E) (E) (A1) (A1) (E) (E)
 Keep R1 ints in memory in symmetry-blocked form, NReq=8295801.
 Requested convergence on RMS density matrix=1.00D-08 within 128 cycles.
 Requested convergence on MAX density matrix=1.00D-06.
 Requested convergence on             energy=1.00D-06.
 No special actions if energy rises.
 SCF Done:  E(RHF) =  -3612.75642214     A.U. after    8 cycles
            NFock=  8  Conv=0.32D-08     -V/T= 2.0002
 ExpMin= 1.08D-01 ExpMax= 5.60D+05 ExpMxC= 5.41D+03 IAcc=3 IRadAn=         5 AccDes= 0.00D+00
 HarFok:  IExCor=  205 AccDes= 0.00D+00 IRadAn=         5 IDoV=-2 UseB2=F ITyADJ=14
 ICtDFT= 12500011 ScaDFX=  1.000000  1.000000  1.000000  1.000000
 GSVD:  LWork=        -768 too small for GESVD, short by        3240 words or        3240 for optimal perf.
 Range of M.O.s used for correlation:    25    81
 NBasis=    81 NAE=    42 NBE=    42 NFC=    24 NFV=     0
 NROrb=     57 NOA=    18 NOB=    18 NVA=    39 NVB=    39
 Fully direct method using O(ONN) memory.
 JobTyp=1 Pass  1:  I=  25 to  42 NPSUse=  1 ParTrn=F ParDer=F DoDerP=T.
 Spin components of T(2) and E(2):
     alpha-alpha T2 =       0.2907396870D-01 E2=     -0.7217267144D-01
     alpha-beta  T2 =       0.1523289811D+00 E2=     -0.3770348157D+00
     beta-beta   T2 =       0.2907396870D-01 E2=     -0.7217267144D-01
 ANorm=    0.1100216760D+01
 E2 =    -0.5213801586D+00 EUMP2 =    -0.36132778022951D+04
          IDoAtm=1111
          Differentiating once with respect to electric field.
                with respect to dipole field.
          Differentiating once with respect to nuclear coordinates.
 Keep R1 ints in memory in symmetry-blocked form, NReq=8296580.
          There are     1 degrees of freedom in the 1st order CPHF.  IDoFFX=0 NUNeed=     1.
 LinEq1:  Iter=  0 NonCon=     1 RMS=4.73D-03 Max=7.94D-02 NDo=     1
 AX will form     1 AO Fock derivatives at one time.
 LinEq1:  Iter=  1 NonCon=     1 RMS=1.06D-03 Max=2.12D-02 NDo=     1
 LinEq1:  Iter=  2 NonCon=     1 RMS=3.51D-04 Max=6.01D-03 NDo=     1
 LinEq1:  Iter=  3 NonCon=     1 RMS=8.84D-05 Max=1.42D-03 NDo=     1
 LinEq1:  Iter=  4 NonCon=     1 RMS=1.79D-05 Max=1.81D-04 NDo=     1
 LinEq1:  Iter=  5 NonCon=     1 RMS=3.06D-06 Max=3.79D-05 NDo=     1
 LinEq1:  Iter=  6 NonCon=     1 RMS=5.77D-07 Max=9.14D-06 NDo=     1
 LinEq1:  Iter=  7 NonCon=     1 RMS=1.38D-07 Max=2.81D-06 NDo=     1
 LinEq1:  Iter=  8 NonCon=     1 RMS=2.52D-08 Max=4.05D-07 NDo=     1
 LinEq1:  Iter=  9 NonCon=     1 RMS=5.87D-09 Max=5.55D-08 NDo=     1
 LinEq1:  Iter= 10 NonCon=     1 RMS=1.17D-09 Max=1.76D-08 NDo=     1
 LinEq1:  Iter= 11 NonCon=     1 RMS=1.27D-10 Max=1.26D-09 NDo=     1
 LinEq1:  Iter= 12 NonCon=     0 RMS=1.31D-11 Max=1.13D-10 NDo=     1
 Linear equations converged to 1.000D-10 1.000D-09 after    12 iterations.
 End of Minotr F.D. properties file   721 does not exist.
 End of Minotr F.D. properties file   722 does not exist.
 End of Minotr F.D. properties file   788 does not exist.
 Calling FoFJK, ICntrl=  10002127 FMM=F ISym2X=1 I1Cent= 0 IOpClX= 0 NMat=1 NMatS=1 NMatT=0.
 ***** Axes restored to original set *****
 -------------------------------------------------------------------
 Center     Atomic                   Forces (Hartrees/Bohr)
 Number     Number              X              Y              Z
 -------------------------------------------------------------------
      1       33          -0.000000000    0.000000000    0.000078888
      2       17          -0.000000000   -0.000004449   -0.000026296
      3       17           0.000003853    0.000002225   -0.000026296
      4       17          -0.000003853    0.000002225   -0.000026296
 -------------------------------------------------------------------
 Cartesian Forces:  Max     0.000078888 RMS     0.000026390

 GradGradGradGradGradGradGradGradGradGradGradGradGradGradGradGradGradGrad
 Berny optimization.
 Using GEDIIS/GDIIS optimizer.
 FormGI is forming the generalized inverse of G from B-inverse, IUseBI=4.
 Internal  Forces:  Max     0.000071089 RMS     0.000044672
 Search for a local minimum.
 Step number   4 out of a maximum of   20
 All quantities printed in internal units (Hartrees-Bohrs-Radians)
 Mixed Optimization -- En-DIIS/RFO-DIIS
 Swapping is turned off.
 Update second derivatives using D2CorX and points    1    2    3    4
 DE= -7.85D-07 DEPred=-9.92D-07 R= 7.91D-01
 Trust test= 7.91D-01 RLast= 3.62D-03 DXMaxT set to 5.05D-01
 The second derivative matrix:
                          R1        R2        R3        A1        A2
           R1           0.12668
           R2           0.02034   0.12668
           R3           0.02034   0.02034   0.12668
           A1          -0.00289  -0.00289  -0.00289   0.17730
           A2           0.00329   0.00329   0.00329  -0.05527   0.24445
           A3           0.00329   0.00329   0.00329  -0.05527  -0.00555
           D1          -0.00739  -0.00739  -0.00739  -0.01979  -0.05846
                          A3        D1
           A3           0.24445
           D1          -0.05846   0.04860
 ITU=  0  1  1  0
     Eigenvalues ---    0.10634   0.10634   0.12923   0.16750   0.25000
     Eigenvalues ---    0.27780
 En-DIIS/RFO-DIIS/Sim-DIIS IScMMF=       -3 using points:     4    3
 RFO step:  Lambda=-6.81567478D-08.
 DidBck=F Rises=F RFO-DIIS coefs:    0.83058    0.16942
 Iteration  1 RMS(Cart)=  0.00034911 RMS(Int)=  0.00000018
 Iteration  2 RMS(Cart)=  0.00000007 RMS(Int)=  0.00000017
 ClnCor:  largest displacement from symmetrization is 6.62D-08 for atom     4.
 Variable       Old X    -DE/DX   Delta X   Delta X   Delta X     New X
                                 (Linear)    (Quad)   (Total)
    R1        4.12440   0.00001   0.00003   0.00005   0.00007   4.12448
    R2        4.12440   0.00001   0.00003   0.00005   0.00007   4.12448
    R3        4.12440   0.00001   0.00003   0.00005   0.00007   4.12448
    A1        1.73327  -0.00003  -0.00027   0.00000  -0.00027   1.73300
    A2        1.73327  -0.00007  -0.00027   0.00000  -0.00027   1.73300
    A3        1.73327  -0.00007  -0.00027   0.00000  -0.00027   1.73300
    D1       -1.76499   0.00005   0.00039  -0.00000   0.00039  -1.76461
         Item               Value     Threshold  Converged?
 Maximum Force            0.000071     0.000450     YES
 RMS     Force            0.000045     0.000300     YES
 Maximum Displacement     0.000604     0.001800     YES
 RMS     Displacement     0.000349     0.001200     YES
 Predicted change in Energy=-3.407827D-08
 Optimization completed.
    -- Stationary point found.
                           ----------------------------
                           !   Optimized Parameters   !
                           ! (Angstroms and Degrees)  !
 --------------------------                            --------------------------
 ! Name  Definition              Value          Derivative Info.                !
 --------------------------------------------------------------------------------
 ! R1    R(1,2)                  2.1825         -DE/DX =    0.0                 !
 ! R2    R(1,3)                  2.1825         -DE/DX =    0.0                 !
 ! R3    R(1,4)                  2.1825         -DE/DX =    0.0                 !
 ! A1    A(2,1,3)               99.3092         -DE/DX =    0.0                 !
 ! A2    A(2,1,4)               99.3092         -DE/DX =   -0.0001              !
 ! A3    A(3,1,4)               99.3092         -DE/DX =   -0.0001              !
 ! D1    D(2,1,4,3)           -101.1267         -DE/DX =    0.0001              !
 --------------------------------------------------------------------------------
 GradGradGradGradGradGradGradGradGradGradGradGradGradGradGradGradGradGrad

                          Input orientation:                          
 ---------------------------------------------------------------------
 Center     Atomic      Atomic             Coordinates (Angstroms)
 Number     Number       Type             X           Y           Z
 ---------------------------------------------------------------------
      1         33           0       -0.000000    0.000000    0.626250
      2         17           0        0.000000    1.920770   -0.410152
      3         17           0       -1.663435   -0.960384   -0.410152
      4         17           0        1.663435   -0.960385   -0.410152
 ---------------------------------------------------------------------
                    Distance matrix (angstroms):
                    1          2          3          4
     1  As   0.000000
     2  Cl   2.182541   0.000000
     3  Cl   2.182541   3.326870   0.000000
     4  Cl   2.182541   3.326870   3.326870   0.000000
 Stoichiometry    AsCl3
 Framework group  C3V[C3(As),3SGV(Cl)]
 Deg. of freedom     2
 Full point group                 C3V     NOp   6
 Largest Abelian subgroup         CS      NOp   2
 Largest concise Abelian subgroup CS      NOp   2
                         Standard orientation:                         
 ---------------------------------------------------------------------
 Center     Atomic      Atomic             Coordinates (Angstroms)
 Number     Number       Type             X           Y           Z
 ---------------------------------------------------------------------
      1         33           0        0.000000    0.000000    0.629244
      2         17           0        0.000000    1.920770   -0.407158
      3         17           0       -1.663435   -0.960385   -0.407158
      4         17           0        1.663435   -0.960385   -0.407158
 ---------------------------------------------------------------------
 Rotational constants (GHZ):           2.1016669           2.1016669           1.3057621

 **********************************************************************

            Population analysis using the SCF Density.

 **********************************************************************

 Orbital symmetries:
       Occupied  (A1) (A1) (E) (E) (A1) (E) (E) (A1) (A1) (E) (E)
                 (A1) (E) (E) (A1) (A2) (E) (E) (E) (E) (A1) (E)
                 (E) (A1) (E) (E) (E) (E) (A1) (A1) (E) (E) (A1)
                 (E) (E) (A1) (E) (E) (E) (E) (A2) (A1)
       Virtual   (E) (E) (A1) (E) (E) (A1) (E) (E) (A1) (A1) (E)
                 (E) (A1) (E) (E) (A1) (E) (E) (A2) (E) (E) (E)
                 (E) (A2) (A1) (E) (E) (A2) (E) (E) (A1) (E) (E)
                 (E) (E) (A1) (A1) (E) (E)
 The electronic state is 1-A1.
 Alpha  occ. eigenvalues -- -432.77411-104.85415-104.85415-104.85415 -56.48969
 Alpha  occ. eigenvalues --  -50.33569 -50.33569 -50.33488 -10.58181 -10.58181
 Alpha  occ. eigenvalues --  -10.58181  -8.18586  -8.04890  -8.04890  -8.04890
 Alpha  occ. eigenvalues --   -8.04575  -8.04575  -8.04575  -8.04566  -8.04566
 Alpha  occ. eigenvalues --   -8.04566  -6.03799  -6.03799  -6.03308  -2.26619
 Alpha  occ. eigenvalues --   -2.26619  -2.26018  -2.26018  -2.25732  -1.16210
 Alpha  occ. eigenvalues --   -1.10351  -1.10351  -0.80210  -0.57924  -0.57924
 Alpha  occ. eigenvalues --   -0.55041  -0.50302  -0.50302  -0.47032  -0.47032
 Alpha  occ. eigenvalues --   -0.46563  -0.41324
 Alpha virt. eigenvalues --    0.06342   0.06342   0.07076   0.45042   0.45042
 Alpha virt. eigenvalues --    0.45770   0.51128   0.51128   0.51738   0.55529
 Alpha virt. eigenvalues --    0.62327   0.62327   0.71498   0.72266   0.72266
 Alpha virt. eigenvalues --    0.74384   0.79835   0.79835   0.81242   0.89335
 Alpha virt. eigenvalues --    0.89335   0.93109   0.93109   0.95091   0.96111
 Alpha virt. eigenvalues --    0.96160   0.96160   0.99183   1.01113   1.01113
 Alpha virt. eigenvalues --    1.01565   1.05736   1.05736   1.16524   1.16524
 Alpha virt. eigenvalues --    1.19088   1.50538   1.50735   1.50735
          Condensed to atoms (all electrons):
               1          2          3          4
     1  As  31.551740   0.210616   0.210616   0.210616
     2  Cl   0.210616  17.117246  -0.027863  -0.027863
     3  Cl   0.210616  -0.027863  17.117246  -0.027863
     4  Cl   0.210616  -0.027863  -0.027863  17.117246
 Mulliken charges:
               1
     1  As   0.816410
     2  Cl  -0.272137
     3  Cl  -0.272137
     4  Cl  -0.272137
 Sum of Mulliken charges =  -0.00000
 Mulliken charges with hydrogens summed into heavy atoms:
               1
     1  As   0.816410
     2  Cl  -0.272137
     3  Cl  -0.272137
     4  Cl  -0.272137
 Electronic spatial extent (au):  <R**2>=            876.1089
 Charge=             -0.0000 electrons
 Dipole moment (field-independent basis, Debye):
    X=             -0.0000    Y=              0.0000    Z=              2.0356  Tot=              2.0356
 Quadrupole moment (field-independent basis, Debye-Ang):
   XX=            -58.1257   YY=            -58.1257   ZZ=            -55.0186
   XY=             -0.0000   XZ=              0.0000   YZ=             -0.0000
 Traceless Quadrupole moment (field-independent basis, Debye-Ang):
   XX=             -1.0357   YY=             -1.0357   ZZ=              2.0714
   XY=             -0.0000   XZ=              0.0000   YZ=             -0.0000
 Octapole moment (field-independent basis, Debye-Ang**2):
  XXX=             -0.0000  YYY=             -1.3647  ZZZ=             14.9068  XYY=             -0.0000
  XXY=              1.3647  XXZ=              5.0605  XZZ=              0.0000  YZZ=              0.0000
  YYZ=              5.0605  XYZ=              0.0000
 Hexadecapole moment (field-independent basis, Debye-Ang**3):
 XXXX=           -483.3450 YYYY=           -483.3450 ZZZZ=           -143.9370 XXXY=              0.0000
 XXXZ=              0.0000 YYYX=              0.0000 YYYZ=             -4.7909 ZZZX=             -0.0000
 ZZZY=             -0.0000 XXYY=           -161.1150 XXZZ=           -101.5765 YYZZ=           -101.5765
 XXYZ=              4.7909 YYXZ=              0.0000 ZZXY=              0.0000
 N-N= 5.459653491345D+02 E-N=-9.718937816615D+03  KE= 3.612113415273D+03
 Symmetry A'   KE= 2.789273784270D+03
 Symmetry A"   KE= 8.228396310023D+02
 Unable to Open any file for archive entry.
 1\1\GINC-BS001\FOpt\RMP2-FC\CC-pVDZ\As1Cl3\PNATT\10-Aug-2026\0\\# opt 
 freq=hpmodes mp2/cc-pvdz geom=connectivity\\Title Card Required\\0,1\A
 s,0.,0.0000002024,0.6262495207\Cl,0.0000002035,1.9207697367,-0.4101517
 211\Cl,-1.6634353133,-0.9603843885,-0.4101517211\Cl,1.6634351098,-0.96
 0384741,-0.4101517211\\Version=ES64L-G16RevC.01\State=1-A1\HF=-3612.75
 64221\MP2=-3613.2778023\RMSD=3.176e-09\RMSF=2.639e-05\Dipole=0.,0.,0.6
 854309\PG=C03V [C3(As1),3SGV(Cl1)]\\@
 The archive entry for this job was punched.


 I DON'T PRETEND TO UNDERSTAND THE UNIVERSE --
 IT'S A GREAT DEAL BIGGER THAN I AM.
       -- ATTR. TO WILLIAM ALLINGHAM (1828-89)
 Job cpu time:       0 days  0 hours  0 minutes 49.1 seconds.
 Elapsed time:       0 days  0 hours  0 minutes 48.6 seconds.
 File lengths (MBytes):  RWF=      6 Int=      0 D2E=      0 Chk=      2 Scr=      1
 Normal termination of Gaussian 16 at Mon Aug 10 15:52:37 2026.
 Link1:  Proceeding to internal job step number  2.
 ---------------------------------------------------------------------
 #N Geom=AllCheck Guess=TCheck SCRF=Check GenChk RMP2(FC)/CC-pVDZ Freq
 ---------------------------------------------------------------------
 1/10=4,29=7,30=1,38=1,40=1/1,3;
 2/12=2,40=1/2;
 3/5=16,11=1,14=-4,25=1,30=1,70=2,71=2,116=1,140=1/1,2,3;
 4/5=101/1;
 5/5=2,38=6,98=1/2;
 8/6=3,8=1,10=1,19=11,30=-1/1;
 9/15=3,16=-3/6;
 11/6=1,8=1,15=11,17=12,24=-1,27=1,28=-2,29=300,32=6,42=3/1,2,10;
 10/6=2,21=1/2;
 8/6=4,8=1,10=1,19=11,30=-1/11,4;
 10/5=1,20=4/2;
 11/12=2,14=11,16=1,17=2,28=-2,42=3,76=2/2,10,12;
 6/7=2,8=2,9=2,10=2/1;
 7/8=11,10=1,12=2,25=1,44=2/1,2,3,16;
 1/10=4,30=1/3;
 99//99;
 Structure from the checkpoint file:  "AsCl3-MP2-cc.chk"
 -------------------
 Title Card Required
 -------------------
 Charge =  0 Multiplicity = 1
 Redundant internal coordinates found in file.  (old form).
 As,0,0.,0.0000002024,0.6262495207
 Cl,0,0.0000002035,1.9207697367,-0.4101517211
 Cl,0,-1.6634353133,-0.9603843885,-0.4101517211
 Cl,0,1.6634351098,-0.960384741,-0.4101517211
 Recover connectivity data from disk.

 GradGradGradGradGradGradGradGradGradGradGradGradGradGradGradGradGradGrad
 Berny optimization.
 Initialization pass.
                           ----------------------------
                           !    Initial Parameters    !
                           ! (Angstroms and Degrees)  !
 --------------------------                            --------------------------
 ! Name  Definition              Value          Derivative Info.                !
 --------------------------------------------------------------------------------
 ! R1    R(1,2)                  2.1825         calculate D2E/DX2 analytically  !
 ! R2    R(1,3)                  2.1825         calculate D2E/DX2 analytically  !
 ! R3    R(1,4)                  2.1825         calculate D2E/DX2 analytically  !
 ! A1    A(2,1,3)               99.3092         calculate D2E/DX2 analytically  !
 ! A2    A(2,1,4)               99.3092         calculate D2E/DX2 analytically  !
 ! A3    A(3,1,4)               99.3092         calculate D2E/DX2 analytically  !
 ! D1    D(2,1,4,3)           -101.1267         calculate D2E/DX2 analytically  !
 --------------------------------------------------------------------------------
 Trust Radius=3.00D-01 FncErr=1.00D-07 GrdErr=1.00D-07 EigMax=2.50D+02 EigMin=1.00D-04
 Number of steps in this run=      2 maximum allowed number of steps=      2.
 GradGradGradGradGradGradGradGradGradGradGradGradGradGradGradGradGradGrad

                          Input orientation:                          
 ---------------------------------------------------------------------
 Center     Atomic      Atomic             Coordinates (Angstroms)
 Number     Number       Type             X           Y           Z
 ---------------------------------------------------------------------
      1         33           0       -0.000000    0.000000    0.626250
      2         17           0        0.000000    1.920770   -0.410152
      3         17           0       -1.663435   -0.960384   -0.410152
      4         17           0        1.663435   -0.960385   -0.410152
 ---------------------------------------------------------------------
                    Distance matrix (angstroms):
                    1          2          3          4
     1  As   0.000000
     2  Cl   2.182541   0.000000
     3  Cl   2.182541   3.326870   0.000000
     4  Cl   2.182541   3.326870   3.326870   0.000000
 Stoichiometry    AsCl3
 Framework group  C3V[C3(As),3SGV(Cl)]
 Deg. of freedom     2
 Full point group                 C3V     NOp   6
 Largest Abelian subgroup         CS      NOp   2
 Largest concise Abelian subgroup CS      NOp   2
                         Standard orientation:                         
 ---------------------------------------------------------------------
 Center     Atomic      Atomic             Coordinates (Angstroms)
 Number     Number       Type             X           Y           Z
 ---------------------------------------------------------------------
      1         33           0        0.000000    0.000000    0.629244
      2         17           0        0.000000    1.920770   -0.407158
      3         17           0       -1.663435   -0.960385   -0.407158
      4         17           0        1.663435   -0.960385   -0.407158
 ---------------------------------------------------------------------
 Rotational constants (GHZ):           2.1016669           2.1016669           1.3057621
 Standard basis: CC-pVDZ (5D, 7F)
 There are    54 symmetry adapted cartesian basis functions of A'  symmetry.
 There are    32 symmetry adapted cartesian basis functions of A"  symmetry.
 There are    50 symmetry adapted basis functions of A'  symmetry.
 There are    31 symmetry adapted basis functions of A"  symmetry.
    81 basis functions,   359 primitive gaussians,    86 cartesian basis functions
    42 alpha electrons       42 beta electrons
       nuclear repulsion energy       545.9653491345 Hartrees.
 NAtoms=    4 NActive=    4 NUniq=    2 SFac= 4.00D+00 NAtFMM=   60 NAOKFM=F Big=F
 Integral buffers will be    131072 words long.
 Raffenetti 1 integral format.
 Two-electron integral symmetry is turned on.
 One-electron integrals computed using PRISM.
 NBasis=    81 RedAO= T EigKep=  1.26D-02  NBF=    50    31
 NBsUse=    81 1.00D-06 EigRej= -1.00D+00 NBFU=    50    31
 Initial guess from the checkpoint file:  "AsCl3-MP2-cc.chk"
 B after Tr=    -0.000000    0.000000    0.000000
         Rot=    1.000000    0.000000    0.000000   -0.000000 Ang=   0.00 deg.
 Initial guess orbital symmetries:
       Occupied  (A1) (A1) (E) (E) (A1) (E) (E) (A1) (A1) (E) (E)
                 (A1) (E) (E) (A1) (A2) (E) (E) (E) (E) (A1) (E)
                 (E) (A1) (E) (E) (E) (E) (A1) (A1) (E) (E) (A1)
                 (E) (E) (A1) (E) (E) (E) (E) (A2) (A1)
       Virtual   (E) (E) (A1) (E) (E) (A1) (E) (E) (A1) (A1) (E)
                 (E) (A1) (E) (E) (A1) (E) (E) (A2) (E) (E) (E)
                 (E) (A2) (A1) (E) (E) (A2) (E) (E) (A1) (E) (E)
                 (E) (E) (A1) (A1) (E) (E)
 Keep R1 ints in memory in symmetry-blocked form, NReq=8295801.
 Requested convergence on RMS density matrix=1.00D-08 within 128 cycles.
 Requested convergence on MAX density matrix=1.00D-06.
 Requested convergence on             energy=1.00D-06.
 No special actions if energy rises.
 SCF Done:  E(RHF) =  -3612.75642214     A.U. after    1 cycles
            NFock=  1  Conv=0.72D-09     -V/T= 2.0002
 ExpMin= 1.08D-01 ExpMax= 5.60D+05 ExpMxC= 5.41D+03 IAcc=3 IRadAn=         5 AccDes= 0.00D+00
 HarFok:  IExCor=  205 AccDes= 0.00D+00 IRadAn=         5 IDoV=-2 UseB2=F ITyADJ=14
 ICtDFT= 12500011 ScaDFX=  1.000000  1.000000  1.000000  1.000000
 GSVD:  LWork=        -768 too small for GESVD, short by        3240 words or        3240 for optimal perf.
 Range of M.O.s used for correlation:    25    81
 NBasis=    81 NAE=    42 NBE=    42 NFC=    24 NFV=     0
 NROrb=     57 NOA=    18 NOB=    18 NVA=    39 NVB=    39
 Disk-based method using ON**2 memory for 18 occupieds at a time.
 Permanent disk used for amplitudes=     3321045 words.
 Estimated scratch disk usage=    14447160 words.
 Actual    scratch disk usage=    14447160 words.
 JobTyp=1 Pass  1:  I=  25 to  42 NPSUse=  1 ParTrn=F ParDer=F DoDerP=T.
 (rs|ai) integrals will be sorted in core.
 Spin components of T(2) and E(2):
     alpha-alpha T2 =       0.2907396894D-01 E2=     -0.7217267172D-01
     alpha-beta  T2 =       0.1523289815D+00 E2=     -0.3770348161D+00
     beta-beta   T2 =       0.2907396894D-01 E2=     -0.7217267172D-01
 ANorm=    0.1100216760D+01
 E2 =    -0.5213801595D+00 EUMP2 =    -0.36132778022961D+04
 G2DrvN: will do     5 centers at a time, making    1 passes.
 Calling FoFCou, ICntrl=  3107 FMM=F I1Cent=   0 AccDes= 0.00D+00.
 End of G2Drv F.D. properties file   721 does not exist.
 End of G2Drv F.D. properties file   722 does not exist.
 End of G2Drv F.D. properties file   788 does not exist.
          IDoAtm=1111
          Differentiating once with respect to electric field.
                with respect to dipole field.
          Differentiating once with respect to nuclear coordinates.
 Keep R1 ints in memory in symmetry-blocked form, NReq=8296580.
          There are    15 degrees of freedom in the 1st order CPHF.  IDoFFX=6 NUNeed=    15.
     12 vectors produced by pass  0 Test12= 1.09D-14 6.67D-09 XBig12= 2.09D+01 2.45D+00.
 AX will form    12 AO Fock derivatives at one time.
     12 vectors produced by pass  1 Test12= 1.09D-14 6.67D-09 XBig12= 1.17D+00 4.49D-01.
     12 vectors produced by pass  2 Test12= 1.09D-14 6.67D-09 XBig12= 7.45D-02 1.33D-01.
     12 vectors produced by pass  3 Test12= 1.09D-14 6.67D-09 XBig12= 6.19D-03 2.42D-02.
     12 vectors produced by pass  4 Test12= 1.09D-14 6.67D-09 XBig12= 8.32D-05 1.87D-03.
     12 vectors produced by pass  5 Test12= 1.09D-14 6.67D-09 XBig12= 5.80D-07 1.92D-04.
     12 vectors produced by pass  6 Test12= 1.09D-14 6.67D-09 XBig12= 6.50D-09 2.12D-05.
      6 vectors produced by pass  7 Test12= 1.09D-14 6.67D-09 XBig12= 5.49D-11 2.60D-06.
      3 vectors produced by pass  8 Test12= 1.09D-14 6.67D-09 XBig12= 3.43D-13 1.40D-07.
      3 vectors produced by pass  9 Test12= 1.09D-14 6.67D-09 XBig12= 2.33D-15 1.05D-08.
 InvSVY:  IOpt=1 It=  1 EMax= 6.66D-16
 Solved reduced A of dimension    96 with    12 vectors.
 End of Minotr F.D. properties file   721 does not exist.
 End of Minotr F.D. properties file   722 does not exist.
 End of Minotr F.D. properties file   788 does not exist.
 MDV=   104857600.
 Form MO integral derivatives with frozen-active canonical formalism.
 Discarding MO integrals.
 Reordered first order wavefunction length =      5366088
 In DefCFB: NBatch=  1 ICI= 42 ICA= 39 LFMax= 21
            Large arrays: LIAPS=    45641232 LIARS=    28596204 words.
 Semi-Direct transformation.
 ModeAB=           4 MOrb=            42 LenV=     104467554
 LASXX=      6316212 LTotXX=     6316212 LenRXX=    13275759
 LTotAB=     6959547 MaxLAS=     8685306 LenRXY=           0
 NonZer=    19591971 LenScr=    30151680 LnRSAI=     8685306
 LnScr1=    13787136 LExtra=           0 Total=     65899881
 MaxDsk=          -1 SrtSym=           T ITran=            4
 JobTyp=0 Pass  1:  I=   1 to  42.
 (rs|ai) integrals will be sorted in core.
 Spin components of T(2) and E(2):
     alpha-alpha T2 =       0.2907396894D-01 E2=     -0.7217267172D-01
     alpha-beta  T2 =       0.1523289815D+00 E2=     -0.3770348161D+00
     beta-beta   T2 =       0.2907396894D-01 E2=     -0.7217267172D-01
 ANorm=    0.1555941464D+01
 E2 =    -0.5213801595D+00 EUMP2 =    -0.36132778022961D+04
          IDoAtm=1111
          Differentiating once with respect to electric field.
                with respect to dipole field.
          Differentiating once with respect to nuclear coordinates.
          There are     1 degrees of freedom in the 1st order CPHF.  IDoFFX=0 NUNeed=     1.
 LinEq1:  Iter=  0 NonCon=     1 RMS=4.73D-03 Max=7.94D-02 NDo=     1
 LinEq1:  Iter=  1 NonCon=     1 RMS=1.06D-03 Max=2.12D-02 NDo=     1
 LinEq1:  Iter=  2 NonCon=     1 RMS=3.51D-04 Max=6.01D-03 NDo=     1
 LinEq1:  Iter=  3 NonCon=     1 RMS=8.84D-05 Max=1.42D-03 NDo=     1
 LinEq1:  Iter=  4 NonCon=     1 RMS=1.79D-05 Max=1.81D-04 NDo=     1
 LinEq1:  Iter=  5 NonCon=     1 RMS=3.06D-06 Max=3.79D-05 NDo=     1
 LinEq1:  Iter=  6 NonCon=     1 RMS=5.77D-07 Max=9.14D-06 NDo=     1
 LinEq1:  Iter=  7 NonCon=     1 RMS=1.38D-07 Max=2.81D-06 NDo=     1
 LinEq1:  Iter=  8 NonCon=     1 RMS=2.52D-08 Max=4.05D-07 NDo=     1
 LinEq1:  Iter=  9 NonCon=     1 RMS=5.87D-09 Max=5.55D-08 NDo=     1
 LinEq1:  Iter= 10 NonCon=     1 RMS=1.17D-09 Max=1.76D-08 NDo=     1
 LinEq1:  Iter= 11 NonCon=     1 RMS=1.27D-10 Max=1.26D-09 NDo=     1
 LinEq1:  Iter= 12 NonCon=     0 RMS=1.31D-11 Max=1.13D-10 NDo=     1
 Linear equations converged to 1.000D-10 1.000D-09 after    12 iterations.
 End of Minotr F.D. properties file   721 does not exist.
 End of Minotr F.D. properties file   722 does not exist.
 End of Minotr F.D. properties file   788 does not exist.
 Symmetrizing basis deriv contribution to polar:
 IMax=3 JMax=2 DiffMx= 0.00D+00
 G2DrvN: will do     5 centers at a time, making    1 passes.
 Calling FoFCou, ICntrl=  3107 FMM=F I1Cent=   0 AccDes= 0.00D+00.
 End of G2Drv F.D. properties file   721 does not exist.
 End of G2Drv F.D. properties file   722 does not exist.
 End of G2Drv F.D. properties file   788 does not exist.
 R2 and R3 integrals will be kept in memory, NReq=    14964447.
 DD1Dir will call FoFMem   1 times, MxPair=      1806
 NAB=   903 NAA=     0 NBB=     0.
 Discarding MO integrals.

 **********************************************************************

            Population analysis using the SCF Density.

 **********************************************************************

 Orbital symmetries:
       Occupied  (A1) (A1) (E) (E) (A1) (E) (E) (A1) (A1) (E) (E)
                 (A1) (E) (E) (A1) (A2) (E) (E) (E) (E) (A1) (E)
                 (E) (A1) (E) (E) (E) (E) (A1) (A1) (E) (E) (A1)
                 (E) (E) (A1) (E) (E) (E) (E) (A2) (A1)
       Virtual   (E) (E) (A1) (E) (E) (A1) (E) (E) (A1) (A1) (E)
                 (E) (A1) (E) (E) (A1) (E) (E) (A2) (E) (E) (E)
                 (E) (A2) (A1) (E) (E) (A2) (E) (E) (A1) (E) (E)
                 (E) (E) (A1) (A1) (E) (E)
 The electronic state is 1-A1.
 Alpha  occ. eigenvalues -- -432.77411-104.85415-104.85415-104.85415 -56.48969
 Alpha  occ. eigenvalues --  -50.33569 -50.33569 -50.33488 -10.58181 -10.58181
 Alpha  occ. eigenvalues --  -10.58181  -8.18586  -8.04890  -8.04890  -8.04890
 Alpha  occ. eigenvalues --   -8.04575  -8.04575  -8.04575  -8.04566  -8.04566
 Alpha  occ. eigenvalues --   -8.04566  -6.03799  -6.03799  -6.03308  -2.26619
 Alpha  occ. eigenvalues --   -2.26619  -2.26018  -2.26018  -2.25732  -1.16210
 Alpha  occ. eigenvalues --   -1.10351  -1.10351  -0.80210  -0.57924  -0.57924
 Alpha  occ. eigenvalues --   -0.55041  -0.50302  -0.50302  -0.47032  -0.47032
 Alpha  occ. eigenvalues --   -0.46563  -0.41324
 Alpha virt. eigenvalues --    0.06342   0.06342   0.07076   0.45042   0.45042
 Alpha virt. eigenvalues --    0.45770   0.51128   0.51128   0.51738   0.55529
 Alpha virt. eigenvalues --    0.62327   0.62327   0.71498   0.72266   0.72266
 Alpha virt. eigenvalues --    0.74384   0.79835   0.79835   0.81242   0.89335
 Alpha virt. eigenvalues --    0.89335   0.93109   0.93109   0.95091   0.96111
 Alpha virt. eigenvalues --    0.96160   0.96160   0.99183   1.01113   1.01113
 Alpha virt. eigenvalues --    1.01565   1.05736   1.05736   1.16524   1.16524
 Alpha virt. eigenvalues --    1.19088   1.50538   1.50735   1.50735
          Condensed to atoms (all electrons):
               1          2          3          4
     1  As  31.551740   0.210616   0.210616   0.210616
     2  Cl   0.210616  17.117246  -0.027863  -0.027863
     3  Cl   0.210616  -0.027863  17.117246  -0.027863
     4  Cl   0.210616  -0.027863  -0.027863  17.117246
 Mulliken charges:
               1
     1  As   0.816410
     2  Cl  -0.272137
     3  Cl  -0.272137
     4  Cl  -0.272137
 Sum of Mulliken charges =  -0.00000
 Mulliken charges with hydrogens summed into heavy atoms:
               1
     1  As   0.816410
     2  Cl  -0.272137
     3  Cl  -0.272137
     4  Cl  -0.272137
 APT charges:
               1
     1  As   1.563885
     2  Cl  -0.521295
     3  Cl  -0.521295
     4  Cl  -0.521295
 Sum of APT charges =   0.00000
 APT charges with hydrogens summed into heavy atoms:
               1
     1  As   1.563885
     2  Cl  -0.521295
     3  Cl  -0.521295
     4  Cl  -0.521295
 Electronic spatial extent (au):  <R**2>=            876.1089
 Charge=             -0.0000 electrons
 Dipole moment (field-independent basis, Debye):
    X=             -0.0000    Y=              0.0000    Z=              2.0356  Tot=              2.0356
 Quadrupole moment (field-independent basis, Debye-Ang):
   XX=            -58.1257   YY=            -58.1257   ZZ=            -55.0186
   XY=             -0.0000   XZ=             -0.0000   YZ=             -0.0000
 Traceless Quadrupole moment (field-independent basis, Debye-Ang):
   XX=             -1.0357   YY=             -1.0357   ZZ=              2.0714
   XY=             -0.0000   XZ=             -0.0000   YZ=             -0.0000
 Octapole moment (field-independent basis, Debye-Ang**2):
  XXX=             -0.0000  YYY=             -1.3647  ZZZ=             14.9068  XYY=              0.0000
  XXY=              1.3647  XXZ=              5.0605  XZZ=              0.0000  YZZ=              0.0000
  YYZ=              5.0605  XYZ=             -0.0000
 Hexadecapole moment (field-independent basis, Debye-Ang**3):
 XXXX=           -483.3450 YYYY=           -483.3450 ZZZZ=           -143.9370 XXXY=              0.0000
 XXXZ=              0.0000 YYYX=              0.0000 YYYZ=             -4.7909 ZZZX=             -0.0000
 ZZZY=             -0.0000 XXYY=           -161.1150 XXZZ=           -101.5765 YYZZ=           -101.5765
 XXYZ=              4.7909 YYXZ=             -0.0000 ZZXY=              0.0000
 N-N= 5.459653491345D+02 E-N=-9.718937816039D+03  KE= 3.612113415089D+03
 Symmetry A'   KE= 2.789273784190D+03
 Symmetry A"   KE= 8.228396308990D+02
  Exact polarizability:      62.526      -0.000      62.526      -0.000      -0.000      39.534
 Approx polarizability:      56.602      -0.000      56.602       0.000      -0.000      41.243
 Calling FoFJK, ICntrl=  10100127 FMM=F ISym2X=1 I1Cent= 0 IOpClX= 0 NMat=1 NMatS=1 NMatT=0.
 Full mass-weighted force constant matrix:
 Low frequencies ---   -2.0020   -2.0020   -0.0081    0.0023    0.0125    0.9643
 Low frequencies ---  154.8677  154.8677  199.0279
 Diagonal vibrational polarizability:
       17.3420192      17.3420193       6.5188874
 Harmonic frequencies (cm**-1), IR intensities (KM/Mole), Raman scattering
 activities (A**4/AMU), depolarization ratios for plane and unpolarized
 incident light, reduced masses (AMU), force constants (mDyne/A),
 and normal coordinates:
                           1         2         3         4         5
                           E         E        A1         E         E
       Frequencies ---   154.8677  154.8677  199.0279  406.6193  406.6193
    Reduced masses ---    37.1042   37.1042   41.7281   43.3214   43.3214
   Force constants ---     0.5243    0.5243    0.9739    4.2202    4.2202
    IR Intensities ---     1.0330    1.0330    4.1107   99.4260   99.4260
 Coord Atom Element:
   1     1    33          0.00565  -0.23112  -0.00000  -0.06999   0.45184
   2     1    33         -0.23112  -0.00565   0.00000   0.45184   0.06999
   3     1    33         -0.00000  -0.00000   0.41131  -0.00000  -0.00000
   1     2    17         -0.01679   0.68681   0.00000   0.00282  -0.01822
   2     2    17         -0.35669  -0.00872  -0.43664  -0.62716  -0.09715
   3     2    17         -0.17812  -0.00435  -0.29375   0.34824   0.05394
   1     3    17         -0.44951  -0.10686   0.37814  -0.19011  -0.51578
   2     3    17          0.43698  -0.44144   0.21832  -0.12961  -0.29008
   3     3    17          0.08529   0.15643  -0.29375  -0.12740  -0.32855
   1     4    17          0.45419  -0.08477  -0.37814   0.33725  -0.43408
   2     4    17          0.41489   0.46226   0.21832  -0.21131   0.23727
   3     4    17          0.09283  -0.15208  -0.29375  -0.22084   0.27461
                           6
                          A1
       Frequencies ---   426.5822
    Reduced masses ---    41.0966
   Force constants ---     4.4062
    IR Intensities ---    25.1966
 Coord Atom Element:
   1     1    33          0.00000
   2     1    33          0.00000
   3     1    33          0.39163
   1     2    17         -0.00000
   2     2    17          0.45164
   3     2    17         -0.27969
   1     3    17         -0.39113
   2     3    17         -0.22582
   3     3    17         -0.27969
   1     4    17          0.39113
   2     4    17         -0.22582
   3     4    17         -0.27969
 Harmonic frequencies (cm**-1), IR intensities (KM/Mole), Raman scattering
 activities (A**4/AMU), depolarization ratios for plane and unpolarized
 incident light, reduced masses (AMU), force constants (mDyne/A),
 and normal coordinates:
                      1                      2                      3
                      E                      E                     A1
 Frequencies --    154.8677               154.8677               199.0279
 Red. masses --     37.1042                37.1042                41.7281
 Frc consts  --      0.5243                 0.5243                 0.9739
 IR Inten    --      1.0330                 1.0330                 4.1107
  Atom  AN      X      Y      Z        X      Y      Z        X      Y      Z
     1  33     0.01  -0.23  -0.00    -0.23  -0.01  -0.00    -0.00   0.00   0.41
     2  17    -0.02  -0.36  -0.18     0.69  -0.01  -0.00     0.00  -0.44  -0.29
     3  17    -0.45   0.44   0.09    -0.11  -0.44   0.16     0.38   0.22  -0.29
     4  17     0.45   0.41   0.09    -0.08   0.46  -0.15    -0.38   0.22  -0.29
                      4                      5                      6
                      E                      E                     A1
 Frequencies --    406.6193               406.6193               426.5822
 Red. masses --     43.3214                43.3214                41.0966
 Frc consts  --      4.2202                 4.2202                 4.4062
 IR Inten    --     99.4260                99.4260                25.1966
  Atom  AN      X      Y      Z        X      Y      Z        X      Y      Z
     1  33    -0.07   0.45  -0.00     0.45   0.07  -0.00     0.00   0.00   0.39
     2  17     0.00  -0.63   0.35    -0.02  -0.10   0.05    -0.00   0.45  -0.28
     3  17    -0.19  -0.13  -0.13    -0.52  -0.29  -0.33    -0.39  -0.23  -0.28
     4  17     0.34  -0.21  -0.22    -0.43   0.24   0.27     0.39  -0.23  -0.28

 -------------------
 - Thermochemistry -
 -------------------
 Temperature   298.150 Kelvin.  Pressure   1.00000 Atm.
 Atom     1 has atomic number 33 and mass  74.92160
 Atom     2 has atomic number 17 and mass  34.96885
 Atom     3 has atomic number 17 and mass  34.96885
 Atom     4 has atomic number 17 and mass  34.96885
 Molecular mass:   179.82815 amu.
 Principal axes and moments of inertia in atomic units:
                           1         2         3
     Eigenvalues --   858.71895 858.718951382.13635
           X            0.70711   0.70711   0.00000
           Y           -0.70711   0.70711   0.00000
           Z            0.00000  -0.00000   1.00000
 This molecule is an oblate symmetric top.
 Rotational symmetry number  3.
 Warning -- assumption of classical behavior for rotation
           may cause significant error
 Rotational temperatures (Kelvin)      0.10086     0.10086     0.06267
 Rotational constants (GHZ):           2.10167     2.10167     1.30576
 Zero-point vibrational energy      10458.9 (Joules/Mol)
                                    2.49973 (Kcal/Mol)
 Warning -- explicit consideration of   6 degrees of freedom as
           vibrations may cause significant error
 Vibrational temperatures:    222.82   222.82   286.36   585.03   585.03
          (Kelvin)            613.76
 
 Zero-point correction=                           0.003984 (Hartree/Particle)
 Thermal correction to Energy=                    0.009539
 Thermal correction to Enthalpy=                  0.010483
 Thermal correction to Gibbs Free Energy=        -0.026487
 Sum of electronic and zero-point Energies=          -3613.273819
 Sum of electronic and thermal Energies=             -3613.268264
 Sum of electronic and thermal Enthalpies=           -3613.267320
 Sum of electronic and thermal Free Energies=        -3613.304289
 
                     E (Thermal)             CV                S
                      KCal/Mol        Cal/Mol-Kelvin    Cal/Mol-Kelvin
 Total                    5.986             15.921             77.809
 Electronic               0.000              0.000              0.000
 Translational            0.889              2.981             41.467
 Rotational               0.889              2.981             26.229
 Vibrational              4.208              9.960             10.112
 Vibration     1          0.620              1.897              2.612
 Vibration     2          0.620              1.897              2.612
 Vibration     3          0.637              1.841              2.142
 Vibration     4          0.771              1.456              0.939
 Vibration     5          0.771              1.456              0.939
 Vibration     6          0.788              1.412              0.870
                       Q            Log10(Q)             Ln(Q)
 Total Bot       0.152428D+13         12.183065         28.052544
 Total V=0       0.103604D+15         14.015377         32.271599
 Vib (Bot)       0.133498D+00         -0.874526         -2.013670
 Vib (Bot)    1  0.130744D+01          0.116420          0.268068
 Vib (Bot)    2  0.130744D+01          0.116420          0.268068
 Vib (Bot)    3  0.100222D+01          0.000962          0.002214
 Vib (Bot)    4  0.436203D+00         -0.360312         -0.829649
 Vib (Bot)    5  0.436203D+00         -0.360312         -0.829649
 Vib (Bot)    6  0.409539D+00         -0.387705         -0.892723
 Vib (V=0)       0.907374D+01          0.957786          2.205384
 Vib (V=0)    1  0.189978D+01          0.278704          0.641739
 Vib (V=0)    2  0.189978D+01          0.278704          0.641739
 Vib (V=0)    3  0.162002D+01          0.209520          0.482437
 Vib (V=0)    4  0.116353D+01          0.065778          0.151459
 Vib (V=0)    5  0.116353D+01          0.065778          0.151459
 Vib (V=0)    6  0.114631D+01          0.059304          0.136552
 Electronic      0.100000D+01          0.000000          0.000000
 Translational   0.947852D+08          7.976740         18.367124
 Rotational      0.120462D+06          5.080851         11.699091
 ***** Axes restored to original set *****
 -------------------------------------------------------------------
 Center     Atomic                   Forces (Hartrees/Bohr)
 Number     Number              X              Y              Z
 -------------------------------------------------------------------
      1       33          -0.000000000   -0.000000000    0.000078883
      2       17          -0.000000000   -0.000004451   -0.000026294
      3       17           0.000003855    0.000002226   -0.000026294
      4       17          -0.000003855    0.000002226   -0.000026294
 -------------------------------------------------------------------
 Cartesian Forces:  Max     0.000078883 RMS     0.000026388
 FormGI is forming the generalized inverse of G from B-inverse, IUseBI=4.

 GradGradGradGradGradGradGradGradGradGradGradGradGradGradGradGradGradGrad
 Berny optimization.
 Internal  Forces:  Max     0.000071087 RMS     0.000044670
 Search for a local minimum.
 Step number   1 out of a maximum of    2
 All quantities printed in internal units (Hartrees-Bohrs-Radians)
 Second derivative matrix not updated -- analytic derivatives used.
 The second derivative matrix:
                          R1        R2        R3        A1        A2
           R1           0.15488
           R2           0.01294   0.15488
           R3           0.01294   0.01294   0.15488
           A1           0.00375   0.00375  -0.00275   0.05829
           A2           0.00776  -0.00311   0.00860  -0.01891   0.22322
           A3          -0.00311   0.00776   0.00860  -0.01891   0.02098
           D1          -0.00480  -0.00480  -0.00058  -0.05266  -0.02914
                          A3        D1
           A3           0.22322
           D1          -0.02914   0.06600
 ITU=  0
     Eigenvalues ---    0.11208   0.14005   0.14299   0.17949   0.20414
     Eigenvalues ---    0.25664
 Angle between quadratic step and forces=  21.12 degrees.
 Linear search not attempted -- first point.
 Iteration  1 RMS(Cart)=  0.00035062 RMS(Int)=  0.00000007
 Iteration  2 RMS(Cart)=  0.00000007 RMS(Int)=  0.00000003
 ClnCor:  largest displacement from symmetrization is 3.35D-08 for atom     4.
 Variable       Old X    -DE/DX   Delta X   Delta X   Delta X     New X
                                 (Linear)    (Quad)   (Total)
    R1        4.12440   0.00001   0.00000   0.00007   0.00007   4.12447
    R2        4.12440   0.00001   0.00000   0.00007   0.00007   4.12447
    R3        4.12440   0.00001   0.00000   0.00007   0.00007   4.12447
    A1        1.73327  -0.00003   0.00000  -0.00027  -0.00027   1.73300
    A2        1.73327  -0.00007   0.00000  -0.00027  -0.00027   1.73300
    A3        1.73327  -0.00007   0.00000  -0.00027  -0.00027   1.73300
    D1       -1.76499   0.00005   0.00000   0.00039   0.00039  -1.76461
         Item               Value     Threshold  Converged?
 Maximum Force            0.000071     0.000450     YES
 RMS     Force            0.000045     0.000300     YES
 Maximum Displacement     0.000603     0.001800     YES
 RMS     Displacement     0.000351     0.001200     YES
 Predicted change in Energy=-3.406957D-08
 Optimization completed.
    -- Stationary point found.
                           ----------------------------
                           !   Optimized Parameters   !
                           ! (Angstroms and Degrees)  !
 --------------------------                            --------------------------
 ! Name  Definition              Value          Derivative Info.                !
 --------------------------------------------------------------------------------
 ! R1    R(1,2)                  2.1825         -DE/DX =    0.0                 !
 ! R2    R(1,3)                  2.1825         -DE/DX =    0.0                 !
 ! R3    R(1,4)                  2.1825         -DE/DX =    0.0                 !
 ! A1    A(2,1,3)               99.3092         -DE/DX =    0.0                 !
 ! A2    A(2,1,4)               99.3092         -DE/DX =   -0.0001              !
 ! A3    A(3,1,4)               99.3092         -DE/DX =   -0.0001              !
 ! D1    D(2,1,4,3)           -101.1267         -DE/DX =    0.0001              !
 --------------------------------------------------------------------------------
 GradGradGradGradGradGradGradGradGradGradGradGradGradGradGradGradGradGrad


 ----------------------------------------------------------------------

 Electric dipole moment (input orientation):
 (Debye = 10**-18 statcoulomb cm , SI units = C m)
                  (au)            (Debye)         (10**-30 SI)
   Tot        0.685431D+00      0.174219D+01      0.581133D+01
   x          0.000000D+00      0.000000D+00      0.000000D+00
   y          0.000000D+00      0.000000D+00      0.000000D+00
   z          0.685431D+00      0.174219D+01      0.581133D+01

 Dipole polarizability, Alpha (input orientation).
 (esu units = cm**3 , SI units = C**2 m**2 J**-1)
 Alpha(0;0):
               (au)            (10**-24 esu)      (10**-40 SI)
   iso        0.548620D+02      0.812971D+01      0.904552D+01
   aniso      0.229919D+02      0.340705D+01      0.379085D+01
   xx         0.625260D+02      0.926539D+01      0.103091D+02
   yx         0.000000D+00      0.000000D+00      0.000000D+00
   yy         0.625260D+02      0.926539D+01      0.103091D+02
   zx         0.000000D+00      0.000000D+00      0.000000D+00
   zy         0.000000D+00      0.000000D+00      0.000000D+00
   zz         0.395341D+02      0.585835D+01      0.651829D+01

 ----------------------------------------------------------------------

 Dipole orientation:
    33         -0.00000000          0.00000038          1.18344008
    17          0.00000038          3.62972875         -0.77507442
    17         -3.14343717         -1.81486347         -0.77507442
    17          3.14343678         -1.81486413         -0.77507442

 Electric dipole moment (dipole orientation):
 (Debye = 10**-18 statcoulomb cm , SI units = C m)
                  (au)            (Debye)         (10**-30 SI)
   Tot        0.685431D+00      0.174219D+01      0.581133D+01
   x          0.000000D+00      0.000000D+00      0.000000D+00
   y          0.000000D+00      0.000000D+00      0.000000D+00
   z          0.685431D+00      0.174219D+01      0.581133D+01

 Dipole polarizability, Alpha (dipole orientation).
 (esu units = cm**3 , SI units = C**2 m**2 J**-1)
 Alpha(0;0):
               (au)            (10**-24 esu)      (10**-40 SI)
   iso        0.548620D+02      0.812971D+01      0.904552D+01
   aniso      0.229919D+02      0.340705D+01      0.379085D+01
   xx         0.625260D+02      0.926539D+01      0.103091D+02
   yx         0.000000D+00      0.000000D+00      0.000000D+00
   yy         0.625260D+02      0.926539D+01      0.103091D+02
   zx         0.000000D+00      0.000000D+00      0.000000D+00
   zy         0.000000D+00      0.000000D+00      0.000000D+00
   zz         0.395341D+02      0.585835D+01      0.651829D+01

 ----------------------------------------------------------------------
 Unable to Open any file for archive entry.
 1\1\GINC-BS001\Freq\RMP2-FC\CC-pVDZ\As1Cl3\PNATT\10-Aug-2026\0\\#N Geo
 m=AllCheck Guess=TCheck SCRF=Check GenChk RMP2(FC)/CC-pVDZ Freq\\Title
  Card Required\\0,1\As,0.,0.0000002024,0.6262495207\Cl,0.0000002035,1.
 9207697367,-0.4101517211\Cl,-1.6634353133,-0.9603843885,-0.4101517211\
 Cl,1.6634351098,-0.960384741,-0.4101517211\\Version=ES64L-G16RevC.01\S
 tate=1-A1\HF=-3612.7564221\MP2=-3613.2778023\RMSD=7.221e-10\RMSF=2.639
 e-05\ZeroPoint=0.0039836\Thermal=0.0095385\ETot=-3613.2682638\HTot=-36
 13.2673196\GTot=-3613.3042891\Dipole=0.,0.,0.6854309\DipoleDeriv=1.823
 0245,0.,0.,0.,1.8230245,0.,0.,0.,1.0456065,-0.1824494,0.,0.,0.,-1.0329
 003,0.2425804,0.,0.5298815,-0.3485355,-0.8202877,-0.368256,-0.2100808,
 -0.368256,-0.395062,-0.1212902,-0.4588909,-0.2649407,-0.3485355,-0.820
 2875,0.3682561,0.2100808,0.3682561,-0.3950622,-0.1212902,0.4588908,-0.
 2649408,-0.3485355\Polar=62.5259752,0.,62.5259752,0.,0.,39.5340791\PG=
 C03V [C3(As1),3SGV(Cl1)]\NImag=0\\0.17681727,0.,0.17681727,0.,0.,0.178
 38079,-0.01336487,0.,0.,0.01417711,0.,-0.10451331,0.06074827,0.0000000
 1,0.12511395,0.,0.06361873,-0.05946026,0.,-0.05784951,0.04270567,-0.08
 172621,-0.03946843,-0.05260955,-0.00040612,-0.00871834,0.00333904,0.09
 737975,-0.03946843,-0.03615197,-0.03037413,-0.00841892,-0.01030032,-0.
 00288461,0.04803706,0.04191131,-0.05509544,-0.03180936,-0.05946026,0.0
 0416767,-0.00144938,0.00837730,0.05009915,0.02892475,0.04270567,-0.081
 72619,0.03946844,0.05260955,-0.00040612,0.00871834,-0.00333904,-0.0152
 4742,-0.00014971,0.00082863,0.09737973,0.03946844,-0.03615199,-0.03037
 414,0.00841892,-0.01030032,-0.00288461,0.00014971,0.00454098,0.0043340
 0,-0.04803707,0.04191133,0.05509544,-0.03180937,-0.05946026,-0.0041676
 7,-0.00144938,0.00837730,-0.00082863,0.00433400,0.00837730,-0.05009914
 ,0.02892476,0.04270567\\0.,0.,-0.00007888,0.,0.00000445,0.00002629,-0.
 00000385,-0.00000223,0.00002629,0.00000385,-0.00000223,0.00002629\\\@
 The archive entry for this job was punched.


 A CHEMICAL PHYSICIST MAKES PRECISE MEASUREMENTS ON IMPURE COMPOUNDS.
 A THEORETICAL PHYSICAL CHEMIST MAKES IMPRECISE
     MEASUREMENTS ON PURE COMPOUNDS.
 AN EXPERIMENTAL PHYSICAL CHEMIST MAKES IMPRECISE
     MEASUREMENTS ON IMPURE COMPOUNDS.
 Job cpu time:       0 days  0 hours  1 minutes 32.4 seconds.
 Elapsed time:       0 days  0 hours  1 minutes 32.2 seconds.
 File lengths (MBytes):  RWF=    647 Int=      0 D2E=      0 Chk=      2 Scr=      1
 Normal termination of Gaussian 16 at Mon Aug 10 15:54:09 2026.
