 Entering Gaussian System, Link 0=g16
 Input=AsH3.gjf
 Output=AsH3.log
 Initial command:
 /opt/g16/g16/l1.exe "/home/pnatt/scratch/Gau-1449264.inp" -scrdir="/home/pnatt/scratch/"
 Entering Link 1 = /opt/g16/g16/l1.exe PID=   1449267.
  
 Copyright (c) 1988-2019, Gaussian, Inc.  All Rights Reserved.
  
 This is part of the Gaussian(R) 16 program.  It is based on
 the Gaussian(R) 09 system (copyright 2009, Gaussian, Inc.),
 the Gaussian(R) 03 system (copyright 2003, Gaussian, Inc.),
 the Gaussian(R) 98 system (copyright 1998, Gaussian, Inc.),
 the Gaussian(R) 94 system (copyright 1995, Gaussian, Inc.),
 the Gaussian 92(TM) system (copyright 1992, Gaussian, Inc.),
 the Gaussian 90(TM) system (copyright 1990, Gaussian, Inc.),
 the Gaussian 88(TM) system (copyright 1988, Gaussian, Inc.),
 the Gaussian 86(TM) system (copyright 1986, Carnegie Mellon
 University), and the Gaussian 82(TM) system (copyright 1983,
 Carnegie Mellon University). Gaussian is a federally registered
 trademark of Gaussian, Inc.
  
 This software contains proprietary and confidential information,
 including trade secrets, belonging to Gaussian, Inc.
  
 This software is provided under written license and may be
 used, copied, transmitted, or stored only in accord with that
 written license.
  
 The following legend is applicable only to US Government
 contracts under FAR:
  
                    RESTRICTED RIGHTS LEGEND
  
 Use, reproduction and disclosure by the US Government is
 subject to restrictions as set forth in subparagraphs (a)
 and (c) of the Commercial Computer Software - Restricted
 Rights clause in FAR 52.227-19.
  
 Gaussian, Inc.
 340 Quinnipiac St., Bldg. 40, Wallingford CT 06492
  
  
 ---------------------------------------------------------------
 Warning -- This program may not be used in any manner that
 competes with the business of Gaussian, Inc. or will provide
 assistance to any competitor of Gaussian, Inc.  The licensee
 of this program is prohibited from giving any competitor of
 Gaussian, Inc. access to this program.  By using this program,
 the user acknowledges that Gaussian, Inc. is engaged in the
 business of creating and licensing software in the field of
 computational chemistry and represents and warrants to the
 licensee that it is not a competitor of Gaussian, Inc. and that
 it will not use this program in any manner prohibited above.
 ---------------------------------------------------------------
  

 Cite this work as:
 Gaussian 16, Revision C.01,
 M. J. Frisch, G. W. Trucks, H. B. Schlegel, G. E. Scuseria, 
 M. A. Robb, J. R. Cheeseman, G. Scalmani, V. Barone, 
 G. A. Petersson, H. Nakatsuji, X. Li, M. Caricato, A. V. Marenich, 
 J. Bloino, B. G. Janesko, R. Gomperts, B. Mennucci, H. P. Hratchian, 
 J. V. Ortiz, A. F. Izmaylov, J. L. Sonnenberg, D. Williams-Young, 
 F. Ding, F. Lipparini, F. Egidi, J. Goings, B. Peng, A. Petrone, 
 T. Henderson, D. Ranasinghe, V. G. Zakrzewski, J. Gao, N. Rega, 
 G. Zheng, W. Liang, M. Hada, M. Ehara, K. Toyota, R. Fukuda, 
 J. Hasegawa, M. Ishida, T. Nakajima, Y. Honda, O. Kitao, H. Nakai, 
 T. Vreven, K. Throssell, J. A. Montgomery, Jr., J. E. Peralta, 
 F. Ogliaro, M. J. Bearpark, J. J. Heyd, E. N. Brothers, K. N. Kudin, 
 V. N. Staroverov, T. A. Keith, R. Kobayashi, J. Normand, 
 K. Raghavachari, A. P. Rendell, J. C. Burant, S. S. Iyengar, 
 J. Tomasi, M. Cossi, J. M. Millam, M. Klene, C. Adamo, R. Cammi, 
 J. W. Ochterski, R. L. Martin, K. Morokuma, O. Farkas, 
 J. B. Foresman, and D. J. Fox, Gaussian, Inc., Wallingford CT, 2019.
 
 ******************************************
 Gaussian 16:  ES64L-G16RevC.01  3-Jul-2019
                10-Aug-2026 
 ******************************************
 %chk=AsH3.chk
 ----------------------------------------------
 # opt freq=hpmodes mp2/3-21g geom=connectivity
 ----------------------------------------------
 1/18=20,19=15,38=1,57=2/1,3;
 2/9=110,12=2,17=6,18=5,40=1/2;
 3/5=5,11=9,25=1,30=1,71=1/1,2,3;
 4//1;
 5/5=2,38=5/2;
 8/6=4,10=1/1;
 9/15=2,16=-3/6;
 10/5=1/2;
 6/7=2,8=2,9=2,10=2/1;
 7/12=2/1,2,3,16;
 1/18=20,19=15/3(2);
 2/9=110/2;
 99//99;
 2/9=110/2;
 3/5=5,11=9,25=1,30=1,71=1/1,2,3;
 4/5=5,16=3,69=1/1;
 5/5=2,38=5/2;
 8/6=4,10=1/1;
 9/15=2,16=-3/6;
 10/5=1/2;
 7/12=2/1,2,3,16;
 1/18=20,19=15/3(-8);
 2/9=110/2;
 6/7=2,8=2,9=2,10=2/1;
 99/9=10/99;
 -------------------
 Title Card Required
 -------------------
 Symbolic Z-matrix:
 Charge =  0 Multiplicity = 1
 As                    0.        0.        0.04194 
 H                     0.        1.42364  -0.46139 
 H                    -1.23291  -0.71182  -0.46139 
 H                     1.23291  -0.71182  -0.46139 
 

 GradGradGradGradGradGradGradGradGradGradGradGradGradGradGradGradGradGrad
 Berny optimization.
 Initialization pass.
                           ----------------------------
                           !    Initial Parameters    !
                           ! (Angstroms and Degrees)  !
 --------------------------                            --------------------------
 ! Name  Definition              Value          Derivative Info.                !
 --------------------------------------------------------------------------------
 ! R1    R(1,2)                  1.51           estimate D2E/DX2                !
 ! R2    R(1,3)                  1.51           estimate D2E/DX2                !
 ! R3    R(1,4)                  1.51           estimate D2E/DX2                !
 ! A1    A(2,1,3)              109.4712         estimate D2E/DX2                !
 ! A2    A(2,1,4)              109.4712         estimate D2E/DX2                !
 ! A3    A(3,1,4)              109.4712         estimate D2E/DX2                !
 ! D1    D(2,1,4,3)           -120.0            estimate D2E/DX2                !
 --------------------------------------------------------------------------------
 Trust Radius=3.00D-01 FncErr=1.00D-07 GrdErr=1.00D-07 EigMax=2.50D+02 EigMin=1.00D-04
 Number of steps in this run=     20 maximum allowed number of steps=    100.
 GradGradGradGradGradGradGradGradGradGradGradGradGradGradGradGradGradGrad

                          Input orientation:                          
 ---------------------------------------------------------------------
 Center     Atomic      Atomic             Coordinates (Angstroms)
 Number     Number       Type             X           Y           Z
 ---------------------------------------------------------------------
      1         33           0        0.000000    0.000000    0.041944
      2          1           0        0.000000    1.423642   -0.461389
      3          1           0       -1.232910   -0.711821   -0.461389
      4          1           0        1.232910   -0.711821   -0.461389
 ---------------------------------------------------------------------
                    Distance matrix (angstroms):
                    1          2          3          4
     1  As   0.000000
     2  H    1.510000   0.000000
     3  H    1.510000   2.465820   0.000000
     4  H    1.510000   2.465820   2.465820   0.000000
 Stoichiometry    AsH3
 Framework group  C3V[C3(As),3SGV(H)]
 Deg. of freedom     2
 Full point group                 C3V     NOp   6
 Largest Abelian subgroup         CS      NOp   2
 Largest concise Abelian subgroup CS      NOp   2
                         Standard orientation:                         
 ---------------------------------------------------------------------
 Center     Atomic      Atomic             Coordinates (Angstroms)
 Number     Number       Type             X           Y           Z
 ---------------------------------------------------------------------
      1         33           0        0.000000    0.000000    0.041944
      2          1           0        0.000000    1.423642   -0.461389
      3          1           0       -1.232910   -0.711821   -0.461389
      4          1           0        1.232910   -0.711821   -0.461389
 ---------------------------------------------------------------------
 Rotational constants (GHZ):         132.9877962         132.9877962          82.4725516
 Standard basis: 3-21G (6D, 7F)
 There are    21 symmetry adapted cartesian basis functions of A'  symmetry.
 There are     8 symmetry adapted cartesian basis functions of A"  symmetry.
 There are    21 symmetry adapted basis functions of A'  symmetry.
 There are     8 symmetry adapted basis functions of A"  symmetry.
    29 basis functions,    66 primitive gaussians,    29 cartesian basis functions
    18 alpha electrons       18 beta electrons
       nuclear repulsion energy        35.3382149010 Hartrees.
 NAtoms=    4 NActive=    4 NUniq=    2 SFac= 4.00D+00 NAtFMM=   60 NAOKFM=F Big=F
 Integral buffers will be    131072 words long.
 Raffenetti 1 integral format.
 Two-electron integral symmetry is turned on.
 One-electron integrals computed using PRISM.
 NBasis=    29 RedAO= T EigKep=  8.66D-03  NBF=    21     8
 NBsUse=    29 1.00D-06 EigRej= -1.00D+00 NBFU=    21     8
 ExpMin= 1.14D-01 ExpMax= 5.41D+03 ExpMxC= 5.41D+03 IAcc=3 IRadAn=         5 AccDes= 0.00D+00
 Harris functional with IExCor=  205 and IRadAn=       5 diagonalized for initial guess.
 HarFok:  IExCor=  205 AccDes= 0.00D+00 IRadAn=         5 IDoV= 1 UseB2=F ITyADJ=14
 ICtDFT=  3500011 ScaDFX=  1.000000  1.000000  1.000000  1.000000
 FoFCou: FMM=F IPFlag=           0 FMFlag=      100000 FMFlg1=           0
         NFxFlg=           0 DoJE=T BraDBF=F KetDBF=T FulRan=T
         wScrn=  0.000000 ICntrl=       500 IOpCl=  0 I1Cent=   200000004 NGrid=           0
         NMat0=    1 NMatS0=      1 NMatT0=    0 NMatD0=    1 NMtDS0=    0 NMtDT0=    0
 Petite list used in FoFCou.
 Initial guess orbital symmetries:
       Occupied  (A1) (A1) (E) (E) (A1) (A1) (E) (E) (A1) (E) (E)
                 (A1) (E) (E) (A1) (E) (E) (A1)
       Virtual   (A1) (E) (E) (E) (E) (A1) (A1) (A1) (E) (E) (A1)
 The electronic state of the initial guess is 1-A1.
 Keep R1 ints in memory in symmetry-blocked form, NReq=923450.
 Requested convergence on RMS density matrix=1.00D-08 within 128 cycles.
 Requested convergence on MAX density matrix=1.00D-06.
 Requested convergence on             energy=1.00D-06.
 No special actions if energy rises.
 SCF Done:  E(RHF) =  -2225.12560421     A.U. after    9 cycles
            NFock=  9  Conv=0.54D-08     -V/T= 1.9925
 ExpMin= 1.14D-01 ExpMax= 5.41D+03 ExpMxC= 5.41D+03 IAcc=3 IRadAn=         5 AccDes= 0.00D+00
 HarFok:  IExCor=  205 AccDes= 0.00D+00 IRadAn=         5 IDoV=-2 UseB2=F ITyADJ=14
 ICtDFT= 12500011 ScaDFX=  1.000000  1.000000  1.000000  1.000000
 Range of M.O.s used for correlation:    10    29
 NBasis=    29 NAE=    18 NBE=    18 NFC=     9 NFV=     0
 NROrb=     20 NOA=     9 NOB=     9 NVA=    11 NVB=    11
 Fully direct method using O(ONN) memory.
 JobTyp=1 Pass  1:  I=  10 to  18 NPSUse=  1 ParTrn=F ParDer=F DoDerP=T.
 Spin components of T(2) and E(2):
     alpha-alpha T2 =       0.1518979089D-02 E2=     -0.3111775350D-02
     alpha-beta  T2 =       0.2812259376D-01 E2=     -0.5567145388D-01
     beta-beta   T2 =       0.1518979089D-02 E2=     -0.3111775350D-02
 ANorm=    0.1015460758D+01
 E2 =    -0.6189500458D-01 EUMP2 =    -0.22251874992097D+04
          IDoAtm=1111
          Differentiating once with respect to electric field.
                with respect to dipole field.
          Differentiating once with respect to nuclear coordinates.
 Keep R1 ints in memory in symmetry-blocked form, NReq=924172.
          There are     1 degrees of freedom in the 1st order CPHF.  IDoFFX=0 NUNeed=     1.
 LinEq1:  Iter=  0 NonCon=     1 RMS=2.77D-03 Max=2.03D-02 NDo=     1
 AX will form     1 AO Fock derivatives at one time.
 LinEq1:  Iter=  1 NonCon=     1 RMS=3.13D-04 Max=2.80D-03 NDo=     1
 LinEq1:  Iter=  2 NonCon=     1 RMS=4.79D-05 Max=3.84D-04 NDo=     1
 LinEq1:  Iter=  3 NonCon=     1 RMS=8.75D-06 Max=4.79D-05 NDo=     1
 LinEq1:  Iter=  4 NonCon=     1 RMS=1.09D-06 Max=7.88D-06 NDo=     1
 LinEq1:  Iter=  5 NonCon=     1 RMS=7.70D-08 Max=6.04D-07 NDo=     1
 LinEq1:  Iter=  6 NonCon=     1 RMS=4.98D-09 Max=2.99D-08 NDo=     1
 LinEq1:  Iter=  7 NonCon=     1 RMS=5.30D-10 Max=3.46D-09 NDo=     1
 LinEq1:  Iter=  8 NonCon=     0 RMS=2.65D-11 Max=1.77D-10 NDo=     1
 Linear equations converged to 1.000D-10 1.000D-09 after     8 iterations.
 End of Minotr F.D. properties file   721 does not exist.
 End of Minotr F.D. properties file   722 does not exist.
 End of Minotr F.D. properties file   788 does not exist.

 **********************************************************************

            Population analysis using the SCF Density.

 **********************************************************************

 Orbital symmetries:
       Occupied  (A1) (A1) (E) (E) (A1) (A1) (E) (E) (A1) (E) (E)
                 (E) (E) (A1) (A1) (E) (E) (A1)
       Virtual   (E) (E) (A1) (E) (E) (A1) (A1) (A1) (E) (E) (A1)
 The electronic state is 1-A1.
 Alpha  occ. eigenvalues -- -429.46905 -55.97267 -49.71340 -49.71340 -49.71262
 Alpha  occ. eigenvalues --   -7.96990  -5.79737  -5.79737  -5.78989  -2.02559
 Alpha  occ. eigenvalues --   -2.02559  -2.01755  -2.01755  -2.01489  -0.83075
 Alpha  occ. eigenvalues --   -0.52475  -0.52475  -0.32321
 Alpha virt. eigenvalues --    0.18655   0.18655   0.18842   0.55429   0.55429
 Alpha virt. eigenvalues --    0.56358   0.61715   1.18869   1.27672   1.27672
 Alpha virt. eigenvalues --   12.54547
          Condensed to atoms (all electrons):
               1          2          3          4
     1  As  31.824956   0.312947   0.312947   0.312947
     2  H    0.312947   0.798680  -0.016447  -0.016447
     3  H    0.312947  -0.016447   0.798680  -0.016447
     4  H    0.312947  -0.016447  -0.016447   0.798680
 Mulliken charges:
               1
     1  As   0.236203
     2  H   -0.078734
     3  H   -0.078734
     4  H   -0.078734
 Sum of Mulliken charges =  -0.00000
 Mulliken charges with hydrogens summed into heavy atoms:
               1
     1  As  -0.000000
 Electronic spatial extent (au):  <R**2>=             71.2332
 Charge=             -0.0000 electrons
 Dipole moment (field-independent basis, Debye):
    X=             -0.0000    Y=              0.0000    Z=             -1.3853  Tot=              1.3853
 Quadrupole moment (field-independent basis, Debye-Ang):
   XX=            -19.8407   YY=            -19.8407   ZZ=            -23.5786
   XY=              0.0000   XZ=              0.0000   YZ=             -0.0000
 Traceless Quadrupole moment (field-independent basis, Debye-Ang):
   XX=              1.2460   YY=              1.2460   ZZ=             -2.4919
   XY=              0.0000   XZ=              0.0000   YZ=             -0.0000
 Octapole moment (field-independent basis, Debye-Ang**2):
  XXX=             -0.0000  YYY=             -0.6516  ZZZ=             -0.7212  XYY=             -0.0000
  XXY=              0.6516  XXZ=              0.6037  XZZ=              0.0000  YZZ=              0.0000
  YYZ=              0.6037  XYZ=             -0.0000
 Hexadecapole moment (field-independent basis, Debye-Ang**3):
 XXXX=            -42.1463 YYYY=            -42.1463 ZZZZ=            -39.7442 XXXY=              0.0000
 XXXZ=              0.0000 YYYX=              0.0000 YYYZ=              0.1583 ZZZX=             -0.0000
 ZZZY=             -0.0000 XXYY=            -14.0488 XXZZ=            -13.8274 YYZZ=            -13.8274
 XXYZ=             -0.1583 YYXZ=             -0.0000 ZZXY=              0.0000
 N-N= 3.533821490102D+01 E-N=-5.418458067172D+03  KE= 2.242011023069D+03
 Symmetry A'   KE= 1.917871782807D+03
 Symmetry A"   KE= 3.241392402619D+02
 Calling FoFJK, ICntrl=  10002127 FMM=F ISym2X=1 I1Cent= 0 IOpClX= 0 NMat=1 NMatS=1 NMatT=0.
 ***** Axes restored to original set *****
 -------------------------------------------------------------------
 Center     Atomic                   Forces (Hartrees/Bohr)
 Number     Number              X              Y              Z
 -------------------------------------------------------------------
      1       33          -0.000000000   -0.000000000    0.052360386
      2        1           0.000000000   -0.005417846   -0.017453462
      3        1           0.004691992    0.002708923   -0.017453462
      4        1          -0.004691992    0.002708923   -0.017453462
 -------------------------------------------------------------------
 Cartesian Forces:  Max     0.052360386 RMS     0.017662435

 GradGradGradGradGradGradGradGradGradGradGradGradGradGradGradGradGradGrad
 Berny optimization.
 FormGI is forming the generalized inverse of G from B-inverse, IUseBI=4.
 Internal  Forces:  Max     0.039273365 RMS     0.021160968
 Search for a local minimum.
 Step number   1 out of a maximum of   20
 All quantities printed in internal units (Hartrees-Bohrs-Radians)
 Mixed Optimization -- RFO/linear search
 Second derivative matrix not updated -- first step.
 The second derivative matrix:
                          R1        R2        R3        A1        A2
           R1           0.17671
           R2           0.00000   0.17671
           R3           0.00000   0.00000   0.17671
           A1           0.00000   0.00000   0.00000   0.16000
           A2           0.00000   0.00000   0.00000   0.00000   0.16000
           A3           0.00000   0.00000   0.00000   0.00000   0.00000
           D1           0.00000   0.00000   0.00000   0.00000   0.00000
                          A3        D1
           A3           0.16000
           D1           0.00000   0.00369
 ITU=  0
     Eigenvalues ---    0.05179   0.16000   0.16000   0.17671   0.17671
     Eigenvalues ---    0.17671
 RFO step:  Lambda=-3.14879717D-02 EMin= 5.17854993D-02
 Linear search not attempted -- first point.
 Maximum step size (   0.300) exceeded in Quadratic search.
    -- Step size scaled by   0.846
 Iteration  1 RMS(Cart)=  0.13452954 RMS(Int)=  0.07255255
 Iteration  2 RMS(Cart)=  0.07392037 RMS(Int)=  0.02741551
 Iteration  3 RMS(Cart)=  0.00482224 RMS(Int)=  0.02708715
 Iteration  4 RMS(Cart)=  0.00029977 RMS(Int)=  0.02708647
 Iteration  5 RMS(Cart)=  0.00001758 RMS(Int)=  0.02708647
 Iteration  6 RMS(Cart)=  0.00000105 RMS(Int)=  0.02708647
 Iteration  7 RMS(Cart)=  0.00000006 RMS(Int)=  0.02708647
 ClnCor:  largest displacement from symmetrization is 6.20D-03 for atom     4.
 Variable       Old X    -DE/DX   Delta X   Delta X   Delta X     New X
                                 (Linear)    (Quad)   (Total)
    R1        2.85349   0.00071   0.00000   0.00288   0.00430   2.85779
    R2        2.85349   0.00071   0.00000   0.00288   0.00430   2.85779
    R3        2.85349   0.00071   0.00000   0.00288   0.00430   2.85779
    A1        1.91063  -0.00401   0.00000  -0.14042  -0.19362   1.71702
    A2        1.91063  -0.02806   0.00000  -0.18529  -0.19362   1.71702
    A3        1.91063  -0.02806   0.00000  -0.18529  -0.19362   1.71702
    D1       -2.09440   0.03927   0.00000   0.39891   0.35221  -1.74218
         Item               Value     Threshold  Converged?
 Maximum Force            0.039273     0.000450     NO 
 RMS     Force            0.021161     0.000300     NO 
 Maximum Displacement     0.326798     0.001800     NO 
 RMS     Displacement     0.190911     0.001200     NO 
 Predicted change in Energy=-1.625209D-02
 GradGradGradGradGradGradGradGradGradGradGradGradGradGradGradGradGradGrad

                          Input orientation:                          
 ---------------------------------------------------------------------
 Center     Atomic      Atomic             Coordinates (Angstroms)
 Number     Number       Type             X           Y           Z
 ---------------------------------------------------------------------
      1         33           0       -0.000000   -0.000000    0.214878
      2          1           0       -0.000000    1.321663   -0.520093
      3          1           0       -1.144594   -0.660832   -0.520093
      4          1           0        1.144594   -0.660832   -0.520093
 ---------------------------------------------------------------------
                    Distance matrix (angstroms):
                    1          2          3          4
     1  As   0.000000
     2  H    1.512275   0.000000
     3  H    1.512275   2.289188   0.000000
     4  H    1.512275   2.289188   2.289188   0.000000
 Stoichiometry    AsH3
 Framework group  C3V[C3(As),3SGV(H)]
 Deg. of freedom     2
 Full point group                 C3V     NOp   6
 Largest Abelian subgroup         CS      NOp   2
 Largest concise Abelian subgroup CS      NOp   2
                         Standard orientation:                         
 ---------------------------------------------------------------------
 Center     Atomic      Atomic             Coordinates (Angstroms)
 Number     Number       Type             X           Y           Z
 ---------------------------------------------------------------------
      1         33           0        0.000000    0.000000    0.061248
      2          1           0        0.000000    1.321663   -0.673724
      3          1           0       -1.144594   -0.660832   -0.673724
      4          1           0        1.144594   -0.660832   -0.673724
 ---------------------------------------------------------------------
 Rotational constants (GHZ):         120.0262481         120.0262481          95.6905451
 Standard basis: 3-21G (6D, 7F)
 There are    21 symmetry adapted cartesian basis functions of A'  symmetry.
 There are     8 symmetry adapted cartesian basis functions of A"  symmetry.
 There are    21 symmetry adapted basis functions of A'  symmetry.
 There are     8 symmetry adapted basis functions of A"  symmetry.
    29 basis functions,    66 primitive gaussians,    29 cartesian basis functions
    18 alpha electrons       18 beta electrons
       nuclear repulsion energy        35.3356883706 Hartrees.
 NAtoms=    4 NActive=    4 NUniq=    2 SFac= 4.00D+00 NAtFMM=   60 NAOKFM=F Big=F
 Integral buffers will be    131072 words long.
 Raffenetti 1 integral format.
 Two-electron integral symmetry is turned on.
 One-electron integrals computed using PRISM.
 NBasis=    29 RedAO= T EigKep=  8.36D-03  NBF=    21     8
 NBsUse=    29 1.00D-06 EigRej= -1.00D+00 NBFU=    21     8
 Initial guess from the checkpoint file:  "AsH3.chk"
 B after Tr=     0.000000    0.000000    0.000000
         Rot=    1.000000   -0.000000    0.000000    0.000000 Ang=   0.00 deg.
 Initial guess orbital symmetries:
       Occupied  (A1) (A1) (E) (E) (A1) (A1) (E) (E) (A1) (E) (E)
                 (E) (E) (A1) (A1) (E) (E) (A1)
       Virtual   (E) (E) (A1) (E) (E) (A1) (A1) (A1) (E) (E) (A1)
 ExpMin= 1.14D-01 ExpMax= 5.41D+03 ExpMxC= 5.41D+03 IAcc=3 IRadAn=         5 AccDes= 0.00D+00
 Harris functional with IExCor=  205 and IRadAn=       5 diagonalized for initial guess.
 HarFok:  IExCor=  205 AccDes= 0.00D+00 IRadAn=         5 IDoV= 1 UseB2=F ITyADJ=14
 ICtDFT=  3500011 ScaDFX=  1.000000  1.000000  1.000000  1.000000
 FoFCou: FMM=F IPFlag=           0 FMFlag=      100000 FMFlg1=           0
         NFxFlg=           0 DoJE=T BraDBF=F KetDBF=T FulRan=T
         wScrn=  0.000000 ICntrl=       500 IOpCl=  0 I1Cent=   200000004 NGrid=           0
         NMat0=    1 NMatS0=      1 NMatT0=    0 NMatD0=    1 NMtDS0=    0 NMtDT0=    0
 Petite list used in FoFCou.
 Keep R1 ints in memory in symmetry-blocked form, NReq=923450.
 Requested convergence on RMS density matrix=1.00D-08 within 128 cycles.
 Requested convergence on MAX density matrix=1.00D-06.
 Requested convergence on             energy=1.00D-06.
 No special actions if energy rises.
 SCF Done:  E(RHF) =  -2225.14307817     A.U. after   10 cycles
            NFock= 10  Conv=0.68D-09     -V/T= 1.9924
 ExpMin= 1.14D-01 ExpMax= 5.41D+03 ExpMxC= 5.41D+03 IAcc=3 IRadAn=         5 AccDes= 0.00D+00
 HarFok:  IExCor=  205 AccDes= 0.00D+00 IRadAn=         5 IDoV=-2 UseB2=F ITyADJ=14
 ICtDFT= 12500011 ScaDFX=  1.000000  1.000000  1.000000  1.000000
 Range of M.O.s used for correlation:    10    29
 NBasis=    29 NAE=    18 NBE=    18 NFC=     9 NFV=     0
 NROrb=     20 NOA=     9 NOB=     9 NVA=    11 NVB=    11
 Fully direct method using O(ONN) memory.
 JobTyp=1 Pass  1:  I=  10 to  18 NPSUse=  1 ParTrn=F ParDer=F DoDerP=T.
 Spin components of T(2) and E(2):
     alpha-alpha T2 =       0.1327916512D-02 E2=     -0.2852971359D-02
     alpha-beta  T2 =       0.2854649542D-01 E2=     -0.5600631672D-01
     beta-beta   T2 =       0.1327916512D-02 E2=     -0.2852971359D-02
 ANorm=    0.1015481328D+01
 E2 =    -0.6171225944D-01 EUMP2 =    -0.22252047904335D+04
          IDoAtm=1111
          Differentiating once with respect to electric field.
                with respect to dipole field.
          Differentiating once with respect to nuclear coordinates.
 Keep R1 ints in memory in symmetry-blocked form, NReq=924172.
          There are     1 degrees of freedom in the 1st order CPHF.  IDoFFX=0 NUNeed=     1.
 LinEq1:  Iter=  0 NonCon=     1 RMS=2.92D-03 Max=1.95D-02 NDo=     1
 AX will form     1 AO Fock derivatives at one time.
 LinEq1:  Iter=  1 NonCon=     1 RMS=3.09D-04 Max=2.60D-03 NDo=     1
 LinEq1:  Iter=  2 NonCon=     1 RMS=5.16D-05 Max=3.56D-04 NDo=     1
 LinEq1:  Iter=  3 NonCon=     1 RMS=1.00D-05 Max=7.17D-05 NDo=     1
 LinEq1:  Iter=  4 NonCon=     1 RMS=8.37D-07 Max=7.48D-06 NDo=     1
 LinEq1:  Iter=  5 NonCon=     1 RMS=6.85D-08 Max=4.54D-07 NDo=     1
 LinEq1:  Iter=  6 NonCon=     1 RMS=2.38D-09 Max=1.45D-08 NDo=     1
 LinEq1:  Iter=  7 NonCon=     1 RMS=1.96D-10 Max=1.28D-09 NDo=     1
 LinEq1:  Iter=  8 NonCon=     0 RMS=1.26D-11 Max=7.10D-11 NDo=     1
 Linear equations converged to 1.000D-10 1.000D-09 after     8 iterations.
 End of Minotr F.D. properties file   721 does not exist.
 End of Minotr F.D. properties file   722 does not exist.
 End of Minotr F.D. properties file   788 does not exist.
 Calling FoFJK, ICntrl=  10002127 FMM=F ISym2X=1 I1Cent= 0 IOpClX= 0 NMat=1 NMatS=1 NMatT=0.
 ***** Axes restored to original set *****
 -------------------------------------------------------------------
 Center     Atomic                   Forces (Hartrees/Bohr)
 Number     Number              X              Y              Z
 -------------------------------------------------------------------
      1       33          -0.000000000   -0.000000000    0.020913421
      2        1          -0.000000000    0.003220758   -0.006971140
      3        1          -0.002789258   -0.001610379   -0.006971140
      4        1           0.002789258   -0.001610379   -0.006971140
 -------------------------------------------------------------------
 Cartesian Forces:  Max     0.020913421 RMS     0.007154727

 GradGradGradGradGradGradGradGradGradGradGradGradGradGradGradGradGradGrad
 Berny optimization.
 Using GEDIIS/GDIIS optimizer.
 FormGI is forming the generalized inverse of G from B-inverse, IUseBI=4.
 Internal  Forces:  Max     0.008901019 RMS     0.006842846
 Search for a local minimum.
 Step number   2 out of a maximum of   20
 All quantities printed in internal units (Hartrees-Bohrs-Radians)
 Mixed Optimization -- RFO/linear search
 Update second derivatives using D2CorX and points    1    2
 DE= -1.73D-02 DEPred=-1.63D-02 R= 1.06D+00
 TightC=F SS=  1.41D+00  RLast= 4.86D-01 DXNew= 5.0454D-01 1.4592D+00
 Trust test= 1.06D+00 RLast= 4.86D-01 DXMaxT set to 5.05D-01
 The second derivative matrix:
                          R1        R2        R3        A1        A2
           R1           0.17827
           R2           0.00156   0.17827
           R3           0.00156   0.00156   0.17827
           A1           0.00147   0.00147   0.00147   0.10804
           A2           0.00681   0.00681   0.00681  -0.05131   0.12733
           A3           0.00681   0.00681   0.00681  -0.05131  -0.03267
           D1          -0.00951  -0.00951  -0.00951   0.00103  -0.03081
                          A3        D1
           A3           0.12733
           D1          -0.03081   0.05998
 ITU=  1  0
 Use linear search instead of GDIIS.
     Eigenvalues ---    0.06809   0.13074   0.16000   0.17671   0.17671
     Eigenvalues ---    0.18694
 RFO step:  Lambda=-1.06195203D-03 EMin= 6.80908655D-02
 Quartic linear search produced a step of  0.21901.
 Iteration  1 RMS(Cart)=  0.05095711 RMS(Int)=  0.00711289
 Iteration  2 RMS(Cart)=  0.00263783 RMS(Int)=  0.00670718
 Iteration  3 RMS(Cart)=  0.00000170 RMS(Int)=  0.00670718
 Iteration  4 RMS(Cart)=  0.00000002 RMS(Int)=  0.00670718
 ClnCor:  largest displacement from symmetrization is 1.87D-02 for atom     4.
 Variable       Old X    -DE/DX   Delta X   Delta X   Delta X     New X
                                 (Linear)    (Quad)   (Total)
    R1        2.85779   0.00620   0.00094   0.04241   0.04742   2.90520
    R2        2.85779   0.00620   0.00094   0.04241   0.04742   2.90520
    R3        2.85779   0.00620   0.00094   0.04241   0.04742   2.90520
    A1        1.71702  -0.00334  -0.04240   0.00580  -0.06041   1.65661
    A2        1.71702  -0.00890  -0.04240  -0.02583  -0.06041   1.65661
    A3        1.71702  -0.00890  -0.04240  -0.02583  -0.06041   1.65661
    D1       -1.74218   0.00654   0.07714   0.00309   0.07751  -1.66467
         Item               Value     Threshold  Converged?
 Maximum Force            0.008901     0.000450     NO 
 RMS     Force            0.006843     0.000300     NO 
 Maximum Displacement     0.104780     0.001800     NO 
 RMS     Displacement     0.048241     0.001200     NO 
 Predicted change in Energy=-1.657069D-03
 GradGradGradGradGradGradGradGradGradGradGradGradGradGradGradGradGradGrad

                          Input orientation:                          
 ---------------------------------------------------------------------
 Center     Atomic      Atomic             Coordinates (Angstroms)
 Number     Number       Type             X           Y           Z
 ---------------------------------------------------------------------
      1         33           0       -0.000000   -0.000000    0.270326
      2          1           0       -0.000000    1.307941   -0.537629
      3          1           0       -1.132710   -0.653971   -0.537629
      4          1           0        1.132710   -0.653971   -0.537629
 ---------------------------------------------------------------------
                    Distance matrix (angstroms):
                    1          2          3          4
     1  As   0.000000
     2  H    1.537368   0.000000
     3  H    1.537368   2.265421   0.000000
     4  H    1.537368   2.265421   2.265421   0.000000
 Stoichiometry    AsH3
 Framework group  C3V[C3(As),3SGV(H)]
 Deg. of freedom     2
 Full point group                 C3V     NOp   6
 Largest Abelian subgroup         CS      NOp   2
 Largest concise Abelian subgroup CS      NOp   2
                         Standard orientation:                         
 ---------------------------------------------------------------------
 Center     Atomic      Atomic             Coordinates (Angstroms)
 Number     Number       Type             X           Y           Z
 ---------------------------------------------------------------------
      1         33           0        0.000000    0.000000    0.067330
      2          1           0        0.000000    1.307941   -0.740625
      3          1           0       -1.132710   -0.653971   -0.740625
      4          1           0        1.132710   -0.653971   -0.740625
 ---------------------------------------------------------------------
 Rotational constants (GHZ):         112.7252420         112.7252420          97.7089391
 Standard basis: 3-21G (6D, 7F)
 There are    21 symmetry adapted cartesian basis functions of A'  symmetry.
 There are     8 symmetry adapted cartesian basis functions of A"  symmetry.
 There are    21 symmetry adapted basis functions of A'  symmetry.
 There are     8 symmetry adapted basis functions of A"  symmetry.
    29 basis functions,    66 primitive gaussians,    29 cartesian basis functions
    18 alpha electrons       18 beta electrons
       nuclear repulsion energy        34.7775382074 Hartrees.
 NAtoms=    4 NActive=    4 NUniq=    2 SFac= 4.00D+00 NAtFMM=   60 NAOKFM=F Big=F
 Integral buffers will be    131072 words long.
 Raffenetti 1 integral format.
 Two-electron integral symmetry is turned on.
 One-electron integrals computed using PRISM.
 NBasis=    29 RedAO= T EigKep=  8.27D-03  NBF=    21     8
 NBsUse=    29 1.00D-06 EigRej= -1.00D+00 NBFU=    21     8
 Initial guess from the checkpoint file:  "AsH3.chk"
 B after Tr=    -0.000000   -0.000000    0.000000
         Rot=    1.000000    0.000000   -0.000000    0.000000 Ang=   0.00 deg.
 Initial guess orbital symmetries:
       Occupied  (A1) (A1) (E) (E) (A1) (A1) (E) (E) (A1) (E) (E)
                 (E) (E) (A1) (A1) (E) (E) (A1)
       Virtual   (E) (E) (A1) (E) (E) (A1) (A1) (A1) (E) (E) (A1)
 ExpMin= 1.14D-01 ExpMax= 5.41D+03 ExpMxC= 5.41D+03 IAcc=3 IRadAn=         5 AccDes= 0.00D+00
 Harris functional with IExCor=  205 and IRadAn=       5 diagonalized for initial guess.
 HarFok:  IExCor=  205 AccDes= 0.00D+00 IRadAn=         5 IDoV= 1 UseB2=F ITyADJ=14
 ICtDFT=  3500011 ScaDFX=  1.000000  1.000000  1.000000  1.000000
 FoFCou: FMM=F IPFlag=           0 FMFlag=      100000 FMFlg1=           0
         NFxFlg=           0 DoJE=T BraDBF=F KetDBF=T FulRan=T
         wScrn=  0.000000 ICntrl=       500 IOpCl=  0 I1Cent=   200000004 NGrid=           0
         NMat0=    1 NMatS0=      1 NMatT0=    0 NMatD0=    1 NMtDS0=    0 NMtDT0=    0
 Petite list used in FoFCou.
 Keep R1 ints in memory in symmetry-blocked form, NReq=923405.
 Requested convergence on RMS density matrix=1.00D-08 within 128 cycles.
 Requested convergence on MAX density matrix=1.00D-06.
 Requested convergence on             energy=1.00D-06.
 No special actions if energy rises.
 SCF Done:  E(RHF) =  -2225.14370814     A.U. after    8 cycles
            NFock=  8  Conv=0.72D-08     -V/T= 1.9925
 ExpMin= 1.14D-01 ExpMax= 5.41D+03 ExpMxC= 5.41D+03 IAcc=3 IRadAn=         5 AccDes= 0.00D+00
 HarFok:  IExCor=  205 AccDes= 0.00D+00 IRadAn=         5 IDoV=-2 UseB2=F ITyADJ=14
 ICtDFT= 12500011 ScaDFX=  1.000000  1.000000  1.000000  1.000000
 Range of M.O.s used for correlation:    10    29
 NBasis=    29 NAE=    18 NBE=    18 NFC=     9 NFV=     0
 NROrb=     20 NOA=     9 NOB=     9 NVA=    11 NVB=    11
 Fully direct method using O(ONN) memory.
 JobTyp=1 Pass  1:  I=  10 to  18 NPSUse=  1 ParTrn=F ParDer=F DoDerP=T.
 Spin components of T(2) and E(2):
     alpha-alpha T2 =       0.1287334843D-02 E2=     -0.2781695761D-02
     alpha-beta  T2 =       0.2972765541D-01 E2=     -0.5693884088D-01
     beta-beta   T2 =       0.1287334843D-02 E2=     -0.2781695761D-02
 ANorm=    0.1016022798D+01
 E2 =    -0.6250223240D-01 EUMP2 =    -0.22252062103709D+04
          IDoAtm=1111
          Differentiating once with respect to electric field.
                with respect to dipole field.
          Differentiating once with respect to nuclear coordinates.
 Keep R1 ints in memory in symmetry-blocked form, NReq=924130.
          There are     1 degrees of freedom in the 1st order CPHF.  IDoFFX=0 NUNeed=     1.
 LinEq1:  Iter=  0 NonCon=     1 RMS=3.11D-03 Max=2.00D-02 NDo=     1
 AX will form     1 AO Fock derivatives at one time.
 LinEq1:  Iter=  1 NonCon=     1 RMS=3.52D-04 Max=3.13D-03 NDo=     1
 LinEq1:  Iter=  2 NonCon=     1 RMS=6.48D-05 Max=4.25D-04 NDo=     1
 LinEq1:  Iter=  3 NonCon=     1 RMS=1.13D-05 Max=8.53D-05 NDo=     1
 LinEq1:  Iter=  4 NonCon=     1 RMS=8.75D-07 Max=7.29D-06 NDo=     1
 LinEq1:  Iter=  5 NonCon=     1 RMS=6.82D-08 Max=4.70D-07 NDo=     1
 LinEq1:  Iter=  6 NonCon=     1 RMS=2.21D-09 Max=1.26D-08 NDo=     1
 LinEq1:  Iter=  7 NonCon=     1 RMS=1.58D-10 Max=1.07D-09 NDo=     1
 LinEq1:  Iter=  8 NonCon=     0 RMS=1.05D-11 Max=5.79D-11 NDo=     1
 Linear equations converged to 1.000D-10 1.000D-09 after     8 iterations.
 End of Minotr F.D. properties file   721 does not exist.
 End of Minotr F.D. properties file   722 does not exist.
 End of Minotr F.D. properties file   788 does not exist.
 Calling FoFJK, ICntrl=  10002127 FMM=F ISym2X=1 I1Cent= 0 IOpClX= 0 NMat=1 NMatS=1 NMatT=0.
 ***** Axes restored to original set *****
 -------------------------------------------------------------------
 Center     Atomic                   Forces (Hartrees/Bohr)
 Number     Number              X              Y              Z
 -------------------------------------------------------------------
      1       33          -0.000000000   -0.000000000    0.001091695
      2        1           0.000000000   -0.000513368   -0.000363898
      3        1           0.000444589    0.000256684   -0.000363898
      4        1          -0.000444589    0.000256684   -0.000363898
 -------------------------------------------------------------------
 Cartesian Forces:  Max     0.001091695 RMS     0.000445318

 GradGradGradGradGradGradGradGradGradGradGradGradGradGradGradGradGradGrad
 Berny optimization.
 Using GEDIIS/GDIIS optimizer.
 FormGI is forming the generalized inverse of G from B-inverse, IUseBI=4.
 Internal  Forces:  Max     0.001180742 RMS     0.000733786
 Search for a local minimum.
 Step number   3 out of a maximum of   20
 All quantities printed in internal units (Hartrees-Bohrs-Radians)
 Mixed Optimization -- En-DIIS/RFO-DIIS
 Update second derivatives using D2CorX and points    2    3
 DE= -1.42D-03 DEPred=-1.66D-03 R= 8.57D-01
 TightC=F SS=  1.41D+00  RLast= 1.54D-01 DXNew= 8.4853D-01 4.6186D-01
 Trust test= 8.57D-01 RLast= 1.54D-01 DXMaxT set to 5.05D-01
 The second derivative matrix:
                          R1        R2        R3        A1        A2
           R1           0.17115
           R2          -0.00556   0.17115
           R3          -0.00556  -0.00556   0.17115
           A1          -0.00578  -0.00578  -0.00578   0.11128
           A2           0.00057   0.00057   0.00057  -0.04255   0.14337
           A3           0.00057   0.00057   0.00057  -0.04255  -0.01663
           D1          -0.01833  -0.01833  -0.01833  -0.00548  -0.03503
                          A3        D1
           A3           0.14337
           D1          -0.03503   0.04963
 ITU=  1  1  0
 Use linear search instead of GDIIS.
     Eigenvalues ---    0.08069   0.14246   0.16000   0.16335   0.17671
     Eigenvalues ---    0.17671
 RFO step:  Lambda=-1.62933385D-05 EMin= 8.06880583D-02
 Quartic linear search produced a step of  0.08144.
 Iteration  1 RMS(Cart)=  0.00834914 RMS(Int)=  0.00014533
 Iteration  2 RMS(Cart)=  0.00003880 RMS(Int)=  0.00013932
 Iteration  3 RMS(Cart)=  0.00000001 RMS(Int)=  0.00013932
 ClnCor:  largest displacement from symmetrization is 1.26D-03 for atom     4.
 Variable       Old X    -DE/DX   Delta X   Delta X   Delta X     New X
                                 (Linear)    (Quad)   (Total)
    R1        2.90520  -0.00025   0.00386  -0.00443  -0.00030   2.90490
    R2        2.90520  -0.00025   0.00386  -0.00443  -0.00030   2.90490
    R3        2.90520  -0.00025   0.00386  -0.00443  -0.00030   2.90490
    A1        1.65661  -0.00051  -0.00492  -0.00245  -0.00837   1.64823
    A2        1.65661  -0.00118  -0.00492  -0.00403  -0.00837   1.64823
    A3        1.65661  -0.00118  -0.00492  -0.00403  -0.00837   1.64823
    D1       -1.66467   0.00074   0.00631   0.00324   0.00993  -1.65474
         Item               Value     Threshold  Converged?
 Maximum Force            0.001181     0.000450     NO 
 RMS     Force            0.000734     0.000300     NO 
 Maximum Displacement     0.011455     0.001800     NO 
 RMS     Displacement     0.008094     0.001200     NO 
 Predicted change in Energy=-1.585857D-05
 GradGradGradGradGradGradGradGradGradGradGradGradGradGradGradGradGradGrad

                          Input orientation:                          
 ---------------------------------------------------------------------
 Center     Atomic      Atomic             Coordinates (Angstroms)
 Number     Number       Type             X           Y           Z
 ---------------------------------------------------------------------
      1         33           0       -0.000000   -0.000000    0.276388
      2          1           0       -0.000000    1.302769   -0.539580
      3          1           0       -1.128231   -0.651385   -0.539580
      4          1           0        1.128231   -0.651385   -0.539580
 ---------------------------------------------------------------------
                    Distance matrix (angstroms):
                    1          2          3          4
     1  As   0.000000
     2  H    1.537209   0.000000
     3  H    1.537209   2.256463   0.000000
     4  H    1.537209   2.256463   2.256463   0.000000
 Stoichiometry    AsH3
 Framework group  C3V[C3(As),3SGV(H)]
 Deg. of freedom     2
 Full point group                 C3V     NOp   6
 Largest Abelian subgroup         CS      NOp   2
 Largest concise Abelian subgroup CS      NOp   2
                         Standard orientation:                         
 ---------------------------------------------------------------------
 Center     Atomic      Atomic             Coordinates (Angstroms)
 Number     Number       Type             X           Y           Z
 ---------------------------------------------------------------------
      1         33           0        0.000000    0.000000    0.067997
      2          1           0        0.000000    1.302769   -0.747970
      3          1           0       -1.128231   -0.651385   -0.747970
      4          1           0        1.128231   -0.651385   -0.747970
 ---------------------------------------------------------------------
 Rotational constants (GHZ):         112.2893117         112.2893117          98.4862911
 Standard basis: 3-21G (6D, 7F)
 There are    21 symmetry adapted cartesian basis functions of A'  symmetry.
 There are     8 symmetry adapted cartesian basis functions of A"  symmetry.
 There are    21 symmetry adapted basis functions of A'  symmetry.
 There are     8 symmetry adapted basis functions of A"  symmetry.
    29 basis functions,    66 primitive gaussians,    29 cartesian basis functions
    18 alpha electrons       18 beta electrons
       nuclear repulsion energy        34.7838526782 Hartrees.
 NAtoms=    4 NActive=    4 NUniq=    2 SFac= 4.00D+00 NAtFMM=   60 NAOKFM=F Big=F
 Integral buffers will be    131072 words long.
 Raffenetti 1 integral format.
 Two-electron integral symmetry is turned on.
 One-electron integrals computed using PRISM.
 NBasis=    29 RedAO= T EigKep=  8.25D-03  NBF=    21     8
 NBsUse=    29 1.00D-06 EigRej= -1.00D+00 NBFU=    21     8
 Initial guess from the checkpoint file:  "AsH3.chk"
 B after Tr=     0.000000    0.000000    0.000000
         Rot=    1.000000   -0.000000   -0.000000   -0.000000 Ang=   0.00 deg.
 Initial guess orbital symmetries:
       Occupied  (A1) (A1) (E) (E) (A1) (A1) (E) (E) (A1) (E) (E)
                 (E) (E) (A1) (A1) (E) (E) (A1)
       Virtual   (E) (E) (A1) (E) (E) (A1) (A1) (A1) (E) (E) (A1)
 Keep R1 ints in memory in symmetry-blocked form, NReq=923405.
 Requested convergence on RMS density matrix=1.00D-08 within 128 cycles.
 Requested convergence on MAX density matrix=1.00D-06.
 Requested convergence on             energy=1.00D-06.
 No special actions if energy rises.
 SCF Done:  E(RHF) =  -2225.14370447     A.U. after    7 cycles
            NFock=  7  Conv=0.48D-08     -V/T= 1.9925
 ExpMin= 1.14D-01 ExpMax= 5.41D+03 ExpMxC= 5.41D+03 IAcc=3 IRadAn=         5 AccDes= 0.00D+00
 HarFok:  IExCor=  205 AccDes= 0.00D+00 IRadAn=         5 IDoV=-2 UseB2=F ITyADJ=14
 ICtDFT= 12500011 ScaDFX=  1.000000  1.000000  1.000000  1.000000
 Range of M.O.s used for correlation:    10    29
 NBasis=    29 NAE=    18 NBE=    18 NFC=     9 NFV=     0
 NROrb=     20 NOA=     9 NOB=     9 NVA=    11 NVB=    11
 Fully direct method using O(ONN) memory.
 JobTyp=1 Pass  1:  I=  10 to  18 NPSUse=  1 ParTrn=F ParDer=F DoDerP=T.
 Spin components of T(2) and E(2):
     alpha-alpha T2 =       0.1281143303D-02 E2=     -0.2772924657D-02
     alpha-beta  T2 =       0.2976750157D-01 E2=     -0.5697499227D-01
     beta-beta   T2 =       0.1281143303D-02 E2=     -0.2772924657D-02
 ANorm=    0.1016036312D+01
 E2 =    -0.6252084159D-01 EUMP2 =    -0.22252062253164D+04
          IDoAtm=1111
          Differentiating once with respect to electric field.
                with respect to dipole field.
          Differentiating once with respect to nuclear coordinates.
 Keep R1 ints in memory in symmetry-blocked form, NReq=924130.
          There are     1 degrees of freedom in the 1st order CPHF.  IDoFFX=0 NUNeed=     1.
 LinEq1:  Iter=  0 NonCon=     1 RMS=3.12D-03 Max=1.99D-02 NDo=     1
 AX will form     1 AO Fock derivatives at one time.
 LinEq1:  Iter=  1 NonCon=     1 RMS=3.54D-04 Max=3.15D-03 NDo=     1
 LinEq1:  Iter=  2 NonCon=     1 RMS=6.53D-05 Max=4.29D-04 NDo=     1
 LinEq1:  Iter=  3 NonCon=     1 RMS=1.13D-05 Max=8.54D-05 NDo=     1
 LinEq1:  Iter=  4 NonCon=     1 RMS=8.73D-07 Max=7.22D-06 NDo=     1
 LinEq1:  Iter=  5 NonCon=     1 RMS=6.75D-08 Max=4.64D-07 NDo=     1
 LinEq1:  Iter=  6 NonCon=     1 RMS=2.17D-09 Max=1.25D-08 NDo=     1
 LinEq1:  Iter=  7 NonCon=     1 RMS=1.55D-10 Max=1.01D-09 NDo=     1
 LinEq1:  Iter=  8 NonCon=     0 RMS=9.98D-12 Max=5.56D-11 NDo=     1
 Linear equations converged to 1.000D-10 1.000D-09 after     8 iterations.
 End of Minotr F.D. properties file   721 does not exist.
 End of Minotr F.D. properties file   722 does not exist.
 End of Minotr F.D. properties file   788 does not exist.
 Calling FoFJK, ICntrl=  10002127 FMM=F ISym2X=1 I1Cent= 0 IOpClX= 0 NMat=1 NMatS=1 NMatT=0.
 ***** Axes restored to original set *****
 -------------------------------------------------------------------
 Center     Atomic                   Forces (Hartrees/Bohr)
 Number     Number              X              Y              Z
 -------------------------------------------------------------------
      1       33          -0.000000000   -0.000000000   -0.000013613
      2        1          -0.000000000    0.000048817    0.000004538
      3        1          -0.000042276   -0.000024408    0.000004538
      4        1           0.000042276   -0.000024408    0.000004538
 -------------------------------------------------------------------
 Cartesian Forces:  Max     0.000048817 RMS     0.000024826

 GradGradGradGradGradGradGradGradGradGradGradGradGradGradGradGradGradGrad
 Berny optimization.
 Using GEDIIS/GDIIS optimizer.
 FormGI is forming the generalized inverse of G from B-inverse, IUseBI=4.
 Internal  Forces:  Max     0.000060736 RMS     0.000044738
 Search for a local minimum.
 Step number   4 out of a maximum of   20
 All quantities printed in internal units (Hartrees-Bohrs-Radians)
 Mixed Optimization -- En-DIIS/RFO-DIIS
 Swapping is turned off.
 Update second derivatives using D2CorX and points    2    3    4
 DE= -1.49D-05 DEPred=-1.59D-05 R= 9.42D-01
 TightC=F SS=  1.41D+00  RLast= 1.76D-02 DXNew= 8.4853D-01 5.2762D-02
 Trust test= 9.42D-01 RLast= 1.76D-02 DXMaxT set to 5.05D-01
 The second derivative matrix:
                          R1        R2        R3        A1        A2
           R1           0.17200
           R2          -0.00471   0.17200
           R3          -0.00471  -0.00471   0.17200
           A1          -0.00346  -0.00346  -0.00346   0.11780
           A2           0.00447   0.00447   0.00447  -0.03142   0.15453
           A3           0.00447   0.00447   0.00447  -0.03142  -0.00547
           D1          -0.01908  -0.01908  -0.01908  -0.00786  -0.02541
                          A3        D1
           A3           0.15453
           D1          -0.02541   0.02660
 ITU=  1  1  1  0
     Eigenvalues ---    0.07370   0.15200   0.16000   0.17460   0.17671
     Eigenvalues ---    0.17671
 En-DIIS/RFO-DIIS/Sim-DIIS IScMMF=       -3 using points:     4    3
 RFO step:  Lambda=-9.34073752D-08.
 DidBck=F Rises=F RFO-DIIS coefs:    0.95476    0.04524
 Iteration  1 RMS(Cart)=  0.00042874 RMS(Int)=  0.00000104
 Iteration  2 RMS(Cart)=  0.00000007 RMS(Int)=  0.00000104
 ClnCor:  largest displacement from symmetrization is 2.71D-05 for atom     4.
 Variable       Old X    -DE/DX   Delta X   Delta X   Delta X     New X
                                 (Linear)    (Quad)   (Total)
    R1        2.90490   0.00004   0.00001   0.00016   0.00017   2.90507
    R2        2.90490   0.00004   0.00001   0.00016   0.00017   2.90507
    R3        2.90490   0.00004   0.00001   0.00016   0.00017   2.90507
    A1        1.64823   0.00003   0.00038  -0.00002   0.00038   1.64861
    A2        1.64823   0.00006   0.00038   0.00001   0.00038   1.64861
    A3        1.64823   0.00006   0.00038   0.00001   0.00038   1.64861
    D1       -1.65474  -0.00004  -0.00045   0.00002  -0.00044  -1.65518
         Item               Value     Threshold  Converged?
 Maximum Force            0.000061     0.000450     YES
 RMS     Force            0.000045     0.000300     YES
 Maximum Displacement     0.000573     0.001800     YES
 RMS     Displacement     0.000423     0.001200     YES
 Predicted change in Energy=-4.664297D-08
 Optimization completed.
    -- Stationary point found.
                           ----------------------------
                           !   Optimized Parameters   !
                           ! (Angstroms and Degrees)  !
 --------------------------                            --------------------------
 ! Name  Definition              Value          Derivative Info.                !
 --------------------------------------------------------------------------------
 ! R1    R(1,2)                  1.5372         -DE/DX =    0.0                 !
 ! R2    R(1,3)                  1.5372         -DE/DX =    0.0                 !
 ! R3    R(1,4)                  1.5372         -DE/DX =    0.0                 !
 ! A1    A(2,1,3)               94.4368         -DE/DX =    0.0                 !
 ! A2    A(2,1,4)               94.4368         -DE/DX =    0.0001              !
 ! A3    A(3,1,4)               94.4368         -DE/DX =    0.0001              !
 ! D1    D(2,1,4,3)            -94.8096         -DE/DX =    0.0                 !
 --------------------------------------------------------------------------------
 GradGradGradGradGradGradGradGradGradGradGradGradGradGradGradGradGradGrad

                          Input orientation:                          
 ---------------------------------------------------------------------
 Center     Atomic      Atomic             Coordinates (Angstroms)
 Number     Number       Type             X           Y           Z
 ---------------------------------------------------------------------
      1         33           0       -0.000000   -0.000000    0.276388
      2          1           0       -0.000000    1.302769   -0.539580
      3          1           0       -1.128231   -0.651385   -0.539580
      4          1           0        1.128231   -0.651385   -0.539580
 ---------------------------------------------------------------------
                    Distance matrix (angstroms):
                    1          2          3          4
     1  As   0.000000
     2  H    1.537209   0.000000
     3  H    1.537209   2.256463   0.000000
     4  H    1.537209   2.256463   2.256463   0.000000
 Stoichiometry    AsH3
 Framework group  C3V[C3(As),3SGV(H)]
 Deg. of freedom     2
 Full point group                 C3V     NOp   6
 Largest Abelian subgroup         CS      NOp   2
 Largest concise Abelian subgroup CS      NOp   2
                         Standard orientation:                         
 ---------------------------------------------------------------------
 Center     Atomic      Atomic             Coordinates (Angstroms)
 Number     Number       Type             X           Y           Z
 ---------------------------------------------------------------------
      1         33           0        0.000000    0.000000    0.067997
      2          1           0        0.000000    1.302769   -0.747970
      3          1           0       -1.128231   -0.651385   -0.747970
      4          1           0        1.128231   -0.651385   -0.747970
 ---------------------------------------------------------------------
 Rotational constants (GHZ):         112.2893117         112.2893117          98.4862911

 **********************************************************************

            Population analysis using the SCF Density.

 **********************************************************************

 Orbital symmetries:
       Occupied  (A1) (A1) (E) (E) (A1) (A1) (E) (E) (A1) (E) (E)
                 (E) (E) (A1) (A1) (E) (E) (A1)
       Virtual   (E) (E) (A1) (E) (E) (A1) (A1) (A1) (E) (E) (A1)
 The electronic state is 1-A1.
 Alpha  occ. eigenvalues -- -429.47246 -55.97544 -49.71590 -49.71590 -49.71525
 Alpha  occ. eigenvalues --   -7.97340  -5.79946  -5.79946  -5.79437  -2.02693
 Alpha  occ. eigenvalues --   -2.02693  -2.02168  -2.02168  -2.01911  -0.83254
 Alpha  occ. eigenvalues --   -0.49659  -0.49659  -0.37032
 Alpha virt. eigenvalues --    0.15850   0.15850   0.25147   0.56248   0.56248
 Alpha virt. eigenvalues --    0.58349   0.68075   1.21594   1.27247   1.27247
 Alpha virt. eigenvalues --   12.67239
          Condensed to atoms (all electrons):
               1          2          3          4
     1  As  31.807383   0.306164   0.306164   0.306164
     2  H    0.306164   0.833856  -0.024323  -0.024323
     3  H    0.306164  -0.024323   0.833856  -0.024323
     4  H    0.306164  -0.024323  -0.024323   0.833856
 Mulliken charges:
               1
     1  As   0.274124
     2  H   -0.091375
     3  H   -0.091375
     4  H   -0.091375
 Sum of Mulliken charges =   0.00000
 Mulliken charges with hydrogens summed into heavy atoms:
               1
     1  As   0.000000
 Electronic spatial extent (au):  <R**2>=             72.1439
 Charge=              0.0000 electrons
 Dipole moment (field-independent basis, Debye):
    X=              0.0000    Y=              0.0000    Z=             -0.6062  Tot=              0.6062
 Quadrupole moment (field-independent basis, Debye-Ang):
   XX=            -20.4264   YY=            -20.4264   ZZ=            -22.9328
   XY=              0.0000   XZ=             -0.0000   YZ=              0.0000
 Traceless Quadrupole moment (field-independent basis, Debye-Ang):
   XX=              0.8355   YY=              0.8355   ZZ=             -1.6709
   XY=              0.0000   XZ=             -0.0000   YZ=              0.0000
 Octapole moment (field-independent basis, Debye-Ang**2):
  XXX=              0.0000  YYY=             -0.9912  ZZZ=              2.0477  XYY=              0.0000
  XXY=              0.9912  XXZ=              1.7621  XZZ=              0.0000  YZZ=              0.0000
  YYZ=              1.7621  XYZ=             -0.0000
 Hexadecapole moment (field-independent basis, Debye-Ang**3):
 XXXX=            -41.3551 YYYY=            -41.3551 ZZZZ=            -44.1494 XXXY=              0.0000
 XXXZ=             -0.0000 YYYX=              0.0000 YYYZ=              0.3575 ZZZX=             -0.0000
 ZZZY=             -0.0000 XXYY=            -13.7850 XXZZ=            -14.4222 YYZZ=            -14.4222
 XXYZ=             -0.3575 YYXZ=             -0.0000 ZZXY=              0.0000
 N-N= 3.478385267824D+01 E-N=-5.417334892809D+03  KE= 2.242027780568D+03
 Symmetry A'   KE= 1.917934727122D+03
 Symmetry A"   KE= 3.240930534458D+02
 Unable to Open any file for archive entry.
 1\1\GINC-BS001\FOpt\RMP2-FC\3-21G\As1H3\PNATT\10-Aug-2026\0\\# opt fre
 q=hpmodes mp2/3-21g geom=connectivity\\Title Card Required\\0,1\As,0.,
 -0.0000000003,0.276387832\H,-0.0000000059,1.302769281,-0.5395798004\H,
 -1.1282312899,-0.651384646,-0.5395798004\H,1.1282312958,-0.6513846358,
 -0.5395798004\\Version=ES64L-G16RevC.01\State=1-A1\HF=-2225.1437045\MP
 2=-2225.2062253\RMSD=4.791e-09\RMSF=2.483e-05\Dipole=0.,0.,-0.273329\P
 G=C03V [C3(As1),3SGV(H1)]\\@
 The archive entry for this job was punched.


 MEMORIES ARE LIKE AN ENGLISH GRAMMER LESSON -
 PRESENT TENSE, AND PAST PERFECT.
 Job cpu time:       0 days  0 hours  0 minutes  7.5 seconds.
 Elapsed time:       0 days  0 hours  0 minutes  7.2 seconds.
 File lengths (MBytes):  RWF=      6 Int=      0 D2E=      0 Chk=      1 Scr=      1
 Normal termination of Gaussian 16 at Mon Aug 10 15:51:55 2026.
 Link1:  Proceeding to internal job step number  2.
 -------------------------------------------------------------------
 #N Geom=AllCheck Guess=TCheck SCRF=Check GenChk RMP2(FC)/3-21G Freq
 -------------------------------------------------------------------
 1/10=4,29=7,30=1,38=1,40=1/1,3;
 2/12=2,40=1/2;
 3/5=5,11=1,14=-4,25=1,30=1,70=2,71=2,116=1,140=1/1,2,3;
 4/5=101/1;
 5/5=2,38=6,98=1/2;
 8/6=3,8=1,10=1,19=11,30=-1/1;
 9/15=3,16=-3/6;
 11/6=1,8=1,15=11,17=12,24=-1,27=1,28=-2,29=300,32=6,42=3/1,2,10;
 10/6=2,21=1/2;
 8/6=4,8=1,10=1,19=11,30=-1/11,4;
 10/5=1,20=4/2;
 11/12=2,14=11,16=1,17=2,28=-2,42=3,76=2/2,10,12;
 6/7=2,8=2,9=2,10=2/1;
 7/8=11,10=1,12=2,25=1,44=2/1,2,3,16;
 1/10=4,30=1/3;
 99//99;
 Structure from the checkpoint file:  "AsH3.chk"
 -------------------
 Title Card Required
 -------------------
 Charge =  0 Multiplicity = 1
 Redundant internal coordinates found in file.  (old form).
 As,0,0.,-0.0000000003,0.276387832
 H,0,-0.0000000059,1.302769281,-0.5395798004
 H,0,-1.1282312899,-0.651384646,-0.5395798004
 H,0,1.1282312958,-0.6513846358,-0.5395798004
 Recover connectivity data from disk.

 GradGradGradGradGradGradGradGradGradGradGradGradGradGradGradGradGradGrad
 Berny optimization.
 Initialization pass.
                           ----------------------------
                           !    Initial Parameters    !
                           ! (Angstroms and Degrees)  !
 --------------------------                            --------------------------
 ! Name  Definition              Value          Derivative Info.                !
 --------------------------------------------------------------------------------
 ! R1    R(1,2)                  1.5372         calculate D2E/DX2 analytically  !
 ! R2    R(1,3)                  1.5372         calculate D2E/DX2 analytically  !
 ! R3    R(1,4)                  1.5372         calculate D2E/DX2 analytically  !
 ! A1    A(2,1,3)               94.4368         calculate D2E/DX2 analytically  !
 ! A2    A(2,1,4)               94.4368         calculate D2E/DX2 analytically  !
 ! A3    A(3,1,4)               94.4368         calculate D2E/DX2 analytically  !
 ! D1    D(2,1,4,3)            -94.8096         calculate D2E/DX2 analytically  !
 --------------------------------------------------------------------------------
 Trust Radius=3.00D-01 FncErr=1.00D-07 GrdErr=1.00D-07 EigMax=2.50D+02 EigMin=1.00D-04
 Number of steps in this run=      2 maximum allowed number of steps=      2.
 GradGradGradGradGradGradGradGradGradGradGradGradGradGradGradGradGradGrad

                          Input orientation:                          
 ---------------------------------------------------------------------
 Center     Atomic      Atomic             Coordinates (Angstroms)
 Number     Number       Type             X           Y           Z
 ---------------------------------------------------------------------
      1         33           0       -0.000000   -0.000000    0.276388
      2          1           0       -0.000000    1.302769   -0.539580
      3          1           0       -1.128231   -0.651385   -0.539580
      4          1           0        1.128231   -0.651385   -0.539580
 ---------------------------------------------------------------------
                    Distance matrix (angstroms):
                    1          2          3          4
     1  As   0.000000
     2  H    1.537209   0.000000
     3  H    1.537209   2.256463   0.000000
     4  H    1.537209   2.256463   2.256463   0.000000
 Stoichiometry    AsH3
 Framework group  C3V[C3(As),3SGV(H)]
 Deg. of freedom     2
 Full point group                 C3V     NOp   6
 Largest Abelian subgroup         CS      NOp   2
 Largest concise Abelian subgroup CS      NOp   2
                         Standard orientation:                         
 ---------------------------------------------------------------------
 Center     Atomic      Atomic             Coordinates (Angstroms)
 Number     Number       Type             X           Y           Z
 ---------------------------------------------------------------------
      1         33           0        0.000000    0.000000    0.067997
      2          1           0        0.000000    1.302769   -0.747970
      3          1           0       -1.128231   -0.651385   -0.747970
      4          1           0        1.128231   -0.651385   -0.747970
 ---------------------------------------------------------------------
 Rotational constants (GHZ):         112.2893117         112.2893117          98.4862911
 Standard basis: 3-21G (6D, 7F)
 There are    21 symmetry adapted cartesian basis functions of A'  symmetry.
 There are     8 symmetry adapted cartesian basis functions of A"  symmetry.
 There are    21 symmetry adapted basis functions of A'  symmetry.
 There are     8 symmetry adapted basis functions of A"  symmetry.
    29 basis functions,    66 primitive gaussians,    29 cartesian basis functions
    18 alpha electrons       18 beta electrons
       nuclear repulsion energy        34.7838526782 Hartrees.
 NAtoms=    4 NActive=    4 NUniq=    2 SFac= 4.00D+00 NAtFMM=   60 NAOKFM=F Big=F
 Integral buffers will be    131072 words long.
 Raffenetti 1 integral format.
 Two-electron integral symmetry is turned on.
 One-electron integrals computed using PRISM.
 NBasis=    29 RedAO= T EigKep=  8.25D-03  NBF=    21     8
 NBsUse=    29 1.00D-06 EigRej= -1.00D+00 NBFU=    21     8
 Initial guess from the checkpoint file:  "AsH3.chk"
 B after Tr=     0.000000    0.000000    0.000000
         Rot=    1.000000    0.000000    0.000000    0.000000 Ang=   0.00 deg.
 Initial guess orbital symmetries:
       Occupied  (A1) (A1) (E) (E) (A1) (A1) (E) (E) (A1) (E) (E)
                 (E) (E) (A1) (A1) (E) (E) (A1)
       Virtual   (E) (E) (A1) (E) (E) (A1) (A1) (A1) (E) (E) (A1)
 Keep R1 ints in memory in symmetry-blocked form, NReq=923405.
 Requested convergence on RMS density matrix=1.00D-08 within 128 cycles.
 Requested convergence on MAX density matrix=1.00D-06.
 Requested convergence on             energy=1.00D-06.
 No special actions if energy rises.
 SCF Done:  E(RHF) =  -2225.14370447     A.U. after    1 cycles
            NFock=  1  Conv=0.57D-09     -V/T= 1.9925
 ExpMin= 1.14D-01 ExpMax= 5.41D+03 ExpMxC= 5.41D+03 IAcc=3 IRadAn=         5 AccDes= 0.00D+00
 HarFok:  IExCor=  205 AccDes= 0.00D+00 IRadAn=         5 IDoV=-2 UseB2=F ITyADJ=14
 ICtDFT= 12500011 ScaDFX=  1.000000  1.000000  1.000000  1.000000
 Range of M.O.s used for correlation:    10    29
 NBasis=    29 NAE=    18 NBE=    18 NFC=     9 NFV=     0
 NROrb=     20 NOA=     9 NOB=     9 NVA=    11 NVB=    11
 Disk-based method using ON**2 memory for  9 occupieds at a time.
 Permanent disk used for amplitudes=       47619 words.
 Estimated scratch disk usage=      992980 words.
 Actual    scratch disk usage=      992980 words.
 JobTyp=1 Pass  1:  I=  10 to  18 NPSUse=  1 ParTrn=F ParDer=F DoDerP=T.
 (rs|ai) integrals will be sorted in core.
 Spin components of T(2) and E(2):
     alpha-alpha T2 =       0.1281143307D-02 E2=     -0.2772924666D-02
     alpha-beta  T2 =       0.2976750173D-01 E2=     -0.5697499245D-01
     beta-beta   T2 =       0.1281143307D-02 E2=     -0.2772924666D-02
 ANorm=    0.1016036313D+01
 E2 =    -0.6252084178D-01 EUMP2 =    -0.22252062253166D+04
 G2DrvN: will do     5 centers at a time, making    1 passes.
 Calling FoFCou, ICntrl=  3107 FMM=F I1Cent=   0 AccDes= 0.00D+00.
 End of G2Drv F.D. properties file   721 does not exist.
 End of G2Drv F.D. properties file   722 does not exist.
 End of G2Drv F.D. properties file   788 does not exist.
          IDoAtm=1111
          Differentiating once with respect to electric field.
                with respect to dipole field.
          Differentiating once with respect to nuclear coordinates.
 Keep R1 ints in memory in symmetry-blocked form, NReq=923998.
          There are    15 degrees of freedom in the 1st order CPHF.  IDoFFX=6 NUNeed=    15.
     12 vectors produced by pass  0 Test12= 1.32D-15 6.67D-09 XBig12= 8.54D+00 2.00D+00.
 AX will form    12 AO Fock derivatives at one time.
     12 vectors produced by pass  1 Test12= 1.32D-15 6.67D-09 XBig12= 1.15D-01 1.71D-01.
     12 vectors produced by pass  2 Test12= 1.32D-15 6.67D-09 XBig12= 7.52D-04 1.60D-02.
     12 vectors produced by pass  3 Test12= 1.32D-15 6.67D-09 XBig12= 1.61D-06 7.13D-04.
     12 vectors produced by pass  4 Test12= 1.32D-15 6.67D-09 XBig12= 7.42D-09 3.99D-05.
     10 vectors produced by pass  5 Test12= 1.32D-15 6.67D-09 XBig12= 1.31D-11 1.23D-06.
      3 vectors produced by pass  6 Test12= 1.32D-15 6.67D-09 XBig12= 1.33D-14 6.08D-08.
 InvSVY:  IOpt=1 It=  1 EMax= 7.77D-16
 Solved reduced A of dimension    73 with    12 vectors.
 End of Minotr F.D. properties file   721 does not exist.
 End of Minotr F.D. properties file   722 does not exist.
 End of Minotr F.D. properties file   788 does not exist.
 MDV=   104857600.
 Form MO integral derivatives with frozen-active canonical formalism.
 Discarding MO integrals.
 Reordered first order wavefunction length =        78408
 In DefCFB: NBatch=  1 ICI= 18 ICA= 11 LFMax= 18
            Large arrays: LIAPS=      666072 LIARS=      924462 words.
 Semi-Direct transformation.
 ModeAB=           4 MOrb=            18 LenV=     104673856
 LASXX=       100584 LTotXX=      100584 LenRXX=      227241
 LTotAB=      126657 MaxLAS=      219240 LenRXY=           0
 NonZer=      327825 LenScr=      983040 LnRSAI=      219240
 LnScr1=      785920 LExtra=           0 Total=      2215441
 MaxDsk=          -1 SrtSym=           T ITran=            4
 JobTyp=0 Pass  1:  I=   1 to  18.
 (rs|ai) integrals will be sorted in core.
 Spin components of T(2) and E(2):
     alpha-alpha T2 =       0.1281143307D-02 E2=     -0.2772924666D-02
     alpha-beta  T2 =       0.2976750173D-01 E2=     -0.5697499245D-01
     beta-beta   T2 =       0.1281143307D-02 E2=     -0.2772924666D-02
 ANorm=    0.1436892333D+01
 E2 =    -0.6252084178D-01 EUMP2 =    -0.22252062253166D+04
          IDoAtm=1111
          Differentiating once with respect to electric field.
                with respect to dipole field.
          Differentiating once with respect to nuclear coordinates.
          There are     1 degrees of freedom in the 1st order CPHF.  IDoFFX=0 NUNeed=     1.
 LinEq1:  Iter=  0 NonCon=     1 RMS=3.12D-03 Max=1.99D-02 NDo=     1
 LinEq1:  Iter=  1 NonCon=     1 RMS=3.54D-04 Max=3.15D-03 NDo=     1
 LinEq1:  Iter=  2 NonCon=     1 RMS=6.53D-05 Max=4.29D-04 NDo=     1
 LinEq1:  Iter=  3 NonCon=     1 RMS=1.13D-05 Max=8.54D-05 NDo=     1
 LinEq1:  Iter=  4 NonCon=     1 RMS=8.73D-07 Max=7.22D-06 NDo=     1
 LinEq1:  Iter=  5 NonCon=     1 RMS=6.75D-08 Max=4.64D-07 NDo=     1
 LinEq1:  Iter=  6 NonCon=     1 RMS=2.17D-09 Max=1.25D-08 NDo=     1
 LinEq1:  Iter=  7 NonCon=     1 RMS=1.55D-10 Max=1.01D-09 NDo=     1
 LinEq1:  Iter=  8 NonCon=     0 RMS=9.98D-12 Max=5.56D-11 NDo=     1
 Linear equations converged to 1.000D-10 1.000D-09 after     8 iterations.
 End of Minotr F.D. properties file   721 does not exist.
 End of Minotr F.D. properties file   722 does not exist.
 End of Minotr F.D. properties file   788 does not exist.
 Symmetrizing basis deriv contribution to polar:
 IMax=3 JMax=2 DiffMx= 0.00D+00
 G2DrvN: will do     5 centers at a time, making    1 passes.
 Calling FoFCou, ICntrl=  3107 FMM=F I1Cent=   0 AccDes= 0.00D+00.
 End of G2Drv F.D. properties file   721 does not exist.
 End of G2Drv F.D. properties file   722 does not exist.
 End of G2Drv F.D. properties file   788 does not exist.
 R2 and R3 integrals will be kept in memory, NReq=     1009660.
 DD1Dir will call FoFMem   1 times, MxPair=       342
 NAB=   171 NAA=     0 NBB=     0.
 Discarding MO integrals.

 **********************************************************************

            Population analysis using the SCF Density.

 **********************************************************************

 Orbital symmetries:
       Occupied  (A1) (A1) (E) (E) (A1) (A1) (E) (E) (A1) (E) (E)
                 (E) (E) (A1) (A1) (E) (E) (A1)
       Virtual   (E) (E) (A1) (E) (E) (A1) (A1) (A1) (E) (E) (A1)
 The electronic state is 1-A1.
 Alpha  occ. eigenvalues -- -429.47246 -55.97544 -49.71590 -49.71590 -49.71525
 Alpha  occ. eigenvalues --   -7.97340  -5.79946  -5.79946  -5.79437  -2.02693
 Alpha  occ. eigenvalues --   -2.02693  -2.02168  -2.02168  -2.01911  -0.83254
 Alpha  occ. eigenvalues --   -0.49659  -0.49659  -0.37032
 Alpha virt. eigenvalues --    0.15850   0.15850   0.25147   0.56248   0.56248
 Alpha virt. eigenvalues --    0.58349   0.68075   1.21594   1.27247   1.27247
 Alpha virt. eigenvalues --   12.67239
          Condensed to atoms (all electrons):
               1          2          3          4
     1  As  31.807384   0.306164   0.306164   0.306164
     2  H    0.306164   0.833856  -0.024323  -0.024323
     3  H    0.306164  -0.024323   0.833856  -0.024323
     4  H    0.306164  -0.024323  -0.024323   0.833856
 Mulliken charges:
               1
     1  As   0.274124
     2  H   -0.091375
     3  H   -0.091375
     4  H   -0.091375
 Sum of Mulliken charges =   0.00000
 Mulliken charges with hydrogens summed into heavy atoms:
               1
     1  As   0.000000
 APT charges:
               1
     1  As   0.540788
     2  H   -0.180263
     3  H   -0.180263
     4  H   -0.180263
 Sum of APT charges =  -0.00000
 APT charges with hydrogens summed into heavy atoms:
               1
     1  As  -0.000000
 Electronic spatial extent (au):  <R**2>=             72.1439
 Charge=              0.0000 electrons
 Dipole moment (field-independent basis, Debye):
    X=              0.0000    Y=              0.0000    Z=             -0.6062  Tot=              0.6062
 Quadrupole moment (field-independent basis, Debye-Ang):
   XX=            -20.4264   YY=            -20.4264   ZZ=            -22.9328
   XY=              0.0000   XZ=             -0.0000   YZ=             -0.0000
 Traceless Quadrupole moment (field-independent basis, Debye-Ang):
   XX=              0.8355   YY=              0.8355   ZZ=             -1.6709
   XY=              0.0000   XZ=             -0.0000   YZ=             -0.0000
 Octapole moment (field-independent basis, Debye-Ang**2):
  XXX=              0.0000  YYY=             -0.9912  ZZZ=              2.0477  XYY=              0.0000
  XXY=              0.9912  XXZ=              1.7621  XZZ=              0.0000  YZZ=              0.0000
  YYZ=              1.7621  XYZ=             -0.0000
 Hexadecapole moment (field-independent basis, Debye-Ang**3):
 XXXX=            -41.3551 YYYY=            -41.3551 ZZZZ=            -44.1494 XXXY=              0.0000
 XXXZ=             -0.0000 YYYX=              0.0000 YYYZ=              0.3575 ZZZX=             -0.0000
 ZZZY=             -0.0000 XXYY=            -13.7850 XXZZ=            -14.4222 YYZZ=            -14.4222
 XXYZ=             -0.3575 YYXZ=             -0.0000 ZZXY=              0.0000
 N-N= 3.478385267824D+01 E-N=-5.417334892788D+03  KE= 2.242027780559D+03
 Symmetry A'   KE= 1.917934727107D+03
 Symmetry A"   KE= 3.240930534529D+02
  Exact polarizability:      25.439       0.000      25.439       0.000      -0.000      18.572
 Approx polarizability:      21.304      -0.000      21.304       0.000       0.000      14.893
 Calling FoFJK, ICntrl=  10100127 FMM=F ISym2X=1 I1Cent= 0 IOpClX= 0 NMat=1 NMatS=1 NMatT=0.
 Full mass-weighted force constant matrix:
 Low frequencies ---  -22.8014  -16.1855  -16.1839    0.0030    0.0124    0.0125
 Low frequencies ---  934.0067  986.1788  986.1789
 Diagonal vibrational polarizability:
        1.8779406       1.8779405       3.0214739
 Harmonic frequencies (cm**-1), IR intensities (KM/Mole), Raman scattering
 activities (A**4/AMU), depolarization ratios for plane and unpolarized
 incident light, reduced masses (AMU), force constants (mDyne/A),
 and normal coordinates:
                           1         2         3         4         5
                          A1         E         E         E         E
       Frequencies ---   934.0067  986.1788  986.1788 2082.2984 2082.2984
    Reduced masses ---     1.0394    1.0162    1.0162    1.0217    1.0217
   Force constants ---     0.5342    0.5823    0.5823    2.6102    2.6102
    IR Intensities ---    80.9629   32.2629   32.2629  158.7367  158.7367
 Coord Atom Element:
   1     1    33         -0.00000  -0.00000  -0.01062   0.00000  -0.01372
   2     1    33         -0.00000  -0.01062   0.00000  -0.01372  -0.00000
   3     1    33         -0.02066   0.00000   0.00000   0.00000   0.00000
   1     2     1          0.00000   0.00000   0.72110   0.00000  -0.01631
   2     2     1          0.26687  -0.19502   0.00000   0.69633   0.00000
   3     2     1          0.51183  -0.32950   0.00000  -0.42591  -0.00000
   1     3     1         -0.23111  -0.39669   0.03401   0.30858   0.51817
   2     3     1         -0.13343   0.49207  -0.39669   0.16185   0.30858
   3     3     1          0.51183   0.16475   0.28536   0.21296   0.36885
   1     4     1          0.23111   0.39669   0.03401  -0.30858   0.51817
   2     4     1         -0.13343   0.49207   0.39669   0.16185  -0.30858
   3     4     1          0.51183   0.16475  -0.28536   0.21296  -0.36885
                           6
                          A1
       Frequencies ---  2093.3075
    Reduced masses ---     1.0159
   Force constants ---     2.6228
    IR Intensities ---    85.3057
 Coord Atom Element:
   1     1    33          0.00000
   2     1    33          0.00000
   3     1    33          0.01044
   1     2     1          0.00000
   2     2     1          0.51613
   3     2     1         -0.25867
   1     3     1         -0.44698
   2     3     1         -0.25806
   3     3     1         -0.25867
   1     4     1          0.44698
   2     4     1         -0.25806
   3     4     1         -0.25867
 Harmonic frequencies (cm**-1), IR intensities (KM/Mole), Raman scattering
 activities (A**4/AMU), depolarization ratios for plane and unpolarized
 incident light, reduced masses (AMU), force constants (mDyne/A),
 and normal coordinates:
                      1                      2                      3
                     A1                      E                      E
 Frequencies --    934.0067               986.1788               986.1788
 Red. masses --      1.0394                 1.0162                 1.0162
 Frc consts  --      0.5342                 0.5823                 0.5823
 IR Inten    --     80.9629                32.2629                32.2629
  Atom  AN      X      Y      Z        X      Y      Z        X      Y      Z
     1  33    -0.00  -0.00  -0.02    -0.00  -0.01   0.00    -0.01   0.00   0.00
     2   1     0.00   0.27   0.51     0.00  -0.20  -0.33     0.72   0.00   0.00
     3   1    -0.23  -0.13   0.51    -0.40   0.49   0.16     0.03  -0.40   0.29
     4   1     0.23  -0.13   0.51     0.40   0.49   0.16     0.03   0.40  -0.29
                      4                      5                      6
                      E                      E                     A1
 Frequencies --   2082.2984              2082.2984              2093.3075
 Red. masses --      1.0217                 1.0217                 1.0159
 Frc consts  --      2.6102                 2.6102                 2.6228
 IR Inten    --    158.7367               158.7367                85.3057
  Atom  AN      X      Y      Z        X      Y      Z        X      Y      Z
     1  33     0.00  -0.01   0.00    -0.01  -0.00   0.00     0.00   0.00   0.01
     2   1     0.00   0.70  -0.43    -0.02   0.00  -0.00     0.00   0.52  -0.26
     3   1     0.31   0.16   0.21     0.52   0.31   0.37    -0.45  -0.26  -0.26
     4   1    -0.31   0.16   0.21     0.52  -0.31  -0.37     0.45  -0.26  -0.26

 -------------------
 - Thermochemistry -
 -------------------
 Temperature   298.150 Kelvin.  Pressure   1.00000 Atm.
 Atom     1 has atomic number 33 and mass  74.92160
 Atom     2 has atomic number  1 and mass   1.00783
 Atom     3 has atomic number  1 and mass   1.00783
 Atom     4 has atomic number  1 and mass   1.00783
 Molecular mass:    77.94507 amu.
 Principal axes and moments of inertia in atomic units:
                           1         2         3
     Eigenvalues --    16.07224  16.07224  18.32480
           X           -0.44721   0.89443  -0.00000
           Y            0.89443   0.44721  -0.00000
           Z           -0.00000   0.00000   1.00000
 This molecule is an oblate symmetric top.
 Rotational symmetry number  3.
 Rotational temperatures (Kelvin)      5.38904     5.38904     4.72660
 Rotational constants (GHZ):         112.28931   112.28931    98.48629
 Zero-point vibrational energy      54814.5 (Joules/Mol)
                                   13.10098 (Kcal/Mol)
 Vibrational temperatures:   1343.83  1418.89  1418.89  2995.96  2995.96
          (Kelvin)           3011.80
 
 Zero-point correction=                           0.020878 (Hartree/Particle)
 Thermal correction to Energy=                    0.023837
 Thermal correction to Enthalpy=                  0.024781
 Thermal correction to Gibbs Free Energy=        -0.000556
 Sum of electronic and zero-point Energies=          -2225.185348
 Sum of electronic and thermal Energies=             -2225.182389
 Sum of electronic and thermal Enthalpies=           -2225.181444
 Sum of electronic and thermal Free Energies=        -2225.206781
 
                     E (Thermal)             CV                S
                      KCal/Mol        Cal/Mol-Kelvin    Cal/Mol-Kelvin
 Total                   14.958              7.228             53.326
 Electronic               0.000              0.000              0.000
 Translational            0.889              2.981             38.975
 Rotational               0.889              2.981             14.028
 Vibrational             13.180              1.266              0.323
                       Q            Log10(Q)             Ln(Q)
 Total Bot       0.180187D+01          0.255723          0.588825
 Total V=0       0.722452D+10          9.858809         22.700746
 Vib (Bot)       0.256606D-09         -9.590734        -22.083481
 Vib (V=0)       0.102885D+01          0.012352          0.028440
 Electronic      0.100000D+01          0.000000          0.000000
 Translational   0.270481D+08          7.432137         17.113128
 Rotational      0.259609D+03          2.414320          5.559178
 ***** Axes restored to original set *****
 -------------------------------------------------------------------
 Center     Atomic                   Forces (Hartrees/Bohr)
 Number     Number              X              Y              Z
 -------------------------------------------------------------------
      1       33          -0.000000000    0.000000000   -0.000013612
      2        1          -0.000000000    0.000048817    0.000004537
      3        1          -0.000042277   -0.000024408    0.000004537
      4        1           0.000042277   -0.000024408    0.000004537
 -------------------------------------------------------------------
 Cartesian Forces:  Max     0.000048817 RMS     0.000024827
 FormGI is forming the generalized inverse of G from B-inverse, IUseBI=4.

 GradGradGradGradGradGradGradGradGradGradGradGradGradGradGradGradGradGrad
 Berny optimization.
 Internal  Forces:  Max     0.000060736 RMS     0.000044738
 Search for a local minimum.
 Step number   1 out of a maximum of    2
 All quantities printed in internal units (Hartrees-Bohrs-Radians)
 Second derivative matrix not updated -- analytic derivatives used.
 The second derivative matrix:
                          R1        R2        R3        A1        A2
           R1           0.16350
           R2           0.00049   0.16350
           R3           0.00049   0.00049   0.16350
           A1           0.00509   0.00509   0.00154   0.03820
           A2           0.01101   0.00447   0.01126  -0.00867   0.15011
           A3           0.00447   0.01101   0.01126  -0.00867   0.00080
           D1          -0.00643  -0.00643  -0.00345  -0.03698  -0.00401
                          A3        D1
           A3           0.15011
           D1          -0.00401   0.03790
 ITU=  0
     Eigenvalues ---    0.07275   0.13665   0.14669   0.16345   0.16563
     Eigenvalues ---    0.18168
 Angle between quadratic step and forces=  22.57 degrees.
 Linear search not attempted -- first point.
 Iteration  1 RMS(Cart)=  0.00042841 RMS(Int)=  0.00000010
 Iteration  2 RMS(Cart)=  0.00000007 RMS(Int)=  0.00000005
 ClnCor:  largest displacement from symmetrization is 8.93D-09 for atom     4.
 Variable       Old X    -DE/DX   Delta X   Delta X   Delta X     New X
                                 (Linear)    (Quad)   (Total)
    R1        2.90490   0.00004   0.00000   0.00017   0.00017   2.90508
    R2        2.90490   0.00004   0.00000   0.00017   0.00017   2.90508
    R3        2.90490   0.00004   0.00000   0.00017   0.00017   2.90508
    A1        1.64823   0.00003   0.00000   0.00038   0.00038   1.64861
    A2        1.64823   0.00006   0.00000   0.00038   0.00038   1.64861
    A3        1.64823   0.00006   0.00000   0.00038   0.00038   1.64861
    D1       -1.65474  -0.00004   0.00000  -0.00045  -0.00045  -1.65519
         Item               Value     Threshold  Converged?
 Maximum Force            0.000061     0.000450     YES
 RMS     Force            0.000045     0.000300     YES
 Maximum Displacement     0.000581     0.001800     YES
 RMS     Displacement     0.000428     0.001200     YES
 Predicted change in Energy=-4.662581D-08
 Optimization completed.
    -- Stationary point found.
                           ----------------------------
                           !   Optimized Parameters   !
                           ! (Angstroms and Degrees)  !
 --------------------------                            --------------------------
 ! Name  Definition              Value          Derivative Info.                !
 --------------------------------------------------------------------------------
 ! R1    R(1,2)                  1.5372         -DE/DX =    0.0                 !
 ! R2    R(1,3)                  1.5372         -DE/DX =    0.0                 !
 ! R3    R(1,4)                  1.5372         -DE/DX =    0.0                 !
 ! A1    A(2,1,3)               94.4368         -DE/DX =    0.0                 !
 ! A2    A(2,1,4)               94.4368         -DE/DX =    0.0001              !
 ! A3    A(3,1,4)               94.4368         -DE/DX =    0.0001              !
 ! D1    D(2,1,4,3)            -94.8096         -DE/DX =    0.0                 !
 --------------------------------------------------------------------------------
 GradGradGradGradGradGradGradGradGradGradGradGradGradGradGradGradGradGrad


 ----------------------------------------------------------------------

 Electric dipole moment (input orientation):
 (Debye = 10**-18 statcoulomb cm , SI units = C m)
                  (au)            (Debye)         (10**-30 SI)
   Tot        0.273329D+00      0.694733D+00      0.231738D+01
   x          0.000000D+00      0.000000D+00      0.000000D+00
   y          0.000000D+00      0.000000D+00      0.000000D+00
   z         -0.273329D+00     -0.694733D+00     -0.231738D+01

 Dipole polarizability, Alpha (input orientation).
 (esu units = cm**3 , SI units = C**2 m**2 J**-1)
 Alpha(0;0):
               (au)            (10**-24 esu)      (10**-40 SI)
   iso        0.231499D+02      0.343046D+01      0.381690D+01
   aniso      0.686635D+01      0.101749D+01      0.113211D+01
   xx         0.254387D+02      0.376962D+01      0.419427D+01
   yx         0.000000D+00      0.000000D+00      0.000000D+00
   yy         0.254387D+02      0.376962D+01      0.419427D+01
   zx         0.000000D+00      0.000000D+00      0.000000D+00
   zy         0.000000D+00      0.000000D+00      0.000000D+00
   zz         0.185723D+02      0.275213D+01      0.306216D+01

 ----------------------------------------------------------------------

 Dipole orientation:
    33          0.00000000          0.00000000         -0.52229731
     1         -0.00000001         -2.46187714          1.01965805
     1         -2.13204814          1.23093858          1.01965805
     1          2.13204815          1.23093856          1.01965805

 Electric dipole moment (dipole orientation):
 (Debye = 10**-18 statcoulomb cm , SI units = C m)
                  (au)            (Debye)         (10**-30 SI)
   Tot        0.273329D+00      0.694733D+00      0.231738D+01
   x          0.000000D+00      0.000000D+00      0.000000D+00
   y          0.000000D+00      0.000000D+00      0.000000D+00
   z          0.273329D+00      0.694733D+00      0.231738D+01

 Dipole polarizability, Alpha (dipole orientation).
 (esu units = cm**3 , SI units = C**2 m**2 J**-1)
 Alpha(0;0):
               (au)            (10**-24 esu)      (10**-40 SI)
   iso        0.231499D+02      0.343046D+01      0.381690D+01
   aniso      0.686635D+01      0.101749D+01      0.113211D+01
   xx         0.254387D+02      0.376962D+01      0.419427D+01
   yx         0.000000D+00      0.000000D+00      0.000000D+00
   yy         0.254387D+02      0.376962D+01      0.419427D+01
   zx         0.000000D+00      0.000000D+00      0.000000D+00
   zy         0.000000D+00      0.000000D+00      0.000000D+00
   zz         0.185723D+02      0.275213D+01      0.306216D+01

 ----------------------------------------------------------------------
 Unable to Open any file for archive entry.
 1\1\GINC-BS001\Freq\RMP2-FC\3-21G\As1H3\PNATT\10-Aug-2026\0\\#N Geom=A
 llCheck Guess=TCheck SCRF=Check GenChk RMP2(FC)/3-21G Freq\\Title Card
  Required\\0,1\As,0.,-0.0000000003,0.276387832\H,-0.0000000059,1.30276
 9281,-0.5395798004\H,-1.1282312899,-0.651384646,-0.5395798004\H,1.1282
 312958,-0.6513846358,-0.5395798004\\Version=ES64L-G16RevC.01\State=1-A
 1\HF=-2225.1437045\MP2=-2225.2062253\RMSD=5.667e-10\RMSF=2.483e-05\Zer
 oPoint=0.0208777\Thermal=0.0238367\ETot=-2225.1823886\HTot=-2225.18144
 44\GTot=-2225.2067813\Dipole=0.,0.,-0.273329\DipoleDeriv=0.4776966,0.,
 0.,0.,0.4776966,0.,0.,0.,0.6669719,-0.099186,0.,0.,0.,-0.2192784,0.076
 6366,0.,0.2734812,-0.222324,-0.1892553,-0.0520015,-0.0663693,-0.052001
 5,-0.1292091,-0.0383183,-0.2368417,-0.1367406,-0.222324,-0.1892553,0.0
 520015,0.0663693,0.0520015,-0.1292091,-0.0383183,0.2368417,-0.1367406,
 -0.222324\Polar=25.4386567,0.,25.4386566,0.,0.,18.572303\PG=C03V [C3(A
 s1),3SGV(H1)]\NImag=0\\0.19264540,0.,0.19264540,0.,0.,0.17590911,-0.01
 822637,0.,0.,0.01916864,0.,-0.11020390,0.05318572,0.,0.12695848,0.,0.0
 8043645,-0.05863637,0.,-0.06374358,0.05311892,-0.08720951,-0.03982744,
 -0.04606018,-0.00047113,-0.00234339,-0.00127677,0.10001102,-0.03982744
 ,-0.04122075,-0.02659286,-0.01135048,-0.00837729,-0.00834644,0.0466743
 7,0.04611610,-0.06966001,-0.04021823,-0.05863637,0.00658984,0.00527893
 ,0.00275873,0.05520356,0.03187179,0.05311892,-0.08720952,0.03982744,0.
 04606018,-0.00047113,0.00234339,0.00127677,-0.01233037,0.00450354,0.00
 786661,0.10001102,0.03982744,-0.04122075,-0.02659286,0.01135048,-0.008
 37729,-0.00834644,-0.00450354,0.00348194,0.00306750,-0.04667437,0.0461
 1610,0.06966001,-0.04021823,-0.05863637,-0.00658984,0.00527893,0.00275
 873,-0.00786661,0.00306750,0.00275873,-0.05520356,0.03187179,0.0531189
 2\\0.,0.,0.00001361,0.,-0.00004882,-0.00000454,0.00004228,0.00002441,-
 0.00000454,-0.00004228,0.00002441,-0.00000454\\\@
 The archive entry for this job was punched.


 ONE THORN OF EXPERIENCE IS WORTH A WHOLE WILDERNESS OF
 WARNING....  LOWELL - AMONG MY BOOKS
 Job cpu time:       0 days  0 hours  0 minutes  5.4 seconds.
 Elapsed time:       0 days  0 hours  0 minutes  5.2 seconds.
 File lengths (MBytes):  RWF=     25 Int=      0 D2E=      0 Chk=      1 Scr=      1
 Normal termination of Gaussian 16 at Mon Aug 10 15:52:01 2026.
