 Entering Gaussian System, Link 0=g16
 Input=BH3.com
 Output=BH3.log
 Initial command:
 /opt/g16/g16/l1.exe "/home/pnatt/scratch/Gau-1449518.inp" -scrdir="/home/pnatt/scratch/"
 Entering Link 1 = /opt/g16/g16/l1.exe PID=   1449520.
  
 Copyright (c) 1988-2019, Gaussian, Inc.  All Rights Reserved.
  
 This is part of the Gaussian(R) 16 program.  It is based on
 the Gaussian(R) 09 system (copyright 2009, Gaussian, Inc.),
 the Gaussian(R) 03 system (copyright 2003, Gaussian, Inc.),
 the Gaussian(R) 98 system (copyright 1998, Gaussian, Inc.),
 the Gaussian(R) 94 system (copyright 1995, Gaussian, Inc.),
 the Gaussian 92(TM) system (copyright 1992, Gaussian, Inc.),
 the Gaussian 90(TM) system (copyright 1990, Gaussian, Inc.),
 the Gaussian 88(TM) system (copyright 1988, Gaussian, Inc.),
 the Gaussian 86(TM) system (copyright 1986, Carnegie Mellon
 University), and the Gaussian 82(TM) system (copyright 1983,
 Carnegie Mellon University). Gaussian is a federally registered
 trademark of Gaussian, Inc.
  
 This software contains proprietary and confidential information,
 including trade secrets, belonging to Gaussian, Inc.
  
 This software is provided under written license and may be
 used, copied, transmitted, or stored only in accord with that
 written license.
  
 The following legend is applicable only to US Government
 contracts under FAR:
  
                    RESTRICTED RIGHTS LEGEND
  
 Use, reproduction and disclosure by the US Government is
 subject to restrictions as set forth in subparagraphs (a)
 and (c) of the Commercial Computer Software - Restricted
 Rights clause in FAR 52.227-19.
  
 Gaussian, Inc.
 340 Quinnipiac St., Bldg. 40, Wallingford CT 06492
  
  
 ---------------------------------------------------------------
 Warning -- This program may not be used in any manner that
 competes with the business of Gaussian, Inc. or will provide
 assistance to any competitor of Gaussian, Inc.  The licensee
 of this program is prohibited from giving any competitor of
 Gaussian, Inc. access to this program.  By using this program,
 the user acknowledges that Gaussian, Inc. is engaged in the
 business of creating and licensing software in the field of
 computational chemistry and represents and warrants to the
 licensee that it is not a competitor of Gaussian, Inc. and that
 it will not use this program in any manner prohibited above.
 ---------------------------------------------------------------
  

 Cite this work as:
 Gaussian 16, Revision C.01,
 M. J. Frisch, G. W. Trucks, H. B. Schlegel, G. E. Scuseria, 
 M. A. Robb, J. R. Cheeseman, G. Scalmani, V. Barone, 
 G. A. Petersson, H. Nakatsuji, X. Li, M. Caricato, A. V. Marenich, 
 J. Bloino, B. G. Janesko, R. Gomperts, B. Mennucci, H. P. Hratchian, 
 J. V. Ortiz, A. F. Izmaylov, J. L. Sonnenberg, D. Williams-Young, 
 F. Ding, F. Lipparini, F. Egidi, J. Goings, B. Peng, A. Petrone, 
 T. Henderson, D. Ranasinghe, V. G. Zakrzewski, J. Gao, N. Rega, 
 G. Zheng, W. Liang, M. Hada, M. Ehara, K. Toyota, R. Fukuda, 
 J. Hasegawa, M. Ishida, T. Nakajima, Y. Honda, O. Kitao, H. Nakai, 
 T. Vreven, K. Throssell, J. A. Montgomery, Jr., J. E. Peralta, 
 F. Ogliaro, M. J. Bearpark, J. J. Heyd, E. N. Brothers, K. N. Kudin, 
 V. N. Staroverov, T. A. Keith, R. Kobayashi, J. Normand, 
 K. Raghavachari, A. P. Rendell, J. C. Burant, S. S. Iyengar, 
 J. Tomasi, M. Cossi, J. M. Millam, M. Klene, C. Adamo, R. Cammi, 
 J. W. Ochterski, R. L. Martin, K. Morokuma, O. Farkas, 
 J. B. Foresman, and D. J. Fox, Gaussian, Inc., Wallingford CT, 2019.
 
 ******************************************
 Gaussian 16:  ES64L-G16RevC.01  3-Jul-2019
                10-Aug-2026 
 ******************************************
 %chk=BH3.chk
 ----------------------------------------------
 # opt freq=hpmodes mp2/3-21g geom=connectivity
 ----------------------------------------------
 1/18=20,19=15,38=1,57=2/1,3;
 2/9=110,12=2,17=6,18=5,40=1/2;
 3/5=5,11=9,25=1,30=1,71=1/1,2,3;
 4//1;
 5/5=2,38=5/2;
 8/6=4,10=1/1;
 9/15=2,16=-3/6;
 10/5=1/2;
 6/7=2,8=2,9=2,10=2/1;
 7/12=2/1,2,3,16;
 1/18=20,19=15/3(2);
 2/9=110/2;
 99//99;
 2/9=110/2;
 3/5=5,11=9,25=1,30=1,71=1/1,2,3;
 4/5=5,16=3,69=1/1;
 5/5=2,38=5/2;
 8/6=4,10=1/1;
 9/15=2,16=-3/6;
 10/5=1/2;
 7/12=2/1,2,3,16;
 1/18=20,19=15/3(-8);
 2/9=110/2;
 6/7=2,8=2,9=2,10=2/1;
 99/9=10/99;
 -------------------
 Title Card Required
 -------------------
 Symbolic Z-matrix:
 Charge =  0 Multiplicity = 1
 B                     0.        0.        0. 
 H                     0.        1.18      0. 
 H                    -1.02191  -0.59      0. 
 H                     1.02191  -0.59      0. 
 

 GradGradGradGradGradGradGradGradGradGradGradGradGradGradGradGradGradGrad
 Berny optimization.
 Initialization pass.
                           ----------------------------
                           !    Initial Parameters    !
                           ! (Angstroms and Degrees)  !
 --------------------------                            --------------------------
 ! Name  Definition              Value          Derivative Info.                !
 --------------------------------------------------------------------------------
 ! R1    R(1,2)                  1.18           estimate D2E/DX2                !
 ! R2    R(1,3)                  1.18           estimate D2E/DX2                !
 ! R3    R(1,4)                  1.18           estimate D2E/DX2                !
 ! A1    A(2,1,3)              120.0            estimate D2E/DX2                !
 ! A2    A(2,1,4)              120.0            estimate D2E/DX2                !
 ! A3    A(3,1,4)              120.0            estimate D2E/DX2                !
 ! D1    D(2,1,4,3)            180.0            estimate D2E/DX2                !
 --------------------------------------------------------------------------------
 Trust Radius=3.00D-01 FncErr=1.00D-07 GrdErr=1.00D-07 EigMax=2.50D+02 EigMin=1.00D-04
 Number of steps in this run=     20 maximum allowed number of steps=    100.
 GradGradGradGradGradGradGradGradGradGradGradGradGradGradGradGradGradGrad

                          Input orientation:                          
 ---------------------------------------------------------------------
 Center     Atomic      Atomic             Coordinates (Angstroms)
 Number     Number       Type             X           Y           Z
 ---------------------------------------------------------------------
      1          5           0        0.000000    0.000000    0.000000
      2          1           0        0.000000    1.180000    0.000000
      3          1           0       -1.021910   -0.590000    0.000000
      4          1           0        1.021910   -0.590000    0.000000
 ---------------------------------------------------------------------
                    Distance matrix (angstroms):
                    1          2          3          4
     1  B    0.000000
     2  H    1.180000   0.000000
     3  H    1.180000   2.043820   0.000000
     4  H    1.180000   2.043820   2.043820   0.000000
 Stoichiometry    BH3
 Framework group  D3H[O(B),3C2(H)]
 Deg. of freedom     1
 Full point group                 D3H     NOp  12
 Largest Abelian subgroup         C2V     NOp   4
 Largest concise Abelian subgroup C2      NOp   2
                         Standard orientation:                         
 ---------------------------------------------------------------------
 Center     Atomic      Atomic             Coordinates (Angstroms)
 Number     Number       Type             X           Y           Z
 ---------------------------------------------------------------------
      1          5           0        0.000000    0.000000    0.000000
      2          1           0        0.000000    1.180000    0.000000
      3          1           0        1.021910   -0.590000    0.000000
      4          1           0       -1.021910   -0.590000    0.000000
 ---------------------------------------------------------------------
 Rotational constants (GHZ):         240.0914988         240.0914988         120.0457494
 Standard basis: 3-21G (6D, 7F)
 There are     9 symmetry adapted cartesian basis functions of A1  symmetry.
 There are     0 symmetry adapted cartesian basis functions of A2  symmetry.
 There are     4 symmetry adapted cartesian basis functions of B1  symmetry.
 There are     2 symmetry adapted cartesian basis functions of B2  symmetry.
 There are     9 symmetry adapted basis functions of A1  symmetry.
 There are     0 symmetry adapted basis functions of A2  symmetry.
 There are     4 symmetry adapted basis functions of B1  symmetry.
 There are     2 symmetry adapted basis functions of B2  symmetry.
    15 basis functions,    24 primitive gaussians,    15 cartesian basis functions
     4 alpha electrons        4 beta electrons
       nuclear repulsion energy         7.5035762537 Hartrees.
 NAtoms=    4 NActive=    4 NUniq=    2 SFac= 4.00D+00 NAtFMM=   60 NAOKFM=F Big=F
 Integral buffers will be    131072 words long.
 Raffenetti 1 integral format.
 Two-electron integral symmetry is turned on.
 One-electron integrals computed using PRISM.
 NBasis=    15 RedAO= T EigKep=  3.58D-02  NBF=     9     0     4     2
 NBsUse=    15 1.00D-06 EigRej= -1.00D+00 NBFU=     9     0     4     2
 ExpMin= 1.24D-01 ExpMax= 1.16D+02 ExpMxC= 1.16D+02 IAcc=3 IRadAn=         5 AccDes= 0.00D+00
 Harris functional with IExCor=  205 and IRadAn=       5 diagonalized for initial guess.
 HarFok:  IExCor=  205 AccDes= 0.00D+00 IRadAn=         5 IDoV= 1 UseB2=F ITyADJ=14
 ICtDFT=  3500011 ScaDFX=  1.000000  1.000000  1.000000  1.000000
 FoFCou: FMM=F IPFlag=           0 FMFlag=      100000 FMFlg1=           0
         NFxFlg=           0 DoJE=T BraDBF=F KetDBF=T FulRan=T
         wScrn=  0.000000 ICntrl=       500 IOpCl=  0 I1Cent=   200000004 NGrid=           0
         NMat0=    1 NMatS0=      1 NMatT0=    0 NMatD0=    1 NMtDS0=    0 NMtDT0=    0
 Petite list used in FoFCou.
 Initial guess orbital symmetries:
       Occupied  (A1') (A1') (E') (E')
       Virtual   (A2") (E') (E') (A1') (E') (E') (A2") (A1') (A1')
                 (E') (E')
 The electronic state of the initial guess is 1-A1'.
 Keep R1 ints in memory in symmetry-blocked form, NReq=811742.
 Requested convergence on RMS density matrix=1.00D-08 within 128 cycles.
 Requested convergence on MAX density matrix=1.00D-06.
 Requested convergence on             energy=1.00D-06.
 No special actions if energy rises.
 SCF Done:  E(RHF) =  -26.2372138588     A.U. after    8 cycles
            NFock=  8  Conv=0.37D-08     -V/T= 2.0026
 ExpMin= 1.24D-01 ExpMax= 1.16D+02 ExpMxC= 1.16D+02 IAcc=3 IRadAn=         5 AccDes= 0.00D+00
 HarFok:  IExCor=  205 AccDes= 0.00D+00 IRadAn=         5 IDoV=-2 UseB2=F ITyADJ=14
 ICtDFT= 12500011 ScaDFX=  1.000000  1.000000  1.000000  1.000000
 Range of M.O.s used for correlation:     2    15
 NBasis=    15 NAE=     4 NBE=     4 NFC=     1 NFV=     0
 NROrb=     14 NOA=     3 NOB=     3 NVA=    11 NVB=    11
 Fully direct method using O(ONN) memory.
 JobTyp=1 Pass  1:  I=   2 to   4 NPSUse=  1 ParTrn=F ParDer=F DoDerP=T.
 Spin components of T(2) and E(2):
     alpha-alpha T2 =       0.1167484473D-02 E2=     -0.2589754920D-02
     alpha-beta  T2 =       0.2029754626D-01 E2=     -0.4963854669D-01
     beta-beta   T2 =       0.1167484473D-02 E2=     -0.2589754920D-02
 ANorm=    0.1011252943D+01
 E2 =    -0.5481805653D-01 EUMP2 =    -0.26292031915375D+02
          IDoAtm=1111
          Differentiating once with respect to electric field.
                with respect to dipole field.
          Differentiating once with respect to nuclear coordinates.
 Keep R1 ints in memory in symmetry-blocked form, NReq=812370.
          There are     1 degrees of freedom in the 1st order CPHF.  IDoFFX=0 NUNeed=     1.
 LinEq1:  Iter=  0 NonCon=     1 RMS=3.40D-03 Max=1.36D-02 NDo=     1
 AX will form     1 AO Fock derivatives at one time.
 LinEq1:  Iter=  1 NonCon=     1 RMS=6.24D-04 Max=2.31D-03 NDo=     1
 LinEq1:  Iter=  2 NonCon=     1 RMS=3.47D-05 Max=1.09D-04 NDo=     1
 LinEq1:  Iter=  3 NonCon=     1 RMS=3.25D-06 Max=1.30D-05 NDo=     1
 LinEq1:  Iter=  4 NonCon=     1 RMS=1.44D-07 Max=5.70D-07 NDo=     1
 LinEq1:  Iter=  5 NonCon=     1 RMS=8.51D-09 Max=3.22D-08 NDo=     1
 LinEq1:  Iter=  6 NonCon=     1 RMS=1.41D-10 Max=5.98D-10 NDo=     1
 LinEq1:  Iter=  7 NonCon=     0 RMS=7.16D-12 Max=3.26D-11 NDo=     1
 Linear equations converged to 1.000D-10 1.000D-09 after     7 iterations.
 End of Minotr F.D. properties file   721 does not exist.
 End of Minotr F.D. properties file   722 does not exist.
 End of Minotr F.D. properties file   788 does not exist.

 **********************************************************************

            Population analysis using the SCF Density.

 **********************************************************************

 Orbital symmetries:
       Occupied  (A1') (A1') (E') (E')
       Virtual   (A2") (E') (E') (A1') (E') (E') (A2") (A1') (A1')
                 (E') (E')
 The electronic state is 1-A1'.
 Alpha  occ. eigenvalues --   -7.57185  -0.70854  -0.50091  -0.50091
 Alpha virt. eigenvalues --    0.07757   0.32468   0.32468   0.35221   0.59825
 Alpha virt. eigenvalues --    0.59825   0.68595   0.77384   1.37440   1.43549
 Alpha virt. eigenvalues --    1.43549
          Condensed to atoms (all electrons):
               1          2          3          4
     1  B    3.649140   0.406575   0.406575   0.406575
     2  H    0.406575   0.687777  -0.025321  -0.025321
     3  H    0.406575  -0.025321   0.687777  -0.025321
     4  H    0.406575  -0.025321  -0.025321   0.687777
 Mulliken charges:
               1
     1  B    0.131133
     2  H   -0.043711
     3  H   -0.043711
     4  H   -0.043711
 Sum of Mulliken charges =  -0.00000
 Mulliken charges with hydrogens summed into heavy atoms:
               1
     1  B   -0.000000
 Electronic spatial extent (au):  <R**2>=             34.6348
 Charge=             -0.0000 electrons
 Dipole moment (field-independent basis, Debye):
    X=             -0.0000    Y=              0.0000    Z=              0.0000  Tot=              0.0000
 Quadrupole moment (field-independent basis, Debye-Ang):
   XX=             -9.6687   YY=             -9.6687   ZZ=             -7.1836
   XY=              0.0000   XZ=             -0.0000   YZ=             -0.0000
 Traceless Quadrupole moment (field-independent basis, Debye-Ang):
   XX=             -0.8284   YY=             -0.8284   ZZ=              1.6567
   XY=              0.0000   XZ=             -0.0000   YZ=             -0.0000
 Octapole moment (field-independent basis, Debye-Ang**2):
  XXX=              0.0000  YYY=             -0.2416  ZZZ=              0.0000  XYY=              0.0000
  XXY=              0.2416  XXZ=              0.0000  XZZ=              0.0000  YZZ=              0.0000
  YYZ=              0.0000  XYZ=              0.0000
 Hexadecapole moment (field-independent basis, Debye-Ang**3):
 XXXX=            -24.4613 YYYY=            -24.4613 ZZZZ=             -7.1739 XXXY=              0.0000
 XXXZ=             -0.0000 YYYX=              0.0000 YYYZ=             -0.0000 ZZZX=             -0.0000
 ZZZY=             -0.0000 XXYY=             -8.1538 XXZZ=             -5.3614 YYZZ=             -5.3614
 XXYZ=             -0.0000 YYXZ=             -0.0000 ZZXY=              0.0000
 N-N= 7.503576253662D+00 E-N=-7.508594910984D+01  KE= 2.616880292454D+01
 Symmetry A1   KE= 2.474295612319D+01
 Symmetry A2   KE= 0.000000000000D+00
 Symmetry B1   KE= 1.425846801353D+00
 Symmetry B2   KE= 2.149191866303D-33
 Calling FoFJK, ICntrl=  10002127 FMM=F ISym2X=1 I1Cent= 0 IOpClX= 0 NMat=1 NMatS=1 NMatT=0.
 ***** Axes restored to original set *****
 -------------------------------------------------------------------
 Center     Atomic                   Forces (Hartrees/Bohr)
 Number     Number              X              Y              Z
 -------------------------------------------------------------------
      1        5           0.000000000   -0.000000000    0.000000000
      2        1          -0.000000000    0.008453060    0.000000000
      3        1          -0.007320564   -0.004226530   -0.000000000
      4        1           0.007320564   -0.004226530    0.000000000
 -------------------------------------------------------------------
 Cartesian Forces:  Max     0.008453060 RMS     0.004226530

 GradGradGradGradGradGradGradGradGradGradGradGradGradGradGradGradGradGrad
 Berny optimization.
 FormGI is forming the generalized inverse of G from B-inverse, IUseBI=4.
 Internal  Forces:  Max     0.008453060 RMS     0.005533827
 Search for a local minimum.
 Step number   1 out of a maximum of   20
 All quantities printed in internal units (Hartrees-Bohrs-Radians)
 Mixed Optimization -- RFO/linear search
 Second derivative matrix not updated -- first step.
 The second derivative matrix:
                          R1        R2        R3        A1        A2
           R1           0.26185
           R2           0.00000   0.26185
           R3           0.00000   0.00000   0.26185
           A1           0.00000   0.00000   0.00000   0.16000
           A2           0.00000   0.00000   0.00000   0.00000   0.16000
           A3           0.00000   0.00000   0.00000   0.00000   0.00000
           D1           0.00000   0.00000   0.00000   0.00000   0.00000
                          A3        D1
           A3           0.16000
           D1           0.00000   0.00230
 ITU=  0
     Eigenvalues ---    0.00230   0.16000   0.16000   0.26185   0.26185
     Eigenvalues ---    0.26185
 RFO step:  Lambda=-8.16104278D-04 EMin= 2.30000000D-03
 Linear search not attempted -- first point.
 Iteration  1 RMS(Cart)=  0.02106814 RMS(Int)=  0.00000000
 Iteration  2 RMS(Cart)=  0.00000000 RMS(Int)=  0.00000000
 ClnCor:  largest displacement from symmetrization is 3.82D-13 for atom     1.
 Variable       Old X    -DE/DX   Delta X   Delta X   Delta X     New X
                                 (Linear)    (Quad)   (Total)
    R1        2.22988   0.00845   0.00000   0.03218   0.03218   2.26206
    R2        2.22988   0.00845   0.00000   0.03218   0.03218   2.26206
    R3        2.22988   0.00845   0.00000   0.03218   0.03218   2.26206
    A1        2.09440  -0.00000   0.00000  -0.00000   0.00000   2.09440
    A2        2.09440   0.00000   0.00000   0.00000   0.00000   2.09440
    A3        2.09440   0.00000   0.00000   0.00000   0.00000   2.09440
    D1        3.14159   0.00000   0.00000  -0.00000   0.00000   3.14159
         Item               Value     Threshold  Converged?
 Maximum Force            0.008453     0.000450     NO 
 RMS     Force            0.005534     0.000300     NO 
 Maximum Displacement     0.032182     0.001800     NO 
 RMS     Displacement     0.021068     0.001200     NO 
 Predicted change in Energy=-4.093239D-04
 GradGradGradGradGradGradGradGradGradGradGradGradGradGradGradGradGradGrad

                          Input orientation:                          
 ---------------------------------------------------------------------
 Center     Atomic      Atomic             Coordinates (Angstroms)
 Number     Number       Type             X           Y           Z
 ---------------------------------------------------------------------
      1          5           0       -0.000000   -0.000000   -0.000000
      2          1           0       -0.000000    1.197030    0.000000
      3          1           0       -1.036658   -0.598515   -0.000000
      4          1           0        1.036658   -0.598515    0.000000
 ---------------------------------------------------------------------
                    Distance matrix (angstroms):
                    1          2          3          4
     1  B    0.000000
     2  H    1.197030   0.000000
     3  H    1.197030   2.073317   0.000000
     4  H    1.197030   2.073317   2.073317   0.000000
 Stoichiometry    BH3
 Framework group  D3H[O(B),3C2(H)]
 Deg. of freedom     1
 Full point group                 D3H     NOp  12
 Largest Abelian subgroup         C2V     NOp   4
 Largest concise Abelian subgroup C2      NOp   2
                         Standard orientation:                         
 ---------------------------------------------------------------------
 Center     Atomic      Atomic             Coordinates (Angstroms)
 Number     Number       Type             X           Y           Z
 ---------------------------------------------------------------------
      1          5           0        0.000000    0.000000    0.000000
      2          1           0        0.000000    1.197030    0.000000
      3          1           0        1.036658   -0.598515   -0.000000
      4          1           0       -1.036658   -0.598515   -0.000000
 ---------------------------------------------------------------------
 Rotational constants (GHZ):         233.3085715         233.3085715         116.6542857
 Standard basis: 3-21G (6D, 7F)
 There are     9 symmetry adapted cartesian basis functions of A1  symmetry.
 There are     0 symmetry adapted cartesian basis functions of A2  symmetry.
 There are     4 symmetry adapted cartesian basis functions of B1  symmetry.
 There are     2 symmetry adapted cartesian basis functions of B2  symmetry.
 There are     9 symmetry adapted basis functions of A1  symmetry.
 There are     0 symmetry adapted basis functions of A2  symmetry.
 There are     4 symmetry adapted basis functions of B1  symmetry.
 There are     2 symmetry adapted basis functions of B2  symmetry.
    15 basis functions,    24 primitive gaussians,    15 cartesian basis functions
     4 alpha electrons        4 beta electrons
       nuclear repulsion energy         7.3968235055 Hartrees.
 NAtoms=    4 NActive=    4 NUniq=    2 SFac= 4.00D+00 NAtFMM=   60 NAOKFM=F Big=F
 Integral buffers will be    131072 words long.
 Raffenetti 1 integral format.
 Two-electron integral symmetry is turned on.
 One-electron integrals computed using PRISM.
 NBasis=    15 RedAO= T EigKep=  3.75D-02  NBF=     9     0     4     2
 NBsUse=    15 1.00D-06 EigRej= -1.00D+00 NBFU=     9     0     4     2
 Initial guess from the checkpoint file:  "BH3.chk"
 B after Tr=    -0.000000   -0.000000    0.000000
         Rot=    1.000000    0.000000    0.000000   -0.000000 Ang=   0.00 deg.
 Initial guess orbital symmetries:
       Occupied  (A1') (A1') (E') (E')
       Virtual   (A2") (E') (E') (A1') (E') (E') (A2") (A1') (A1')
                 (E') (E')
 ExpMin= 1.24D-01 ExpMax= 1.16D+02 ExpMxC= 1.16D+02 IAcc=3 IRadAn=         5 AccDes= 0.00D+00
 Harris functional with IExCor=  205 and IRadAn=       5 diagonalized for initial guess.
 HarFok:  IExCor=  205 AccDes= 0.00D+00 IRadAn=         5 IDoV= 1 UseB2=F ITyADJ=14
 ICtDFT=  3500011 ScaDFX=  1.000000  1.000000  1.000000  1.000000
 FoFCou: FMM=F IPFlag=           0 FMFlag=      100000 FMFlg1=           0
         NFxFlg=           0 DoJE=T BraDBF=F KetDBF=T FulRan=T
         wScrn=  0.000000 ICntrl=       500 IOpCl=  0 I1Cent=   200000004 NGrid=           0
         NMat0=    1 NMatS0=      1 NMatT0=    0 NMatD0=    1 NMtDS0=    0 NMtDT0=    0
 Petite list used in FoFCou.
 Keep R1 ints in memory in symmetry-blocked form, NReq=811742.
 Requested convergence on RMS density matrix=1.00D-08 within 128 cycles.
 Requested convergence on MAX density matrix=1.00D-06.
 Requested convergence on             energy=1.00D-06.
 No special actions if energy rises.
 SCF Done:  E(RHF) =  -26.2371750602     A.U. after    7 cycles
            NFock=  7  Conv=0.46D-08     -V/T= 2.0047
 ExpMin= 1.24D-01 ExpMax= 1.16D+02 ExpMxC= 1.16D+02 IAcc=3 IRadAn=         5 AccDes= 0.00D+00
 HarFok:  IExCor=  205 AccDes= 0.00D+00 IRadAn=         5 IDoV=-2 UseB2=F ITyADJ=14
 ICtDFT= 12500011 ScaDFX=  1.000000  1.000000  1.000000  1.000000
 Range of M.O.s used for correlation:     2    15
 NBasis=    15 NAE=     4 NBE=     4 NFC=     1 NFV=     0
 NROrb=     14 NOA=     3 NOB=     3 NVA=    11 NVB=    11
 Fully direct method using O(ONN) memory.
 JobTyp=1 Pass  1:  I=   2 to   4 NPSUse=  1 ParTrn=F ParDer=F DoDerP=T.
 Spin components of T(2) and E(2):
     alpha-alpha T2 =       0.1177786864D-02 E2=     -0.2595951494D-02
     alpha-beta  T2 =       0.2072005416D-01 E2=     -0.5005210683D-01
     beta-beta   T2 =       0.1177786864D-02 E2=     -0.2595951494D-02
 ANorm=    0.1011472010D+01
 E2 =    -0.5524400982D-01 EUMP2 =    -0.26292419070055D+02
          IDoAtm=1111
          Differentiating once with respect to electric field.
                with respect to dipole field.
          Differentiating once with respect to nuclear coordinates.
 Keep R1 ints in memory in symmetry-blocked form, NReq=812370.
          There are     1 degrees of freedom in the 1st order CPHF.  IDoFFX=0 NUNeed=     1.
 LinEq1:  Iter=  0 NonCon=     1 RMS=3.52D-03 Max=1.40D-02 NDo=     1
 AX will form     1 AO Fock derivatives at one time.
 LinEq1:  Iter=  1 NonCon=     1 RMS=6.34D-04 Max=2.31D-03 NDo=     1
 LinEq1:  Iter=  2 NonCon=     1 RMS=3.59D-05 Max=1.25D-04 NDo=     1
 LinEq1:  Iter=  3 NonCon=     1 RMS=3.38D-06 Max=1.50D-05 NDo=     1
 LinEq1:  Iter=  4 NonCon=     1 RMS=1.55D-07 Max=5.44D-07 NDo=     1
 LinEq1:  Iter=  5 NonCon=     1 RMS=9.24D-09 Max=3.79D-08 NDo=     1
 LinEq1:  Iter=  6 NonCon=     1 RMS=1.92D-10 Max=9.03D-10 NDo=     1
 LinEq1:  Iter=  7 NonCon=     0 RMS=9.18D-12 Max=4.52D-11 NDo=     1
 Linear equations converged to 1.000D-10 1.000D-09 after     7 iterations.
 End of Minotr F.D. properties file   721 does not exist.
 End of Minotr F.D. properties file   722 does not exist.
 End of Minotr F.D. properties file   788 does not exist.
 Calling FoFJK, ICntrl=  10002127 FMM=F ISym2X=1 I1Cent= 0 IOpClX= 0 NMat=1 NMatS=1 NMatT=0.
 ***** Axes restored to original set *****
 -------------------------------------------------------------------
 Center     Atomic                   Forces (Hartrees/Bohr)
 Number     Number              X              Y              Z
 -------------------------------------------------------------------
      1        5           0.000000000    0.000000000    0.000000000
      2        1           0.000000000   -0.000309358    0.000000000
      3        1           0.000267912    0.000154679   -0.000000000
      4        1          -0.000267912    0.000154679    0.000000000
 -------------------------------------------------------------------
 Cartesian Forces:  Max     0.000309358 RMS     0.000154679

 GradGradGradGradGradGradGradGradGradGradGradGradGradGradGradGradGradGrad
 Berny optimization.
 Using GEDIIS/GDIIS optimizer.
 FormGI is forming the generalized inverse of G from B-inverse, IUseBI=4.
 Internal  Forces:  Max     0.000309358 RMS     0.000202523
 Search for a local minimum.
 Step number   2 out of a maximum of   20
 All quantities printed in internal units (Hartrees-Bohrs-Radians)
 Mixed Optimization -- En-DIIS/RFO-DIIS
 Update second derivatives using D2CorX and points    1    2
 DE= -3.87D-04 DEPred=-4.09D-04 R= 9.46D-01
 TightC=F SS=  1.41D+00  RLast= 5.57D-02 DXNew= 5.0454D-01 1.6722D-01
 Trust test= 9.46D-01 RLast= 5.57D-02 DXMaxT set to 3.00D-01
 The second derivative matrix:
                          R1        R2        R3        A1        A2
           R1           0.26532
           R2           0.00348   0.26532
           R3           0.00348   0.00348   0.26532
           A1          -0.00000  -0.00000  -0.00000   0.16000
           A2          -0.00000  -0.00000  -0.00000   0.00000   0.16000
           A3           0.00000   0.00000   0.00000  -0.00000  -0.00000
           D1           0.00000   0.00000   0.00000  -0.00000  -0.00000
                          A3        D1
           A3           0.16000
           D1           0.00000   0.00230
 ITU=  1  0
 Use linear search instead of GDIIS.
     Eigenvalues ---    0.00230   0.16000   0.16000   0.26185   0.26185
     Eigenvalues ---    0.27228
 RFO step:  Lambda= 0.00000000D+00 EMin= 2.30000000D-03
 Quartic linear search produced a step of -0.03680.
 Iteration  1 RMS(Cart)=  0.00077521 RMS(Int)=  0.00000000
 Iteration  2 RMS(Cart)=  0.00000000 RMS(Int)=  0.00000000
 ClnCor:  largest displacement from symmetrization is 6.60D-15 for atom     4.
 Variable       Old X    -DE/DX   Delta X   Delta X   Delta X     New X
                                 (Linear)    (Quad)   (Total)
    R1        2.26206  -0.00031  -0.00118  -0.00000  -0.00118   2.26087
    R2        2.26206  -0.00031  -0.00118  -0.00000  -0.00118   2.26087
    R3        2.26206  -0.00031  -0.00118   0.00000  -0.00118   2.26087
    A1        2.09440  -0.00000  -0.00000  -0.00000   0.00000   2.09440
    A2        2.09440   0.00000   0.00000   0.00000   0.00000   2.09440
    A3        2.09440   0.00000   0.00000   0.00000   0.00000   2.09440
    D1        3.14159   0.00000   0.00000   0.00000   0.00000   3.14159
         Item               Value     Threshold  Converged?
 Maximum Force            0.000309     0.000450     YES
 RMS     Force            0.000203     0.000300     YES
 Maximum Displacement     0.001184     0.001800     YES
 RMS     Displacement     0.000775     0.001200     YES
 Predicted change in Energy=-5.262973D-07
 Optimization completed.
    -- Stationary point found.
                           ----------------------------
                           !   Optimized Parameters   !
                           ! (Angstroms and Degrees)  !
 --------------------------                            --------------------------
 ! Name  Definition              Value          Derivative Info.                !
 --------------------------------------------------------------------------------
 ! R1    R(1,2)                  1.197          -DE/DX =   -0.0003              !
 ! R2    R(1,3)                  1.197          -DE/DX =   -0.0003              !
 ! R3    R(1,4)                  1.197          -DE/DX =   -0.0003              !
 ! A1    A(2,1,3)              120.0            -DE/DX =    0.0                 !
 ! A2    A(2,1,4)              120.0            -DE/DX =    0.0                 !
 ! A3    A(3,1,4)              120.0            -DE/DX =    0.0                 !
 ! D1    D(2,1,4,3)            180.0            -DE/DX =    0.0                 !
 --------------------------------------------------------------------------------
 GradGradGradGradGradGradGradGradGradGradGradGradGradGradGradGradGradGrad

                          Input orientation:                          
 ---------------------------------------------------------------------
 Center     Atomic      Atomic             Coordinates (Angstroms)
 Number     Number       Type             X           Y           Z
 ---------------------------------------------------------------------
      1          5           0        0.000000   -0.000000    0.000000
      2          1           0       -0.000000    1.197030    0.000000
      3          1           0       -1.036658   -0.598515   -0.000000
      4          1           0        1.036658   -0.598515    0.000000
 ---------------------------------------------------------------------
                    Distance matrix (angstroms):
                    1          2          3          4
     1  B    0.000000
     2  H    1.197030   0.000000
     3  H    1.197030   2.073317   0.000000
     4  H    1.197030   2.073317   2.073317   0.000000
 Stoichiometry    BH3
 Framework group  D3H[O(B),3C2(H)]
 Deg. of freedom     1
 Full point group                 D3H     NOp  12
 Largest Abelian subgroup         C2V     NOp   4
 Largest concise Abelian subgroup C2      NOp   2
                         Standard orientation:                         
 ---------------------------------------------------------------------
 Center     Atomic      Atomic             Coordinates (Angstroms)
 Number     Number       Type             X           Y           Z
 ---------------------------------------------------------------------
      1          5           0        0.000000    0.000000    0.000000
      2          1           0        0.000000    1.197030    0.000000
      3          1           0        1.036658   -0.598515    0.000000
      4          1           0       -1.036658   -0.598515    0.000000
 ---------------------------------------------------------------------
 Rotational constants (GHZ):         233.3085715         233.3085715         116.6542857

 **********************************************************************

            Population analysis using the SCF Density.

 **********************************************************************

 Orbital symmetries:
       Occupied  (A1') (A1') (E') (E')
       Virtual   (A2") (E') (E') (A1') (E') (E') (A2") (A1') (A1')
                 (E') (E')
 The electronic state is 1-A1'.
 Alpha  occ. eigenvalues --   -7.57772  -0.70469  -0.49803  -0.49803
 Alpha virt. eigenvalues --    0.07654   0.32167   0.32167   0.34380   0.59888
 Alpha virt. eigenvalues --    0.59888   0.68404   0.78164   1.35866   1.42203
 Alpha virt. eigenvalues --    1.42203
          Condensed to atoms (all electrons):
               1          2          3          4
     1  B    3.660460   0.404157   0.404157   0.404157
     2  H    0.404157   0.687146  -0.024473  -0.024473
     3  H    0.404157  -0.024473   0.687146  -0.024473
     4  H    0.404157  -0.024473  -0.024473   0.687146
 Mulliken charges:
               1
     1  B    0.127068
     2  H   -0.042356
     3  H   -0.042356
     4  H   -0.042356
 Sum of Mulliken charges =   0.00000
 Mulliken charges with hydrogens summed into heavy atoms:
               1
     1  B    0.000000
 Electronic spatial extent (au):  <R**2>=             35.2321
 Charge=              0.0000 electrons
 Dipole moment (field-independent basis, Debye):
    X=              0.0000    Y=              0.0000    Z=             -0.0000  Tot=              0.0000
 Quadrupole moment (field-independent basis, Debye-Ang):
   XX=             -9.7412   YY=             -9.7412   ZZ=             -7.2587
   XY=             -0.0000   XZ=              0.0000   YZ=              0.0000
 Traceless Quadrupole moment (field-independent basis, Debye-Ang):
   XX=             -0.8275   YY=             -0.8275   ZZ=              1.6550
   XY=             -0.0000   XZ=              0.0000   YZ=              0.0000
 Octapole moment (field-independent basis, Debye-Ang**2):
  XXX=              0.0000  YYY=             -0.2257  ZZZ=             -0.0000  XYY=              0.0000
  XXY=              0.2257  XXZ=             -0.0000  XZZ=              0.0000  YZZ=              0.0000
  YYZ=             -0.0000  XYZ=             -0.0000
 Hexadecapole moment (field-independent basis, Debye-Ang**3):
 XXXX=            -25.0701 YYYY=            -25.0701 ZZZZ=             -7.3067 XXXY=              0.0000
 XXXZ=              0.0000 YYYX=              0.0000 YYYZ=              0.0000 ZZZX=              0.0000
 ZZZY=              0.0000 XXYY=             -8.3567 XXZZ=             -5.4961 YYZZ=             -5.4961
 XXYZ=              0.0000 YYXZ=              0.0000 ZZXY=              0.0000
 N-N= 7.396823505492D+00 E-N=-7.482567760964D+01  KE= 2.611462783847D+01
 Symmetry A1   KE= 2.470786435447D+01
 Symmetry A2   KE= 0.000000000000D+00
 Symmetry B1   KE= 1.406763484003D+00
 Symmetry B2   KE= 2.124300343230D-33
 Unable to Open any file for archive entry.
 1\1\GINC-BS001\FOpt\RMP2-FC\3-21G\B1H3\PNATT\10-Aug-2026\0\\# opt freq
 =hpmodes mp2/3-21g geom=connectivity\\Title Card Required\\0,1\B,0.,0.
 ,0.\H,-0.0000000018,1.1970300458,0.\H,-1.0366584278,-0.5985150244,0.\H
 ,1.0366584296,-0.5985150213,0.\\Version=ES64L-G16RevC.01\State=1-A1'\H
 F=-26.2371751\MP2=-26.2924191\RMSD=4.582e-09\RMSF=1.547e-04\Dipole=0.,
 0.,0.\PG=D03H [O(B1),3C2(H1)]\\@
 The archive entry for this job was punched.


 A DANDELION FROM A LOVER MEANS MORE THAN AN ORCHID FROM A FRIEND.
 Job cpu time:       0 days  0 hours  0 minutes  2.2 seconds.
 Elapsed time:       0 days  0 hours  0 minutes  2.0 seconds.
 File lengths (MBytes):  RWF=      6 Int=      0 D2E=      0 Chk=      1 Scr=      1
 Normal termination of Gaussian 16 at Mon Aug 10 15:52:03 2026.
 Link1:  Proceeding to internal job step number  2.
 -------------------------------------------------------------------
 #N Geom=AllCheck Guess=TCheck SCRF=Check GenChk RMP2(FC)/3-21G Freq
 -------------------------------------------------------------------
 1/10=4,29=7,30=1,38=1,40=1/1,3;
 2/12=2,40=1/2;
 3/5=5,11=1,14=-4,25=1,30=1,70=2,71=2,116=1,140=1/1,2,3;
 4/5=101/1;
 5/5=2,38=6,98=1/2;
 8/6=3,8=1,10=1,19=11,30=-1/1;
 9/15=3,16=-3/6;
 11/6=1,8=1,15=11,17=12,24=-1,27=1,28=-2,29=300,32=6,42=3/1,2,10;
 10/6=2,21=1/2;
 8/6=4,8=1,10=1,19=11,30=-1/11,4;
 10/5=1,20=4/2;
 11/12=2,14=11,16=1,17=2,28=-2,42=3,76=2/2,10,12;
 6/7=2,8=2,9=2,10=2/1;
 7/8=11,10=1,12=2,25=1,44=2/1,2,3,16;
 1/10=4,30=1/3;
 99//99;
 Structure from the checkpoint file:  "BH3.chk"
 -------------------
 Title Card Required
 -------------------
 Charge =  0 Multiplicity = 1
 Redundant internal coordinates found in file.  (old form).
 B,0,0.,0.,0.
 H,0,-0.0000000018,1.1970300458,0.
 H,0,-1.0366584278,-0.5985150244,0.
 H,0,1.0366584296,-0.5985150213,0.
 Recover connectivity data from disk.

 GradGradGradGradGradGradGradGradGradGradGradGradGradGradGradGradGradGrad
 Berny optimization.
 Initialization pass.
                           ----------------------------
                           !    Initial Parameters    !
                           ! (Angstroms and Degrees)  !
 --------------------------                            --------------------------
 ! Name  Definition              Value          Derivative Info.                !
 --------------------------------------------------------------------------------
 ! R1    R(1,2)                  1.197          calculate D2E/DX2 analytically  !
 ! R2    R(1,3)                  1.197          calculate D2E/DX2 analytically  !
 ! R3    R(1,4)                  1.197          calculate D2E/DX2 analytically  !
 ! A1    A(2,1,3)              120.0            calculate D2E/DX2 analytically  !
 ! A2    A(2,1,4)              120.0            calculate D2E/DX2 analytically  !
 ! A3    A(3,1,4)              120.0            calculate D2E/DX2 analytically  !
 ! D1    D(2,1,4,3)            180.0            calculate D2E/DX2 analytically  !
 --------------------------------------------------------------------------------
 Trust Radius=3.00D-01 FncErr=1.00D-07 GrdErr=1.00D-07 EigMax=2.50D+02 EigMin=1.00D-04
 Number of steps in this run=      2 maximum allowed number of steps=      2.
 GradGradGradGradGradGradGradGradGradGradGradGradGradGradGradGradGradGrad

                          Input orientation:                          
 ---------------------------------------------------------------------
 Center     Atomic      Atomic             Coordinates (Angstroms)
 Number     Number       Type             X           Y           Z
 ---------------------------------------------------------------------
      1          5           0        0.000000   -0.000000    0.000000
      2          1           0       -0.000000    1.197030    0.000000
      3          1           0       -1.036658   -0.598515   -0.000000
      4          1           0        1.036658   -0.598515    0.000000
 ---------------------------------------------------------------------
                    Distance matrix (angstroms):
                    1          2          3          4
     1  B    0.000000
     2  H    1.197030   0.000000
     3  H    1.197030   2.073317   0.000000
     4  H    1.197030   2.073317   2.073317   0.000000
 Stoichiometry    BH3
 Framework group  D3H[O(B),3C2(H)]
 Deg. of freedom     1
 Full point group                 D3H     NOp  12
 Largest Abelian subgroup         C2V     NOp   4
 Largest concise Abelian subgroup C2      NOp   2
                         Standard orientation:                         
 ---------------------------------------------------------------------
 Center     Atomic      Atomic             Coordinates (Angstroms)
 Number     Number       Type             X           Y           Z
 ---------------------------------------------------------------------
      1          5           0        0.000000    0.000000    0.000000
      2          1           0        0.000000    1.197030    0.000000
      3          1           0        1.036658   -0.598515    0.000000
      4          1           0       -1.036658   -0.598515   -0.000000
 ---------------------------------------------------------------------
 Rotational constants (GHZ):         233.3085715         233.3085715         116.6542857
 Standard basis: 3-21G (6D, 7F)
 There are     9 symmetry adapted cartesian basis functions of A1  symmetry.
 There are     0 symmetry adapted cartesian basis functions of A2  symmetry.
 There are     4 symmetry adapted cartesian basis functions of B1  symmetry.
 There are     2 symmetry adapted cartesian basis functions of B2  symmetry.
 There are     9 symmetry adapted basis functions of A1  symmetry.
 There are     0 symmetry adapted basis functions of A2  symmetry.
 There are     4 symmetry adapted basis functions of B1  symmetry.
 There are     2 symmetry adapted basis functions of B2  symmetry.
    15 basis functions,    24 primitive gaussians,    15 cartesian basis functions
     4 alpha electrons        4 beta electrons
       nuclear repulsion energy         7.3968235055 Hartrees.
 NAtoms=    4 NActive=    4 NUniq=    2 SFac= 4.00D+00 NAtFMM=   60 NAOKFM=F Big=F
 Integral buffers will be    131072 words long.
 Raffenetti 1 integral format.
 Two-electron integral symmetry is turned on.
 One-electron integrals computed using PRISM.
 NBasis=    15 RedAO= T EigKep=  3.75D-02  NBF=     9     0     4     2
 NBsUse=    15 1.00D-06 EigRej= -1.00D+00 NBFU=     9     0     4     2
 Initial guess from the checkpoint file:  "BH3.chk"
 B after Tr=     0.000000    0.000000    0.000000
         Rot=    1.000000    0.000000    0.000000   -0.000000 Ang=   0.00 deg.
 Initial guess orbital symmetries:
       Occupied  (A1') (A1') (E') (E')
       Virtual   (A2") (E') (E') (A1') (E') (E') (A2") (A1') (A1')
                 (E') (E')
 Keep R1 ints in memory in symmetry-blocked form, NReq=811742.
 Requested convergence on RMS density matrix=1.00D-08 within 128 cycles.
 Requested convergence on MAX density matrix=1.00D-06.
 Requested convergence on             energy=1.00D-06.
 No special actions if energy rises.
 SCF Done:  E(RHF) =  -26.2371750602     A.U. after    1 cycles
            NFock=  1  Conv=0.21D-09     -V/T= 2.0047
 ExpMin= 1.24D-01 ExpMax= 1.16D+02 ExpMxC= 1.16D+02 IAcc=3 IRadAn=         5 AccDes= 0.00D+00
 HarFok:  IExCor=  205 AccDes= 0.00D+00 IRadAn=         5 IDoV=-2 UseB2=F ITyADJ=14
 ICtDFT= 12500011 ScaDFX=  1.000000  1.000000  1.000000  1.000000
 Range of M.O.s used for correlation:     2    15
 NBasis=    15 NAE=     4 NBE=     4 NFC=     1 NFV=     0
 NROrb=     14 NOA=     3 NOB=     3 NVA=    11 NVB=    11
 Disk-based method using ON**2 memory for  3 occupieds at a time.
 Permanent disk used for amplitudes=        2266 words.
 Estimated scratch disk usage=      793870 words.
 Actual    scratch disk usage=      793870 words.
 JobTyp=1 Pass  1:  I=   2 to   4 NPSUse=  1 ParTrn=F ParDer=F DoDerP=T.
 (rs|ai) integrals will be sorted in core.
 Spin components of T(2) and E(2):
     alpha-alpha T2 =       0.1177786864D-02 E2=     -0.2595951493D-02
     alpha-beta  T2 =       0.2072005417D-01 E2=     -0.5005210684D-01
     beta-beta   T2 =       0.1177786864D-02 E2=     -0.2595951493D-02
 ANorm=    0.1011472010D+01
 E2 =    -0.5524400983D-01 EUMP2 =    -0.26292419070065D+02
 G2DrvN: will do     5 centers at a time, making    1 passes.
 Calling FoFCou, ICntrl=  3107 FMM=F I1Cent=   0 AccDes= 0.00D+00.
 End of G2Drv F.D. properties file   721 does not exist.
 End of G2Drv F.D. properties file   722 does not exist.
 End of G2Drv F.D. properties file   788 does not exist.
          IDoAtm=1111
          Differentiating once with respect to electric field.
                with respect to dipole field.
          Differentiating once with respect to nuclear coordinates.
 Keep R1 ints in memory in symmetry-blocked form, NReq=812370.
          There are    15 degrees of freedom in the 1st order CPHF.  IDoFFX=6 NUNeed=    15.
     12 vectors produced by pass  0 Test12= 2.93D-16 6.67D-09 XBig12= 3.46D+00 1.29D+00.
 AX will form    12 AO Fock derivatives at one time.
     12 vectors produced by pass  1 Test12= 2.93D-16 6.67D-09 XBig12= 4.33D-03 4.05D-02.
      8 vectors produced by pass  2 Test12= 2.93D-16 6.67D-09 XBig12= 8.13D-06 1.48D-03.
      7 vectors produced by pass  3 Test12= 2.93D-16 6.67D-09 XBig12= 2.82D-08 8.66D-05.
      1 vectors produced by pass  4 Test12= 2.93D-16 6.67D-09 XBig12= 6.30D-12 1.59D-06.
      1 vectors produced by pass  5 Test12= 2.93D-16 6.67D-09 XBig12= 2.62D-14 1.08D-07.
 InvSVY:  IOpt=1 It=  1 EMax= 4.44D-16
 Solved reduced A of dimension    41 with    12 vectors.
 End of Minotr F.D. properties file   721 does not exist.
 End of Minotr F.D. properties file   722 does not exist.
 End of Minotr F.D. properties file   788 does not exist.
 MDV=   104857600.
 Form MO integral derivatives with frozen-active canonical formalism.
 Discarding MO integrals.
 Reordered first order wavefunction length =         3872
 In DefCFB: NBatch=  1 ICI=  4 ICA= 11 LFMax= 11
            Large arrays: LIAPS=       39600 LIARS=       41580 words.
 Semi-Direct transformation.
 ModeAB=           4 MOrb=             4 LenV=     104734639
 LASXX=         4971 LTotXX=        4971 LenRXX=       11011
 LTotAB=        6040 MaxLAS=        6360 LenRXY=           0
 NonZer=       15982 LenScr=      785920 LnRSAI=        6360
 LnScr1=      785920 LExtra=           0 Total=      1589211
 MaxDsk=          -1 SrtSym=           T ITran=            4
 JobTyp=0 Pass  1:  I=   1 to   4.
 (rs|ai) integrals will be sorted in core.
 Spin components of T(2) and E(2):
     alpha-alpha T2 =       0.1177786864D-02 E2=     -0.2595951493D-02
     alpha-beta  T2 =       0.2072005417D-01 E2=     -0.5005210684D-01
     beta-beta   T2 =       0.1177786864D-02 E2=     -0.2595951493D-02
 ANorm=    0.1430437435D+01
 E2 =    -0.5524400983D-01 EUMP2 =    -0.26292419070065D+02
          IDoAtm=1111
          Differentiating once with respect to electric field.
                with respect to dipole field.
          Differentiating once with respect to nuclear coordinates.
          There are     1 degrees of freedom in the 1st order CPHF.  IDoFFX=0 NUNeed=     1.
 LinEq1:  Iter=  0 NonCon=     1 RMS=3.52D-03 Max=1.40D-02 NDo=     1
 LinEq1:  Iter=  1 NonCon=     1 RMS=6.34D-04 Max=2.31D-03 NDo=     1
 LinEq1:  Iter=  2 NonCon=     1 RMS=3.59D-05 Max=1.25D-04 NDo=     1
 LinEq1:  Iter=  3 NonCon=     1 RMS=3.38D-06 Max=1.50D-05 NDo=     1
 LinEq1:  Iter=  4 NonCon=     1 RMS=1.55D-07 Max=5.44D-07 NDo=     1
 LinEq1:  Iter=  5 NonCon=     1 RMS=9.24D-09 Max=3.79D-08 NDo=     1
 LinEq1:  Iter=  6 NonCon=     1 RMS=1.92D-10 Max=9.03D-10 NDo=     1
 LinEq1:  Iter=  7 NonCon=     0 RMS=9.18D-12 Max=4.52D-11 NDo=     1
 Linear equations converged to 1.000D-10 1.000D-09 after     7 iterations.
 End of Minotr F.D. properties file   721 does not exist.
 End of Minotr F.D. properties file   722 does not exist.
 End of Minotr F.D. properties file   788 does not exist.
 Symmetrizing basis deriv contribution to polar:
 IMax=3 JMax=2 DiffMx= 0.00D+00
 G2DrvN: will do     5 centers at a time, making    1 passes.
 Calling FoFCou, ICntrl=  3107 FMM=F I1Cent=   0 AccDes= 0.00D+00.
 End of G2Drv F.D. properties file   721 does not exist.
 End of G2Drv F.D. properties file   722 does not exist.
 End of G2Drv F.D. properties file   788 does not exist.
 R2 and R3 integrals will be kept in memory, NReq=      814520.
 DD1Dir will call FoFMem   1 times, MxPair=        20
 NAB=    10 NAA=     0 NBB=     0.
 Discarding MO integrals.

 **********************************************************************

            Population analysis using the SCF Density.

 **********************************************************************

 Orbital symmetries:
       Occupied  (A1') (A1') (E') (E')
       Virtual   (A2") (E') (E') (A1') (E') (E') (A2") (A1') (A1')
                 (E') (E')
 The electronic state is 1-A1'.
 Alpha  occ. eigenvalues --   -7.57772  -0.70469  -0.49803  -0.49803
 Alpha virt. eigenvalues --    0.07654   0.32167   0.32167   0.34380   0.59888
 Alpha virt. eigenvalues --    0.59888   0.68404   0.78164   1.35866   1.42203
 Alpha virt. eigenvalues --    1.42203
          Condensed to atoms (all electrons):
               1          2          3          4
     1  B    3.660460   0.404157   0.404157   0.404157
     2  H    0.404157   0.687146  -0.024473  -0.024473
     3  H    0.404157  -0.024473   0.687146  -0.024473
     4  H    0.404157  -0.024473  -0.024473   0.687146
 Mulliken charges:
               1
     1  B    0.127068
     2  H   -0.042356
     3  H   -0.042356
     4  H   -0.042356
 Sum of Mulliken charges =  -0.00000
 Mulliken charges with hydrogens summed into heavy atoms:
               1
     1  B   -0.000000
 APT charges:
               1
     1  B    0.523855
     2  H   -0.174618
     3  H   -0.174618
     4  H   -0.174618
 Sum of APT charges =  -0.00000
 APT charges with hydrogens summed into heavy atoms:
               1
     1  B   -0.000000
 Electronic spatial extent (au):  <R**2>=             35.2321
 Charge=             -0.0000 electrons
 Dipole moment (field-independent basis, Debye):
    X=             -0.0000    Y=              0.0000    Z=             -0.0000  Tot=              0.0000
 Quadrupole moment (field-independent basis, Debye-Ang):
   XX=             -9.7412   YY=             -9.7412   ZZ=             -7.2587
   XY=              0.0000   XZ=              0.0000   YZ=             -0.0000
 Traceless Quadrupole moment (field-independent basis, Debye-Ang):
   XX=             -0.8275   YY=             -0.8275   ZZ=              1.6550
   XY=              0.0000   XZ=              0.0000   YZ=             -0.0000
 Octapole moment (field-independent basis, Debye-Ang**2):
  XXX=              0.0000  YYY=             -0.2257  ZZZ=             -0.0000  XYY=             -0.0000
  XXY=              0.2257  XXZ=              0.0000  XZZ=              0.0000  YZZ=             -0.0000
  YYZ=             -0.0000  XYZ=             -0.0000
 Hexadecapole moment (field-independent basis, Debye-Ang**3):
 XXXX=            -25.0701 YYYY=            -25.0701 ZZZZ=             -7.3067 XXXY=              0.0000
 XXXZ=              0.0000 YYYX=              0.0000 YYYZ=             -0.0000 ZZZX=              0.0000
 ZZZY=             -0.0000 XXYY=             -8.3567 XXZZ=             -5.4961 YYZZ=             -5.4961
 XXYZ=             -0.0000 YYXZ=              0.0000 ZZXY=              0.0000
 N-N= 7.396823505492D+00 E-N=-7.482567760988D+01  KE= 2.611462783821D+01
 Symmetry A1   KE= 2.470786435331D+01
 Symmetry A2   KE= 0.000000000000D+00
 Symmetry B1   KE= 1.406763484900D+00
 Symmetry B2   KE= 2.124300346618D-33
  Exact polarizability:      14.951      -0.000      14.951       0.000      -0.000       7.309
 Approx polarizability:      11.858      -0.000      11.858       0.000       0.000       5.232
 Calling FoFJK, ICntrl=  10100127 FMM=F ISym2X=1 I1Cent= 0 IOpClX= 0 NMat=1 NMatS=1 NMatT=0.
 Full mass-weighted force constant matrix:
 Low frequencies ---    0.0010    0.0011    0.0011   59.8812   59.8812   59.8812
 Low frequencies --- 1185.7558 1251.9902 1251.9902
 Diagonal vibrational polarizability:
        0.7135676       0.7135676       2.1492135
 Harmonic frequencies (cm**-1), IR intensities (KM/Mole), Raman scattering
 activities (A**4/AMU), depolarization ratios for plane and unpolarized
 incident light, reduced masses (AMU), force constants (mDyne/A),
 and normal coordinates:
                           1         2         3         4         5
                          A2"       E'        E'        A1'       E'
       Frequencies ---  1185.7558 1251.9902 1251.9902 2615.3897 2753.5320
    Reduced masses ---     1.2531    1.1088    1.1088    1.0078    1.1257
   Force constants ---     1.0381    1.0240    1.0240    4.0617    5.0285
    IR Intensities ---   112.2889   18.7933   18.7933    0.0000  110.1360
 Coord Atom Element:
   1     1     5          0.00000  -0.09200   0.04038  -0.00000  -0.10693
   2     1     5          0.00000  -0.04038  -0.09200   0.00000   0.01870
   3     1     5         -0.15660  -0.00000   0.00000  -0.00000   0.00000
   1     2     1         -0.00000   0.74052  -0.32501  -0.00000  -0.02058
   2     2     1         -0.00000  -0.03097  -0.07056   0.57735  -0.13975
   3     2     1          0.57023   0.00000  -0.00000   0.00000  -0.00000
   1     3     1         -0.00000   0.28635   0.29318   0.50000   0.65639
   2     3     1         -0.00000   0.58722   0.38361  -0.28868  -0.38725
   3     3     1          0.57023   0.00000  -0.00000   0.00000  -0.00000
   1     4     1         -0.00000  -0.02193  -0.40923  -0.50000   0.53224
   2     4     1          0.00000  -0.11520   0.69189  -0.28868   0.32277
   3     4     1          0.57023   0.00000  -0.00000   0.00000  -0.00000
                           6
                          E'
       Frequencies ---  2753.5320
    Reduced masses ---     1.1257
   Force constants ---     5.0285
    IR Intensities ---   110.1360
 Coord Atom Element:
   1     1     5         -0.01870
   2     1     5         -0.10693
   3     1     5         -0.00000
   1     2     1         -0.00360
   2     2     1          0.79928
   3     2     1          0.00000
   1     3     1         -0.25109
   2     3     1          0.12231
   3     3     1          0.00000
   1     4     1          0.45892
   2     4     1          0.24646
   3     4     1          0.00000
 Harmonic frequencies (cm**-1), IR intensities (KM/Mole), Raman scattering
 activities (A**4/AMU), depolarization ratios for plane and unpolarized
 incident light, reduced masses (AMU), force constants (mDyne/A),
 and normal coordinates:
                      1                      2                      3
                     A2"                    E'                     E'
 Frequencies --   1185.7558              1251.9902              1251.9902
 Red. masses --      1.2531                 1.1088                 1.1088
 Frc consts  --      1.0381                 1.0240                 1.0240
 IR Inten    --    112.2889                18.7933                18.7933
  Atom  AN      X      Y      Z        X      Y      Z        X      Y      Z
     1   5     0.00   0.00  -0.16    -0.09  -0.04  -0.00     0.04  -0.09   0.00
     2   1    -0.00  -0.00   0.57     0.74  -0.03   0.00    -0.33  -0.07  -0.00
     3   1    -0.00  -0.00   0.57     0.29   0.59   0.00     0.29   0.38  -0.00
     4   1    -0.00   0.00   0.57    -0.02  -0.12   0.00    -0.41   0.69  -0.00
                      4                      5                      6
                     A1'                    E'                     E'
 Frequencies --   2615.3897              2753.5320              2753.5320
 Red. masses --      1.0078                 1.1257                 1.1257
 Frc consts  --      4.0617                 5.0285                 5.0285
 IR Inten    --      0.0000               110.1360               110.1360
  Atom  AN      X      Y      Z        X      Y      Z        X      Y      Z
     1   5    -0.00   0.00  -0.00    -0.11   0.02   0.00    -0.02  -0.11  -0.00
     2   1    -0.00   0.58   0.00    -0.02  -0.14  -0.00    -0.00   0.80   0.00
     3   1     0.50  -0.29   0.00     0.66  -0.39  -0.00    -0.25   0.12   0.00
     4   1    -0.50  -0.29   0.00     0.53   0.32  -0.00     0.46   0.25   0.00

 -------------------
 - Thermochemistry -
 -------------------
 Temperature   298.150 Kelvin.  Pressure   1.00000 Atm.
 Atom     1 has atomic number  5 and mass  11.00931
 Atom     2 has atomic number  1 and mass   1.00783
 Atom     3 has atomic number  1 and mass   1.00783
 Atom     4 has atomic number  1 and mass   1.00783
 Molecular mass:    14.03278 amu.
 Principal axes and moments of inertia in atomic units:
                           1         2         3
     Eigenvalues --     7.73543   7.73543  15.47085
           X           -0.55049   0.83484   0.00000
           Y            0.83484   0.55049   0.00000
           Z            0.00000  -0.00000   1.00000
 This molecule is an oblate symmetric top.
 Rotational symmetry number  6.
 Rotational temperatures (Kelvin)     11.19705    11.19705     5.59852
 Rotational constants (GHZ):         233.30857   233.30857   116.65429
 Zero-point vibrational energy      70652.6 (Joules/Mol)
                                   16.88637 (Kcal/Mol)
 Vibrational temperatures:   1706.04  1801.33  1801.33  3762.96  3961.72
          (Kelvin)           3961.72
 
 Zero-point correction=                           0.026910 (Hartree/Particle)
 Thermal correction to Energy=                    0.029788
 Thermal correction to Enthalpy=                  0.030732
 Thermal correction to Gibbs Free Energy=         0.009349
 Sum of electronic and zero-point Energies=            -26.265509
 Sum of electronic and thermal Energies=               -26.262631
 Sum of electronic and thermal Enthalpies=             -26.261687
 Sum of electronic and thermal Free Energies=          -26.283070
 
                     E (Thermal)             CV                S
                      KCal/Mol        Cal/Mol-Kelvin    Cal/Mol-Kelvin
 Total                   18.692              6.525             45.004
 Electronic               0.000              0.000              0.000
 Translational            0.889              2.981             33.864
 Rotational               0.889              2.981             11.029
 Vibrational             16.915              0.563              0.111
                       Q            Log10(Q)             Ln(Q)
 Total Bot       0.500958D-04         -4.300199         -9.901574
 Total V=0       0.119564D+09          8.077599         18.599360
 Vib (Bot)       0.422373D-12        -12.374304        -28.492888
 Vib (V=0)       0.100808D+01          0.003494          0.008046
 Electronic      0.100000D+01          0.000000          0.000000
 Translational   0.206619D+07          6.315169         14.541215
 Rotational      0.574031D+02          1.758936          4.050099
 ***** Axes restored to original set *****
 -------------------------------------------------------------------
 Center     Atomic                   Forces (Hartrees/Bohr)
 Number     Number              X              Y              Z
 -------------------------------------------------------------------
      1        5           0.000000000    0.000000000    0.000000000
      2        1           0.000000000   -0.000309358   -0.000000000
      3        1           0.000267912    0.000154679    0.000000000
      4        1          -0.000267912    0.000154679   -0.000000000
 -------------------------------------------------------------------
 Cartesian Forces:  Max     0.000309358 RMS     0.000154679
 FormGI is forming the generalized inverse of G from B-inverse, IUseBI=4.

 GradGradGradGradGradGradGradGradGradGradGradGradGradGradGradGradGradGrad
 Berny optimization.
 Internal  Forces:  Max     0.000309358 RMS     0.000202523
 Search for a local minimum.
 Step number   1 out of a maximum of    2
 All quantities printed in internal units (Hartrees-Bohrs-Radians)
 Second derivative matrix not updated -- analytic derivatives used.
 The second derivative matrix:
                          R1        R2        R3        A1        A2
           R1           0.25774
           R2           0.00157   0.25774
           R3           0.00157   0.00157   0.25774
           A1           0.00508   0.00508  -0.01015   0.06065
           A2           0.00508  -0.01015   0.00508  -0.03033   0.06065
           A3          -0.01015   0.00508   0.00508  -0.03033  -0.03033
           D1           0.00000  -0.00000   0.00000   0.00000  -0.00000
                          A3        D1
           A3           0.06065
           D1          -0.00000   0.05364
 ITU=  0
     Eigenvalues ---    0.05364   0.08959   0.08959   0.25756   0.25756
     Eigenvalues ---    0.26089
 Angle between quadratic step and forces=   0.00 degrees.
 Linear search not attempted -- first point.
 Iteration  1 RMS(Cart)=  0.00077629 RMS(Int)=  0.00000000
 Iteration  2 RMS(Cart)=  0.00000000 RMS(Int)=  0.00000000
 ClnCor:  largest displacement from symmetrization is 7.73D-15 for atom     4.
 Variable       Old X    -DE/DX   Delta X   Delta X   Delta X     New X
                                 (Linear)    (Quad)   (Total)
    R1        2.26206  -0.00031   0.00000  -0.00119  -0.00119   2.26087
    R2        2.26206  -0.00031   0.00000  -0.00119  -0.00119   2.26087
    R3        2.26206  -0.00031   0.00000  -0.00119  -0.00119   2.26087
    A1        2.09440  -0.00000   0.00000  -0.00000   0.00000   2.09440
    A2        2.09440   0.00000   0.00000   0.00000   0.00000   2.09440
    A3        2.09440   0.00000   0.00000   0.00000   0.00000   2.09440
    D1        3.14159   0.00000   0.00000  -0.00000   0.00000   3.14159
         Item               Value     Threshold  Converged?
 Maximum Force            0.000309     0.000450     YES
 RMS     Force            0.000203     0.000300     YES
 Maximum Displacement     0.001186     0.001800     YES
 RMS     Displacement     0.000776     0.001200     YES
 Predicted change in Energy=-5.502573D-07
 Optimization completed.
    -- Stationary point found.
                           ----------------------------
                           !   Optimized Parameters   !
                           ! (Angstroms and Degrees)  !
 --------------------------                            --------------------------
 ! Name  Definition              Value          Derivative Info.                !
 --------------------------------------------------------------------------------
 ! R1    R(1,2)                  1.197          -DE/DX =   -0.0003              !
 ! R2    R(1,3)                  1.197          -DE/DX =   -0.0003              !
 ! R3    R(1,4)                  1.197          -DE/DX =   -0.0003              !
 ! A1    A(2,1,3)              120.0            -DE/DX =    0.0                 !
 ! A2    A(2,1,4)              120.0            -DE/DX =    0.0                 !
 ! A3    A(3,1,4)              120.0            -DE/DX =    0.0                 !
 ! D1    D(2,1,4,3)            180.0            -DE/DX =    0.0                 !
 --------------------------------------------------------------------------------
 GradGradGradGradGradGradGradGradGradGradGradGradGradGradGradGradGradGrad

 Dipole is zero, so no output in dipole orientation.

 ----------------------------------------------------------------------

 Electric dipole moment (input orientation):
 (Debye = 10**-18 statcoulomb cm , SI units = C m)
                  (au)            (Debye)         (10**-30 SI)
   Tot        0.000000D+00      0.000000D+00      0.000000D+00
   x          0.000000D+00      0.000000D+00      0.000000D+00
   y          0.000000D+00      0.000000D+00      0.000000D+00
   z          0.000000D+00      0.000000D+00      0.000000D+00

 Dipole polarizability, Alpha (input orientation).
 (esu units = cm**3 , SI units = C**2 m**2 J**-1)
 Alpha(0;0):
               (au)            (10**-24 esu)      (10**-40 SI)
   iso        0.124038D+02      0.183805D+01      0.204510D+01
   aniso      0.764221D+01      0.113246D+01      0.126003D+01
   xx         0.149512D+02      0.221553D+01      0.246511D+01
   yx         0.000000D+00      0.000000D+00      0.000000D+00
   yy         0.149512D+02      0.221553D+01      0.246511D+01
   zx         0.000000D+00      0.000000D+00      0.000000D+00
   zy         0.000000D+00      0.000000D+00      0.000000D+00
   zz         0.730896D+01      0.108308D+01      0.120509D+01

 ----------------------------------------------------------------------
 Unable to Open any file for archive entry.
 1\1\GINC-BS001\Freq\RMP2-FC\3-21G\B1H3\PNATT\10-Aug-2026\0\\#N Geom=Al
 lCheck Guess=TCheck SCRF=Check GenChk RMP2(FC)/3-21G Freq\\Title Card 
 Required\\0,1\B,0.,0.,0.\H,-0.0000000018,1.1970300458,0.\H,-1.03665842
 78,-0.5985150244,0.\H,1.0366584296,-0.5985150213,0.\\Version=ES64L-G16
 RevC.01\State=1-A1'\HF=-26.2371751\MP2=-26.2924191\RMSD=2.062e-10\RMSF
 =1.547e-04\ZeroPoint=0.0269101\Thermal=0.0297877\ETot=-26.2626314\HTot
 =-26.2616872\GTot=-26.2830702\Dipole=0.,0.,0.\DipoleDeriv=0.5244312,0.
 ,0.,0.,0.5244312,0.,0.,0.,0.522702,-0.1007982,0.,0.,0.,-0.2488226,0.,0
 .,0.,-0.174234,-0.2118165,-0.0640964,0.,-0.0640964,-0.1378043,0.,0.,0.
 ,-0.174234,-0.2118165,0.0640964,0.,0.0640964,-0.1378043,0.,0.,0.,-0.17
 4234\Polar=14.9511681,0.,14.9511681,0.,0.,7.3089629\PG=D03H [O(B1),3C2
 (H1)]\NImag=0\\0.42947386,0.,0.42947386,0.,0.,0.12621312,-0.04181504,0
 .,0.,0.03569703,0.,-0.24450087,0.,0.,0.25773706,0.,0.,-0.04207104,0.,0
 .,0.01411485,-0.19382941,-0.08776554,0.,0.00305900,0.00200339,0.,0.202
 22705,-0.08776554,-0.09248650,0.,-0.01876462,-0.00661810,0.,0.09614615
 ,0.09120704,0.,0.,-0.04207104,0.,0.,0.01397809,0.,0.,0.01411485,-0.193
 82941,0.08776554,0.,0.00305900,-0.00200339,0.,-0.01145664,0.01038400,0
 .,0.20222705,0.08776554,-0.09248650,0.,0.01876462,-0.00661810,0.,-0.01
 038400,0.00789755,0.,-0.09614615,0.09120704,0.,0.,-0.04207104,0.,0.,0.
 01397809,0.,0.,0.01397809,0.,0.,0.01411485\\0.,0.,0.,0.,0.00030936,0.,
 -0.00026791,-0.00015468,0.,0.00026791,-0.00015468,0.\\\@
 The archive entry for this job was punched.


 KNOWLEDGE IS CHIMERA - FOR BEYOND IT LIES OTHER KNOWLEDGE,
 AND THE INCOMPLETENESS OF WHAT IS KNOWN RENDERS THE KNOWING FALSE.
     -- THE THOMAS COVENANT CHRONICLES
 Job cpu time:       0 days  0 hours  0 minutes  1.9 seconds.
 Elapsed time:       0 days  0 hours  0 minutes  1.8 seconds.
 File lengths (MBytes):  RWF=     19 Int=      0 D2E=      0 Chk=      1 Scr=      1
 Normal termination of Gaussian 16 at Mon Aug 10 15:52:05 2026.
