 Entering Gaussian System, Link 0=g16
 Input=ClH3.com
 Output=ClH3.log
 Initial command:
 /opt/g16/g16/l1.exe "/home/pnatt/scratch/Gau-1468926.inp" -scrdir="/home/pnatt/scratch/"
 Entering Link 1 = /opt/g16/g16/l1.exe PID=   1468928.
  
 Copyright (c) 1988-2019, Gaussian, Inc.  All Rights Reserved.
  
 This is part of the Gaussian(R) 16 program.  It is based on
 the Gaussian(R) 09 system (copyright 2009, Gaussian, Inc.),
 the Gaussian(R) 03 system (copyright 2003, Gaussian, Inc.),
 the Gaussian(R) 98 system (copyright 1998, Gaussian, Inc.),
 the Gaussian(R) 94 system (copyright 1995, Gaussian, Inc.),
 the Gaussian 92(TM) system (copyright 1992, Gaussian, Inc.),
 the Gaussian 90(TM) system (copyright 1990, Gaussian, Inc.),
 the Gaussian 88(TM) system (copyright 1988, Gaussian, Inc.),
 the Gaussian 86(TM) system (copyright 1986, Carnegie Mellon
 University), and the Gaussian 82(TM) system (copyright 1983,
 Carnegie Mellon University). Gaussian is a federally registered
 trademark of Gaussian, Inc.
  
 This software contains proprietary and confidential information,
 including trade secrets, belonging to Gaussian, Inc.
  
 This software is provided under written license and may be
 used, copied, transmitted, or stored only in accord with that
 written license.
  
 The following legend is applicable only to US Government
 contracts under FAR:
  
                    RESTRICTED RIGHTS LEGEND
  
 Use, reproduction and disclosure by the US Government is
 subject to restrictions as set forth in subparagraphs (a)
 and (c) of the Commercial Computer Software - Restricted
 Rights clause in FAR 52.227-19.
  
 Gaussian, Inc.
 340 Quinnipiac St., Bldg. 40, Wallingford CT 06492
  
  
 ---------------------------------------------------------------
 Warning -- This program may not be used in any manner that
 competes with the business of Gaussian, Inc. or will provide
 assistance to any competitor of Gaussian, Inc.  The licensee
 of this program is prohibited from giving any competitor of
 Gaussian, Inc. access to this program.  By using this program,
 the user acknowledges that Gaussian, Inc. is engaged in the
 business of creating and licensing software in the field of
 computational chemistry and represents and warrants to the
 licensee that it is not a competitor of Gaussian, Inc. and that
 it will not use this program in any manner prohibited above.
 ---------------------------------------------------------------
  

 Cite this work as:
 Gaussian 16, Revision C.01,
 M. J. Frisch, G. W. Trucks, H. B. Schlegel, G. E. Scuseria, 
 M. A. Robb, J. R. Cheeseman, G. Scalmani, V. Barone, 
 G. A. Petersson, H. Nakatsuji, X. Li, M. Caricato, A. V. Marenich, 
 J. Bloino, B. G. Janesko, R. Gomperts, B. Mennucci, H. P. Hratchian, 
 J. V. Ortiz, A. F. Izmaylov, J. L. Sonnenberg, D. Williams-Young, 
 F. Ding, F. Lipparini, F. Egidi, J. Goings, B. Peng, A. Petrone, 
 T. Henderson, D. Ranasinghe, V. G. Zakrzewski, J. Gao, N. Rega, 
 G. Zheng, W. Liang, M. Hada, M. Ehara, K. Toyota, R. Fukuda, 
 J. Hasegawa, M. Ishida, T. Nakajima, Y. Honda, O. Kitao, H. Nakai, 
 T. Vreven, K. Throssell, J. A. Montgomery, Jr., J. E. Peralta, 
 F. Ogliaro, M. J. Bearpark, J. J. Heyd, E. N. Brothers, K. N. Kudin, 
 V. N. Staroverov, T. A. Keith, R. Kobayashi, J. Normand, 
 K. Raghavachari, A. P. Rendell, J. C. Burant, S. S. Iyengar, 
 J. Tomasi, M. Cossi, J. M. Millam, M. Klene, C. Adamo, R. Cammi, 
 J. W. Ochterski, R. L. Martin, K. Morokuma, O. Farkas, 
 J. B. Foresman, and D. J. Fox, Gaussian, Inc., Wallingford CT, 2019.
 
 ******************************************
 Gaussian 16:  ES64L-G16RevC.01  3-Jul-2019
                10-Aug-2026 
 ******************************************
 %chk=clh3_dft.chk
 ------------------------------------------------
 # opt freq=hpmodes b3lyp/3-21g geom=connectivity
 ------------------------------------------------
 1/18=20,19=15,26=3,38=1,57=2/1,3;
 2/9=110,12=2,17=6,18=5,40=1/2;
 3/5=5,11=2,25=1,30=1,71=1,74=-5/1,2,3;
 4//1;
 5/5=2,38=5/2;
 6/7=2,8=2,9=2,10=2,28=1/1;
 7//1,2,3,16;
 1/18=20,19=15,26=3/3(2);
 2/9=110/2;
 99//99;
 2/9=110/2;
 3/5=5,11=2,25=1,30=1,71=1,74=-5/1,2,3;
 4/5=5,16=3,69=1/1;
 5/5=2,38=5/2;
 7//1,2,3,16;
 1/18=20,19=15,26=3/3(-5);
 2/9=110/2;
 6/7=2,8=2,9=2,10=2,19=2,28=1/1;
 99/9=1/99;
 -------------------
 Title Card Required
 -------------------
 Symbolic Z-matrix:
 Charge =  0 Multiplicity = 1
 Cl                    0.        0.        0.07626 
 H                     0.        0.       -1.20774 
 H                     0.        1.72673  -0.0443 
 H                     0.       -1.72673  -0.0443 
 

 GradGradGradGradGradGradGradGradGradGradGradGradGradGradGradGradGradGrad
 Berny optimization.
 Initialization pass.
                           ----------------------------
                           !    Initial Parameters    !
                           ! (Angstroms and Degrees)  !
 --------------------------                            --------------------------
 ! Name  Definition              Value          Derivative Info.                !
 --------------------------------------------------------------------------------
 ! R1    R(1,2)                  1.284          estimate D2E/DX2                !
 ! R2    R(1,3)                  1.7309         estimate D2E/DX2                !
 ! R3    R(1,4)                  1.7309         estimate D2E/DX2                !
 ! A1    A(2,1,3)               86.0063         estimate D2E/DX2                !
 ! A2    A(2,1,4)               86.0063         estimate D2E/DX2                !
 ! A3    L(3,1,4,2,-1)         172.0125         estimate D2E/DX2                !
 ! A4    L(3,1,4,2,-2)         180.0            estimate D2E/DX2                !
 ! D1    D(2,1,4,3)              0.0            estimate D2E/DX2                !
 --------------------------------------------------------------------------------
 Trust Radius=3.00D-01 FncErr=1.00D-07 GrdErr=1.00D-06 EigMax=2.50D+02 EigMin=1.00D-04
 Number of steps in this run=     20 maximum allowed number of steps=    100.
 GradGradGradGradGradGradGradGradGradGradGradGradGradGradGradGradGradGrad

                          Input orientation:                          
 ---------------------------------------------------------------------
 Center     Atomic      Atomic             Coordinates (Angstroms)
 Number     Number       Type             X           Y           Z
 ---------------------------------------------------------------------
      1         17           0        0.000000    0.000000    0.076255
      2          1           0        0.000000    0.000000   -1.207741
      3          1           0        0.000000    1.726727   -0.044300
      4          1           0        0.000000   -1.726727   -0.044300
 ---------------------------------------------------------------------
                    Distance matrix (angstroms):
                    1          2          3          4
     1  Cl   0.000000
     2  H    1.283996   0.000000
     3  H    1.730930   2.082110   0.000000
     4  H    1.730930   2.082110   3.453454   0.000000
 Stoichiometry    ClH3
 Framework group  C2V[C2(HCl),SGV(H2)]
 Deg. of freedom     3
 Full point group                 C2V     NOp   4
 Largest Abelian subgroup         C2V     NOp   4
 Largest concise Abelian subgroup C2      NOp   2
                         Standard orientation:                         
 ---------------------------------------------------------------------
 Center     Atomic      Atomic             Coordinates (Angstroms)
 Number     Number       Type             X           Y           Z
 ---------------------------------------------------------------------
      1         17           0        0.000000   -0.000000    0.076255
      2          1           0       -0.000000    0.000000   -1.207741
      3          1           0        0.000000    1.726727   -0.044300
      4          1           0       -0.000000   -1.726727   -0.044300
 ---------------------------------------------------------------------
 Rotational constants (GHZ):         310.3040422          84.0920037          66.1621458
 Standard basis: 3-21G (6D, 7F)
 There are    11 symmetry adapted cartesian basis functions of A1  symmetry.
 There are     0 symmetry adapted cartesian basis functions of A2  symmetry.
 There are     3 symmetry adapted cartesian basis functions of B1  symmetry.
 There are     5 symmetry adapted cartesian basis functions of B2  symmetry.
 There are    11 symmetry adapted basis functions of A1  symmetry.
 There are     0 symmetry adapted basis functions of A2  symmetry.
 There are     3 symmetry adapted basis functions of B1  symmetry.
 There are     5 symmetry adapted basis functions of B2  symmetry.
    19 basis functions,    36 primitive gaussians,    19 cartesian basis functions
    10 alpha electrons       10 beta electrons
       nuclear repulsion energy        18.0622272073 Hartrees.
 NAtoms=    4 NActive=    4 NUniq=    3 SFac= 1.78D+00 NAtFMM=   60 NAOKFM=F Big=F
 Integral buffers will be    131072 words long.
 Raffenetti 2 integral format.
 Two-electron integral symmetry is turned on.
 One-electron integrals computed using PRISM.
 NBasis=    19 RedAO= T EigKep=  5.29D-02  NBF=    11     0     3     5
 NBsUse=    19 1.00D-06 EigRej= -1.00D+00 NBFU=    11     0     3     5
 ExpMin= 1.67D-01 ExpMax= 1.38D+03 ExpMxC= 1.38D+03 IAcc=3 IRadAn=         5 AccDes= 0.00D+00
 Harris functional with IExCor=  402 and IRadAn=       5 diagonalized for initial guess.
 HarFok:  IExCor=  402 AccDes= 0.00D+00 IRadAn=         5 IDoV= 1 UseB2=F ITyADJ=14
 ICtDFT=  3500011 ScaDFX=  1.000000  1.000000  1.000000  1.000000
 FoFCou: FMM=F IPFlag=           0 FMFlag=      100000 FMFlg1=           0
         NFxFlg=           0 DoJE=T BraDBF=F KetDBF=T FulRan=T
         wScrn=  0.000000 ICntrl=       500 IOpCl=  0 I1Cent=   200000004 NGrid=           0
         NMat0=    1 NMatS0=      1 NMatT0=    0 NMatD0=    1 NMtDS0=    0 NMtDT0=    0
 Petite list used in FoFCou.
 Initial guess orbital symmetries:
       Occupied  (A1) (A1) (A1) (B2) (B1) (A1) (A1) (B2) (B1) (A1)
       Virtual   (B2) (A1) (A1) (B1) (A1) (B2) (A1) (B2) (A1)
 The electronic state of the initial guess is 1-A1.
 Keep R1 ints in memory in symmetry-blocked form, NReq=882676.
 Requested convergence on RMS density matrix=1.00D-08 within 128 cycles.
 Requested convergence on MAX density matrix=1.00D-06.
 Requested convergence on             energy=1.00D-06.
 No special actions if energy rises.
 Integral accuracy reduced to 1.0D-05 until final iterations.
 Initial convergence to 1.0D-05 achieved.  Increase integral accuracy.
 SCF Done:  E(RB3LYP) =  -459.552985015     A.U. after   11 cycles
            NFock= 11  Conv=0.75D-09     -V/T= 2.0027

 **********************************************************************

            Population analysis using the SCF Density.

 **********************************************************************

 Orbital symmetries:
       Occupied  (A1) (A1) (A1) (B2) (B1) (A1) (A1) (B2) (B1) (A1)
       Virtual   (A1) (B2) (A1) (B1) (A1) (B2) (A1) (B2) (A1)
 The electronic state is 1-A1.
 Alpha  occ. eigenvalues -- -100.93579  -9.50060  -7.27064  -7.26834  -7.25842
 Alpha  occ. eigenvalues --   -0.94498  -0.53871  -0.48138  -0.40273  -0.18780
 Alpha virt. eigenvalues --   -0.03093  -0.02234   0.50719   0.51359   0.59373
 Alpha virt. eigenvalues --    0.70427   0.78559   0.95675   1.01558
          Condensed to atoms (all electrons):
               1          2          3          4
     1  Cl  16.681602   0.246621  -0.033164  -0.033164
     2  H    0.246621   0.534644  -0.025800  -0.025800
     3  H   -0.033164  -0.025800   1.249019   0.014165
     4  H   -0.033164  -0.025800   0.014165   1.249019
 Mulliken charges:
               1
     1  Cl   0.138104
     2  H    0.270336
     3  H   -0.204220
     4  H   -0.204220
 Sum of Mulliken charges =   0.00000
 Mulliken charges with hydrogens summed into heavy atoms:
               1
     1  Cl   0.000000
 Electronic spatial extent (au):  <R**2>=             65.2385
 Charge=              0.0000 electrons
 Dipole moment (field-independent basis, Debye):
    X=              0.0000    Y=              0.0000    Z=             -1.7133  Tot=              1.7133
 Quadrupole moment (field-independent basis, Debye-Ang):
   XX=            -16.0925   YY=            -22.8842   ZZ=            -12.6291
   XY=             -0.0000   XZ=             -0.0000   YZ=              0.0000
 Traceless Quadrupole moment (field-independent basis, Debye-Ang):
   XX=              1.1095   YY=             -5.6823   ZZ=              4.5728
   XY=             -0.0000   XZ=             -0.0000   YZ=              0.0000
 Octapole moment (field-independent basis, Debye-Ang**2):
  XXX=              0.0000  YYY=             -0.0000  ZZZ=             -2.3946  XYY=              0.0000
  XXY=             -0.0000  XXZ=             -0.2386  XZZ=              0.0000  YZZ=              0.0000
  YYZ=              0.3370  XYZ=              0.0000
 Hexadecapole moment (field-independent basis, Debye-Ang**3):
 XXXX=            -16.8818 YYYY=            -97.9039 ZZZZ=            -16.1661 XXXY=             -0.0000
 XXXZ=             -0.0000 YYYX=             -0.0000 YYYZ=              0.0000 ZZZX=             -0.0000
 ZZZY=              0.0000 XXYY=            -15.0568 XXZZ=             -6.0509 YYZZ=            -15.3639
 XXYZ=              0.0000 YYXZ=             -0.0000 ZZXY=             -0.0000
 N-N= 1.806222720726D+01 E-N=-1.127260872512D+03  KE= 4.583152856280D+02
 Symmetry A1   KE= 3.686751499267D+02
 Symmetry A2   KE= 0.000000000000D+00
 Symmetry B1   KE= 4.544671284090D+01
 Symmetry B2   KE= 4.419342286039D+01
 Calling FoFJK, ICntrl=      2127 FMM=F ISym2X=1 I1Cent= 0 IOpClX= 0 NMat=1 NMatS=1 NMatT=0.
 ***** Axes restored to original set *****
 -------------------------------------------------------------------
 Center     Atomic                   Forces (Hartrees/Bohr)
 Number     Number              X              Y              Z
 -------------------------------------------------------------------
      1       17          -0.000000000    0.000000000    0.015979414
      2        1           0.000000000    0.000000000   -0.014566515
      3        1           0.000000000    0.010194208   -0.000706449
      4        1           0.000000000   -0.010194208   -0.000706449
 -------------------------------------------------------------------
 Cartesian Forces:  Max     0.015979414 RMS     0.007507590

 GradGradGradGradGradGradGradGradGradGradGradGradGradGradGradGradGradGrad
 Berny optimization.
 FormGI is forming the generalized inverse of G from B-inverse, IUseBI=4.
 Internal  Forces:  Max     0.014566515 RMS     0.007254528
 Search for a local minimum.
 Step number   1 out of a maximum of   20
 All quantities printed in internal units (Hartrees-Bohrs-Radians)
 Mixed Optimization -- RFO/linear search
 Second derivative matrix not updated -- first step.
 The second derivative matrix:
                          R1        R2        R3        A1        A2
           R1           0.31462
           R2           0.00000   0.09742
           R3           0.00000   0.00000   0.09742
           A1           0.00000   0.00000   0.00000   0.16000
           A2           0.00000   0.00000   0.00000   0.00000   0.16000
           A3           0.00000   0.00000   0.00000   0.00000   0.00000
           A4           0.00000   0.00000   0.00000   0.00000   0.00000
           D1           0.00000   0.00000   0.00000   0.00000   0.00000
                          A3        A4        D1
           A3           0.00230
           A4           0.00000   0.00230
           D1           0.00000   0.00000   0.00230
 ITU=  0
     Eigenvalues ---    0.00230   0.05487   0.09742   0.09742   0.16000
     Eigenvalues ---    0.31462
 RFO step:  Lambda=-2.75342862D-03 EMin= 2.30000000D-03
 Linear search not attempted -- first point.
 Iteration  1 RMS(Cart)=  0.05248339 RMS(Int)=  0.00000261
 Iteration  2 RMS(Cart)=  0.00000360 RMS(Int)=  0.00000000
 Iteration  3 RMS(Cart)=  0.00000000 RMS(Int)=  0.00000000
 ClnCor:  largest displacement from symmetrization is 6.34D-13 for atom     1.
 Variable       Old X    -DE/DX   Delta X   Delta X   Delta X     New X
                                 (Linear)    (Quad)   (Total)
    R1        2.42640   0.01457   0.00000   0.04590   0.04590   2.47230
    R2        3.27098   0.01022   0.00000   0.10201   0.10201   3.37300
    R3        3.27098   0.01022   0.00000   0.10201   0.10201   3.37300
    A1        1.50109   0.00001   0.00000   0.00010   0.00010   1.50119
    A2        1.50109   0.00001   0.00000   0.00010   0.00010   1.50119
    A3        3.00218   0.00001   0.00000   0.00020   0.00020   3.00238
    A4        3.14159  -0.00000   0.00000  -0.00000   0.00000   3.14159
    D1       -0.00000   0.00000   0.00000   0.00000   0.00000   0.00000
         Item               Value     Threshold  Converged?
 Maximum Force            0.014567     0.000450     NO 
 RMS     Force            0.007255     0.000300     NO 
 Maximum Displacement     0.101788     0.001800     NO 
 RMS     Displacement     0.052484     0.001200     NO 
 Predicted change in Energy=-1.408269D-03
 GradGradGradGradGradGradGradGradGradGradGradGradGradGradGradGradGradGrad

                          Input orientation:                          
 ---------------------------------------------------------------------
 Center     Atomic      Atomic             Coordinates (Angstroms)
 Number     Number       Type             X           Y           Z
 ---------------------------------------------------------------------
      1         17           0        0.000000    0.000000    0.084118
      2          1           0       -0.000000   -0.000000   -1.224166
      3          1           0        0.000000    1.780591   -0.040019
      4          1           0       -0.000000   -1.780591   -0.040019
 ---------------------------------------------------------------------
                    Distance matrix (angstroms):
                    1          2          3          4
     1  Cl   0.000000
     2  H    1.308284   0.000000
     3  H    1.784913   2.138389   0.000000
     4  H    1.784913   2.138389   3.561182   0.000000
 Stoichiometry    ClH3
 Framework group  C2V[C2(HCl),SGV(H2)]
 Deg. of freedom     3
 Full point group                 C2V     NOp   4
 Largest Abelian subgroup         C2V     NOp   4
 Largest concise Abelian subgroup C2      NOp   2
                         Standard orientation:                         
 ---------------------------------------------------------------------
 Center     Atomic      Atomic             Coordinates (Angstroms)
 Number     Number       Type             X           Y           Z
 ---------------------------------------------------------------------
      1         17           0        0.000000    0.000000    0.077828
      2          1           0        0.000000    0.000000   -1.230456
      3          1           0        0.000000    1.780591   -0.046309
      4          1           0       -0.000000   -1.780591   -0.046309
 ---------------------------------------------------------------------
 Rotational constants (GHZ):         298.8132869          79.0812935          62.5320988
 Standard basis: 3-21G (6D, 7F)
 There are    11 symmetry adapted cartesian basis functions of A1  symmetry.
 There are     0 symmetry adapted cartesian basis functions of A2  symmetry.
 There are     3 symmetry adapted cartesian basis functions of B1  symmetry.
 There are     5 symmetry adapted cartesian basis functions of B2  symmetry.
 There are    11 symmetry adapted basis functions of A1  symmetry.
 There are     0 symmetry adapted basis functions of A2  symmetry.
 There are     3 symmetry adapted basis functions of B1  symmetry.
 There are     5 symmetry adapted basis functions of B2  symmetry.
    19 basis functions,    36 primitive gaussians,    19 cartesian basis functions
    10 alpha electrons       10 beta electrons
       nuclear repulsion energy        17.5997772158 Hartrees.
 NAtoms=    4 NActive=    4 NUniq=    3 SFac= 1.78D+00 NAtFMM=   60 NAOKFM=F Big=F
 Integral buffers will be    131072 words long.
 Raffenetti 2 integral format.
 Two-electron integral symmetry is turned on.
 One-electron integrals computed using PRISM.
 NBasis=    19 RedAO= T EigKep=  5.59D-02  NBF=    11     0     3     5
 NBsUse=    19 1.00D-06 EigRej= -1.00D+00 NBFU=    11     0     3     5
 Initial guess from the checkpoint file:  "clh3_dft.chk"
 B after Tr=    -0.000000    0.000000   -0.000000
         Rot=    1.000000    0.000000    0.000000    0.000000 Ang=   0.00 deg.
 Initial guess orbital symmetries:
       Occupied  (A1) (A1) (A1) (B2) (B1) (A1) (A1) (B2) (B1) (A1)
       Virtual   (A1) (B2) (A1) (B1) (A1) (B2) (A1) (B2) (A1)
 ExpMin= 1.67D-01 ExpMax= 1.38D+03 ExpMxC= 1.38D+03 IAcc=3 IRadAn=         5 AccDes= 0.00D+00
 Harris functional with IExCor=  402 and IRadAn=       5 diagonalized for initial guess.
 HarFok:  IExCor=  402 AccDes= 0.00D+00 IRadAn=         5 IDoV= 1 UseB2=F ITyADJ=14
 ICtDFT=  3500011 ScaDFX=  1.000000  1.000000  1.000000  1.000000
 FoFCou: FMM=F IPFlag=           0 FMFlag=      100000 FMFlg1=           0
         NFxFlg=           0 DoJE=T BraDBF=F KetDBF=T FulRan=T
         wScrn=  0.000000 ICntrl=       500 IOpCl=  0 I1Cent=   200000004 NGrid=           0
         NMat0=    1 NMatS0=      1 NMatT0=    0 NMatD0=    1 NMtDS0=    0 NMtDT0=    0
 Petite list used in FoFCou.
 Keep R1 ints in memory in symmetry-blocked form, NReq=882676.
 Requested convergence on RMS density matrix=1.00D-08 within 128 cycles.
 Requested convergence on MAX density matrix=1.00D-06.
 Requested convergence on             energy=1.00D-06.
 No special actions if energy rises.
 Integral accuracy reduced to 1.0D-05 until final iterations.
 Initial convergence to 1.0D-05 achieved.  Increase integral accuracy.
 SCF Done:  E(RB3LYP) =  -459.554656556     A.U. after   11 cycles
            NFock= 11  Conv=0.40D-08     -V/T= 2.0029
 Calling FoFJK, ICntrl=      2127 FMM=F ISym2X=1 I1Cent= 0 IOpClX= 0 NMat=1 NMatS=1 NMatT=0.
 ***** Axes restored to original set *****
 -------------------------------------------------------------------
 Center     Atomic                   Forces (Hartrees/Bohr)
 Number     Number              X              Y              Z
 -------------------------------------------------------------------
      1       17          -0.000000000    0.000000000    0.001814306
      2        1           0.000000000    0.000000000   -0.001442778
      3        1           0.000000000    0.002874741   -0.000185764
      4        1           0.000000000   -0.002874741   -0.000185764
 -------------------------------------------------------------------
 Cartesian Forces:  Max     0.002874741 RMS     0.001353102

 GradGradGradGradGradGradGradGradGradGradGradGradGradGradGradGradGradGrad
 Berny optimization.
 Using GEDIIS/GDIIS optimizer.
 FormGI is forming the generalized inverse of G from B-inverse, IUseBI=4.
 Internal  Forces:  Max     0.002880700 RMS     0.001528075
 Search for a local minimum.
 Step number   2 out of a maximum of   20
 All quantities printed in internal units (Hartrees-Bohrs-Radians)
 Mixed Optimization -- RFO/linear search
 Update second derivatives using D2CorX and points    1    2
 DE= -1.67D-03 DEPred=-1.41D-03 R= 1.19D+00
 TightC=F SS=  1.41D+00  RLast= 1.51D-01 DXNew= 5.0454D-01 4.5418D-01
 Trust test= 1.19D+00 RLast= 1.51D-01 DXMaxT set to 4.54D-01
 The second derivative matrix:
                          R1        R2        R3        A1        A2
           R1           0.31915
           R2          -0.00747   0.08636
           R3          -0.00747  -0.01106   0.08636
           A1          -0.00015  -0.00010  -0.00010   0.16000
           A2          -0.00015  -0.00010  -0.00010  -0.00000   0.16000
           A3          -0.00014  -0.00008  -0.00008   0.00000   0.00000
           A4           0.00000   0.00000   0.00000  -0.00000  -0.00000
           D1          -0.00000  -0.00000  -0.00000   0.00000   0.00000
                          A3        A4        D1
           A3           0.00230
           A4          -0.00000   0.00230
           D1           0.00000  -0.00000   0.00230
 ITU=  1  0
 Use linear search instead of GDIIS.
     Eigenvalues ---    0.00230   0.05486   0.07484   0.09742   0.16000
     Eigenvalues ---    0.31960
 RFO step:  Lambda=-3.87227976D-05 EMin= 2.30000000D-03
 Quartic linear search produced a step of  0.35445.
 Iteration  1 RMS(Cart)=  0.02222689 RMS(Int)=  0.00000463
 Iteration  2 RMS(Cart)=  0.00000647 RMS(Int)=  0.00000000
 Iteration  3 RMS(Cart)=  0.00000000 RMS(Int)=  0.00000000
 ClnCor:  largest displacement from symmetrization is 1.71D-12 for atom     1.
 Variable       Old X    -DE/DX   Delta X   Delta X   Delta X     New X
                                 (Linear)    (Quad)   (Total)
    R1        2.47230   0.00144   0.01627  -0.00911   0.00716   2.47946
    R2        3.37300   0.00288   0.03616   0.00814   0.04430   3.41730
    R3        3.37300   0.00288   0.03616   0.00814   0.04430   3.41730
    A1        1.50119   0.00002   0.00004   0.00038   0.00041   1.50160
    A2        1.50119   0.00002   0.00004   0.00038   0.00041   1.50160
    A3        3.00238   0.00003   0.00007   0.00075   0.00082   3.00321
    A4        3.14159  -0.00000   0.00000  -0.00000   0.00000   3.14159
    D1       -0.00000   0.00000   0.00000   0.00000   0.00000   0.00000
         Item               Value     Threshold  Converged?
 Maximum Force            0.002881     0.000450     NO 
 RMS     Force            0.001528     0.000300     NO 
 Maximum Displacement     0.044290     0.001800     NO 
 RMS     Displacement     0.022228     0.001200     NO 
 Predicted change in Energy=-1.143825D-04
 GradGradGradGradGradGradGradGradGradGradGradGradGradGradGradGradGradGrad

                          Input orientation:                          
 ---------------------------------------------------------------------
 Center     Atomic      Atomic             Coordinates (Angstroms)
 Number     Number       Type             X           Y           Z
 ---------------------------------------------------------------------
      1         17           0       -0.000000   -0.000000    0.085509
      2          1           0       -0.000000    0.000000   -1.226565
      3          1           0        0.000000    1.804028   -0.039515
      4          1           0       -0.000000   -1.804028   -0.039515
 ---------------------------------------------------------------------
                    Distance matrix (angstroms):
                    1          2          3          4
     1  Cl   0.000000
     2  H    1.312074   0.000000
     3  H    1.808355   2.159538   0.000000
     4  H    1.808355   2.159538   3.608057   0.000000
 Stoichiometry    ClH3
 Framework group  C2V[C2(HCl),SGV(H2)]
 Deg. of freedom     3
 Full point group                 C2V     NOp   4
 Largest Abelian subgroup         C2V     NOp   4
 Largest concise Abelian subgroup C2      NOp   2
                         Standard orientation:                         
 ---------------------------------------------------------------------
 Center     Atomic      Atomic             Coordinates (Angstroms)
 Number     Number       Type             X           Y           Z
 ---------------------------------------------------------------------
      1         17           0       -0.000000    0.000000    0.078106
      2          1           0        0.000000   -0.000000   -1.233968
      3          1           0       -0.000000    1.804028   -0.046918
      4          1           0       -0.000000   -1.804028   -0.046918
 ---------------------------------------------------------------------
 Rotational constants (GHZ):         297.0584207          77.0398380          61.1746569
 Standard basis: 3-21G (6D, 7F)
 There are    11 symmetry adapted cartesian basis functions of A1  symmetry.
 There are     0 symmetry adapted cartesian basis functions of A2  symmetry.
 There are     3 symmetry adapted cartesian basis functions of B1  symmetry.
 There are     5 symmetry adapted cartesian basis functions of B2  symmetry.
 There are    11 symmetry adapted basis functions of A1  symmetry.
 There are     0 symmetry adapted basis functions of A2  symmetry.
 There are     3 symmetry adapted basis functions of B1  symmetry.
 There are     5 symmetry adapted basis functions of B2  symmetry.
    19 basis functions,    36 primitive gaussians,    19 cartesian basis functions
    10 alpha electrons       10 beta electrons
       nuclear repulsion energy        17.4424635080 Hartrees.
 NAtoms=    4 NActive=    4 NUniq=    3 SFac= 1.78D+00 NAtFMM=   60 NAOKFM=F Big=F
 Integral buffers will be    131072 words long.
 Raffenetti 2 integral format.
 Two-electron integral symmetry is turned on.
 One-electron integrals computed using PRISM.
 NBasis=    19 RedAO= T EigKep=  5.66D-02  NBF=    11     0     3     5
 NBsUse=    19 1.00D-06 EigRej= -1.00D+00 NBFU=    11     0     3     5
 Initial guess from the checkpoint file:  "clh3_dft.chk"
 B after Tr=    -0.000000   -0.000000    0.000000
         Rot=    1.000000   -0.000000    0.000000   -0.000000 Ang=   0.00 deg.
 Initial guess orbital symmetries:
       Occupied  (A1) (A1) (A1) (B2) (B1) (A1) (A1) (B2) (B1) (A1)
       Virtual   (A1) (B2) (A1) (B1) (A1) (B2) (A1) (B2) (A1)
 ExpMin= 1.67D-01 ExpMax= 1.38D+03 ExpMxC= 1.38D+03 IAcc=3 IRadAn=         5 AccDes= 0.00D+00
 Harris functional with IExCor=  402 and IRadAn=       5 diagonalized for initial guess.
 HarFok:  IExCor=  402 AccDes= 0.00D+00 IRadAn=         5 IDoV= 1 UseB2=F ITyADJ=14
 ICtDFT=  3500011 ScaDFX=  1.000000  1.000000  1.000000  1.000000
 FoFCou: FMM=F IPFlag=           0 FMFlag=      100000 FMFlg1=           0
         NFxFlg=           0 DoJE=T BraDBF=F KetDBF=T FulRan=T
         wScrn=  0.000000 ICntrl=       500 IOpCl=  0 I1Cent=   200000004 NGrid=           0
         NMat0=    1 NMatS0=      1 NMatT0=    0 NMatD0=    1 NMtDS0=    0 NMtDT0=    0
 Petite list used in FoFCou.
 Keep R1 ints in memory in symmetry-blocked form, NReq=882676.
 Requested convergence on RMS density matrix=1.00D-08 within 128 cycles.
 Requested convergence on MAX density matrix=1.00D-06.
 Requested convergence on             energy=1.00D-06.
 No special actions if energy rises.
 Integral accuracy reduced to 1.0D-05 until final iterations.
 Initial convergence to 1.0D-05 achieved.  Increase integral accuracy.
 SCF Done:  E(RB3LYP) =  -459.554791100     A.U. after   10 cycles
            NFock= 10  Conv=0.73D-08     -V/T= 2.0029
 Calling FoFJK, ICntrl=      2127 FMM=F ISym2X=1 I1Cent= 0 IOpClX= 0 NMat=1 NMatS=1 NMatT=0.
 ***** Axes restored to original set *****
 -------------------------------------------------------------------
 Center     Atomic                   Forces (Hartrees/Bohr)
 Number     Number              X              Y              Z
 -------------------------------------------------------------------
      1       17          -0.000000000   -0.000000000   -0.000247400
      2        1           0.000000000    0.000000000    0.000360688
      3        1           0.000000000    0.000107805   -0.000056644
      4        1           0.000000000   -0.000107805   -0.000056644
 -------------------------------------------------------------------
 Cartesian Forces:  Max     0.000360688 RMS     0.000135697

 GradGradGradGradGradGradGradGradGradGradGradGradGradGradGradGradGradGrad
 Berny optimization.
 Using GEDIIS/GDIIS optimizer.
 FormGI is forming the generalized inverse of G from B-inverse, IUseBI=4.
 Internal  Forces:  Max     0.000360688 RMS     0.000147343
 Search for a local minimum.
 Step number   3 out of a maximum of   20
 All quantities printed in internal units (Hartrees-Bohrs-Radians)
 Mixed Optimization -- En-DIIS/RFO-DIIS
 Update second derivatives using D2CorX and points    1    2    3
 DE= -1.35D-04 DEPred=-1.14D-04 R= 1.18D+00
 TightC=F SS=  1.41D+00  RLast= 6.31D-02 DXNew= 7.6383D-01 1.8920D-01
 Trust test= 1.18D+00 RLast= 6.31D-02 DXMaxT set to 4.54D-01
 The second derivative matrix:
                          R1        R2        R3        A1        A2
           R1           0.32585
           R2          -0.00600   0.08043
           R3          -0.00600  -0.01698   0.08043
           A1           0.00008   0.00007   0.00007   0.16001
           A2           0.00008   0.00007   0.00007   0.00001   0.16001
           A3           0.00127   0.00151   0.00151   0.00004   0.00004
           A4           0.00000   0.00000   0.00000   0.00000   0.00000
           D1          -0.00000  -0.00000  -0.00000  -0.00000  -0.00000
                          A3        A4        D1
           A3           0.00238
           A4           0.00000   0.00230
           D1          -0.00000  -0.00000   0.00230
 ITU=  1  1  0
 Use linear search instead of GDIIS.
     Eigenvalues ---    0.00230   0.05457   0.06358   0.09742   0.16000
     Eigenvalues ---    0.32613
 RFO step:  Lambda=-9.10710225D-07 EMin= 2.30000000D-03
 Quartic linear search produced a step of  0.02894.
 Iteration  1 RMS(Cart)=  0.00168301 RMS(Int)=  0.00000099
 Iteration  2 RMS(Cart)=  0.00000125 RMS(Int)=  0.00000000
 Iteration  3 RMS(Cart)=  0.00000000 RMS(Int)=  0.00000000
 ClnCor:  largest displacement from symmetrization is 1.72D-12 for atom     1.
 Variable       Old X    -DE/DX   Delta X   Delta X   Delta X     New X
                                 (Linear)    (Quad)   (Total)
    R1        2.47946  -0.00036   0.00021  -0.00124  -0.00103   2.47843
    R2        3.41730   0.00011   0.00128   0.00049   0.00177   3.41906
    R3        3.41730   0.00011   0.00128   0.00049   0.00177   3.41906
    A1        1.50160  -0.00006   0.00001  -0.00105  -0.00104   1.50056
    A2        1.50160  -0.00006   0.00001  -0.00105  -0.00104   1.50056
    A3        3.00321  -0.00011   0.00002  -0.00211  -0.00208   3.00113
    A4        3.14159  -0.00000   0.00000  -0.00000   0.00000   3.14159
    D1       -0.00000   0.00000   0.00000   0.00000   0.00000   0.00000
         Item               Value     Threshold  Converged?
 Maximum Force            0.000361     0.000450     YES
 RMS     Force            0.000147     0.000300     YES
 Maximum Displacement     0.002610     0.001800     NO 
 RMS     Displacement     0.001683     0.001200     NO 
 Predicted change in Energy=-5.515830D-07
 GradGradGradGradGradGradGradGradGradGradGradGradGradGradGradGradGradGrad

                          Input orientation:                          
 ---------------------------------------------------------------------
 Center     Atomic      Atomic             Coordinates (Angstroms)
 Number     Number       Type             X           Y           Z
 ---------------------------------------------------------------------
      1         17           0       -0.000000   -0.000000    0.086345
      2          1           0       -0.000000    0.000000   -1.225184
      3          1           0        0.000000    1.804830   -0.040623
      4          1           0       -0.000000   -1.804830   -0.040623
 ---------------------------------------------------------------------
                    Distance matrix (angstroms):
                    1          2          3          4
     1  Cl   0.000000
     2  H    1.311528   0.000000
     3  H    1.809291   2.158841   0.000000
     4  H    1.809291   2.158841   3.609661   0.000000
 Stoichiometry    ClH3
 Framework group  C2V[C2(HCl),SGV(H2)]
 Deg. of freedom     3
 Full point group                 C2V     NOp   4
 Largest Abelian subgroup         C2V     NOp   4
 Largest concise Abelian subgroup C2      NOp   2
                         Standard orientation:                         
 ---------------------------------------------------------------------
 Center     Atomic      Atomic             Coordinates (Angstroms)
 Number     Number       Type             X           Y           Z
 ---------------------------------------------------------------------
      1         17           0        0.000000    0.000000    0.078273
      2          1           0        0.000000   -0.000000   -1.233255
      3          1           0        0.000000    1.804830   -0.048695
      4          1           0       -0.000000   -1.804830   -0.048695
 ---------------------------------------------------------------------
 Rotational constants (GHZ):         297.1868539          76.9713815          61.1369216
 Standard basis: 3-21G (6D, 7F)
 There are    11 symmetry adapted cartesian basis functions of A1  symmetry.
 There are     0 symmetry adapted cartesian basis functions of A2  symmetry.
 There are     3 symmetry adapted cartesian basis functions of B1  symmetry.
 There are     5 symmetry adapted cartesian basis functions of B2  symmetry.
 There are    11 symmetry adapted basis functions of A1  symmetry.
 There are     0 symmetry adapted basis functions of A2  symmetry.
 There are     3 symmetry adapted basis functions of B1  symmetry.
 There are     5 symmetry adapted basis functions of B2  symmetry.
    19 basis functions,    36 primitive gaussians,    19 cartesian basis functions
    10 alpha electrons       10 beta electrons
       nuclear repulsion energy        17.4402653599 Hartrees.
 NAtoms=    4 NActive=    4 NUniq=    3 SFac= 1.78D+00 NAtFMM=   60 NAOKFM=F Big=F
 Integral buffers will be    131072 words long.
 Raffenetti 2 integral format.
 Two-electron integral symmetry is turned on.
 One-electron integrals computed using PRISM.
 NBasis=    19 RedAO= T EigKep=  5.66D-02  NBF=    11     0     3     5
 NBsUse=    19 1.00D-06 EigRej= -1.00D+00 NBFU=    11     0     3     5
 Initial guess from the checkpoint file:  "clh3_dft.chk"
 B after Tr=    -0.000000   -0.000000    0.000000
         Rot=    1.000000   -0.000000    0.000000    0.000000 Ang=   0.00 deg.
 Initial guess orbital symmetries:
       Occupied  (A1) (A1) (A1) (B2) (B1) (A1) (A1) (B2) (B1) (A1)
       Virtual   (B2) (A1) (A1) (B1) (A1) (B2) (A1) (B2) (A1)
 Keep R1 ints in memory in symmetry-blocked form, NReq=882676.
 Requested convergence on RMS density matrix=1.00D-08 within 128 cycles.
 Requested convergence on MAX density matrix=1.00D-06.
 Requested convergence on             energy=1.00D-06.
 No special actions if energy rises.
 SCF Done:  E(RB3LYP) =  -459.554791624     A.U. after    8 cycles
            NFock=  8  Conv=0.32D-09     -V/T= 2.0029
 Calling FoFJK, ICntrl=      2127 FMM=F ISym2X=1 I1Cent= 0 IOpClX= 0 NMat=1 NMatS=1 NMatT=0.
 ***** Axes restored to original set *****
 -------------------------------------------------------------------
 Center     Atomic                   Forces (Hartrees/Bohr)
 Number     Number              X              Y              Z
 -------------------------------------------------------------------
      1       17          -0.000000000    0.000000000   -0.000157483
      2        1           0.000000000   -0.000000000    0.000101988
      3        1           0.000000000    0.000010556    0.000027748
      4        1           0.000000000   -0.000010556    0.000027748
 -------------------------------------------------------------------
 Cartesian Forces:  Max     0.000157483 RMS     0.000055502

 GradGradGradGradGradGradGradGradGradGradGradGradGradGradGradGradGradGrad
 Berny optimization.
 Using GEDIIS/GDIIS optimizer.
 FormGI is forming the generalized inverse of G from B-inverse, IUseBI=4.
 Internal  Forces:  Max     0.000101988 RMS     0.000045885
 Search for a local minimum.
 Step number   4 out of a maximum of   20
 All quantities printed in internal units (Hartrees-Bohrs-Radians)
 Mixed Optimization -- En-DIIS/RFO-DIIS
 Swapping is turned off.
 Update second derivatives using D2CorX and points    1    2    3    4
 DE= -5.24D-07 DEPred=-5.52D-07 R= 9.50D-01
 Trust test= 9.50D-01 RLast= 3.72D-03 DXMaxT set to 4.54D-01
 The second derivative matrix:
                          R1        R2        R3        A1        A2
           R1           0.26945
           R2           0.00844   0.07732
           R3           0.00844  -0.02010   0.07732
           A1          -0.03088   0.01014   0.01014   0.14232
           A2          -0.03088   0.01014   0.01014  -0.01768   0.14232
           A3           0.03598  -0.01514  -0.01514   0.01258   0.01258
           A4          -0.00000   0.00000   0.00000  -0.00000  -0.00000
           D1           0.00000  -0.00000  -0.00000   0.00000   0.00000
                          A3        A4        D1
           A3           0.02866
           A4          -0.00000   0.00230
           D1           0.00000  -0.00000   0.00230
 ITU=  0  1  1  0
     Eigenvalues ---    0.00230   0.05494   0.07896   0.09742   0.16000
     Eigenvalues ---    0.27020
 En-DIIS/RFO-DIIS/Sim-DIIS IScMMF=       -3 using points:     4    3
 RFO step:  Lambda=-1.32549389D-07.
 DidBck=F Rises=F RFO-DIIS coefs:    0.90568    0.09432
 Iteration  1 RMS(Cart)=  0.00050180 RMS(Int)=  0.00000017
 Iteration  2 RMS(Cart)=  0.00000017 RMS(Int)=  0.00000000
 ClnCor:  largest displacement from symmetrization is 1.77D-12 for atom     1.
 Variable       Old X    -DE/DX   Delta X   Delta X   Delta X     New X
                                 (Linear)    (Quad)   (Total)
    R1        2.47843  -0.00010   0.00010  -0.00051  -0.00041   2.47802
    R2        3.41906   0.00001  -0.00017   0.00045   0.00029   3.41935
    R3        3.41906   0.00001  -0.00017   0.00045   0.00029   3.41935
    A1        1.50056   0.00003   0.00010   0.00034   0.00044   1.50100
    A2        1.50056   0.00003   0.00010   0.00034   0.00044   1.50100
    A3        3.00113   0.00006   0.00020   0.00068   0.00088   3.00201
    A4        3.14159  -0.00000   0.00000  -0.00000   0.00000   3.14159
    D1       -0.00000   0.00000   0.00000   0.00000   0.00000   0.00000
         Item               Value     Threshold  Converged?
 Maximum Force            0.000102     0.000450     YES
 RMS     Force            0.000046     0.000300     YES
 Maximum Displacement     0.000843     0.001800     YES
 RMS     Displacement     0.000502     0.001200     YES
 Predicted change in Energy=-6.627476D-08
 Optimization completed.
    -- Stationary point found.
                           ----------------------------
                           !   Optimized Parameters   !
                           ! (Angstroms and Degrees)  !
 --------------------------                            --------------------------
 ! Name  Definition              Value          Derivative Info.                !
 --------------------------------------------------------------------------------
 ! R1    R(1,2)                  1.3115         -DE/DX =   -0.0001              !
 ! R2    R(1,3)                  1.8093         -DE/DX =    0.0                 !
 ! R3    R(1,4)                  1.8093         -DE/DX =    0.0                 !
 ! A1    A(2,1,3)               85.9759         -DE/DX =    0.0                 !
 ! A2    A(2,1,4)               85.9759         -DE/DX =    0.0                 !
 ! A3    L(3,1,4,2,-1)         171.9518         -DE/DX =    0.0001              !
 ! A4    L(3,1,4,2,-2)         180.0            -DE/DX =    0.0                 !
 ! D1    D(2,1,4,3)              0.0            -DE/DX =    0.0                 !
 --------------------------------------------------------------------------------
 GradGradGradGradGradGradGradGradGradGradGradGradGradGradGradGradGradGrad

                          Input orientation:                          
 ---------------------------------------------------------------------
 Center     Atomic      Atomic             Coordinates (Angstroms)
 Number     Number       Type             X           Y           Z
 ---------------------------------------------------------------------
      1         17           0       -0.000000   -0.000000    0.086345
      2          1           0       -0.000000    0.000000   -1.225184
      3          1           0        0.000000    1.804830   -0.040623
      4          1           0       -0.000000   -1.804830   -0.040623
 ---------------------------------------------------------------------
                    Distance matrix (angstroms):
                    1          2          3          4
     1  Cl   0.000000
     2  H    1.311528   0.000000
     3  H    1.809291   2.158841   0.000000
     4  H    1.809291   2.158841   3.609661   0.000000
 Stoichiometry    ClH3
 Framework group  C2V[C2(HCl),SGV(H2)]
 Deg. of freedom     3
 Full point group                 C2V     NOp   4
 Largest Abelian subgroup         C2V     NOp   4
 Largest concise Abelian subgroup C2      NOp   2
                         Standard orientation:                         
 ---------------------------------------------------------------------
 Center     Atomic      Atomic             Coordinates (Angstroms)
 Number     Number       Type             X           Y           Z
 ---------------------------------------------------------------------
      1         17           0        0.000000    0.000000    0.078273
      2          1           0        0.000000    0.000000   -1.233255
      3          1           0        0.000000    1.804830   -0.048695
      4          1           0       -0.000000   -1.804830   -0.048695
 ---------------------------------------------------------------------
 Rotational constants (GHZ):         297.1868539          76.9713815          61.1369216

 **********************************************************************

            Population analysis using the SCF Density.

 **********************************************************************

 Orbital symmetries:
       Occupied  (A1) (A1) (A1) (B2) (B1) (A1) (A1) (B2) (B1) (A1)
       Virtual   (B2) (A1) (A1) (B1) (A1) (B2) (A1) (B2) (A1)
 The electronic state is 1-A1.
 Alpha  occ. eigenvalues -- -100.93332  -9.49722  -7.26776  -7.26472  -7.25536
 Alpha  occ. eigenvalues --   -0.93446  -0.53255  -0.46608  -0.39890  -0.19230
 Alpha virt. eigenvalues --   -0.04448  -0.03976   0.51092   0.51630   0.59685
 Alpha virt. eigenvalues --    0.69652   0.77933   0.96596   1.01560
          Condensed to atoms (all electrons):
               1          2          3          4
     1  Cl  16.655872   0.238894  -0.006814  -0.006814
     2  H    0.238894   0.522210  -0.015692  -0.015692
     3  H   -0.006814  -0.015692   1.207695   0.009380
     4  H   -0.006814  -0.015692   0.009380   1.207695
 Mulliken charges:
               1
     1  Cl   0.118862
     2  H    0.270279
     3  H   -0.194570
     4  H   -0.194570
 Sum of Mulliken charges =  -0.00000
 Mulliken charges with hydrogens summed into heavy atoms:
               1
     1  Cl  -0.000000
 Electronic spatial extent (au):  <R**2>=             67.5091
 Charge=             -0.0000 electrons
 Dipole moment (field-independent basis, Debye):
    X=              0.0000    Y=             -0.0000    Z=             -1.7389  Tot=              1.7389
 Quadrupole moment (field-independent basis, Debye-Ang):
   XX=            -16.1927   YY=            -22.8790   ZZ=            -12.6101
   XY=             -0.0000   XZ=             -0.0000   YZ=             -0.0000
 Traceless Quadrupole moment (field-independent basis, Debye-Ang):
   XX=              1.0346   YY=             -5.6517   ZZ=              4.6172
   XY=             -0.0000   XZ=             -0.0000   YZ=             -0.0000
 Octapole moment (field-independent basis, Debye-Ang**2):
  XXX=              0.0000  YYY=             -0.0000  ZZZ=             -2.5111  XYY=              0.0000
  XXY=             -0.0000  XXZ=             -0.2079  XZZ=              0.0000  YZZ=             -0.0000
  YYZ=              0.3279  XYZ=              0.0000
 Hexadecapole moment (field-independent basis, Debye-Ang**3):
 XXXX=            -17.0383 YYYY=           -103.1624 ZZZZ=            -16.3185 XXXY=             -0.0000
 XXXZ=             -0.0000 YYYX=             -0.0000 YYYZ=             -0.0000 ZZZX=             -0.0000
 ZZZY=             -0.0000 XXYY=            -15.8687 XXZZ=             -6.1692 YYZZ=            -16.2839
 XXYZ=              0.0000 YYXZ=             -0.0000 ZZXY=             -0.0000
 N-N= 1.744026535989D+01 E-N=-1.126034325930D+03  KE= 4.582204538726D+02
 Symmetry A1   KE= 3.685718023522D+02
 Symmetry A2   KE= 0.000000000000D+00
 Symmetry B1   KE= 4.543944343849D+01
 Symmetry B2   KE= 4.420920808186D+01
 Unable to Open any file for archive entry.
 1\1\GINC-BS001\FOpt\RB3LYP\3-21G\Cl1H3\PNATT\10-Aug-2026\0\\# opt freq
 =hpmodes b3lyp/3-21g geom=connectivity\\Title Card Required\\0,1\Cl,0.
 ,0.,0.0863447323\H,0.,0.,-1.2251837508\H,0.,1.804830368,-0.0406234908\
 H,0.,-1.804830368,-0.0406234908\\Version=ES64L-G16RevC.01\State=1-A1\H
 F=-459.5547916\RMSD=3.151e-10\RMSF=5.550e-05\Dipole=0.,0.,-0.6841213\Q
 uadrupole=0.7691684,-4.2019207,3.4327523,0.,0.,0.\PG=C02V [C2(H1Cl1),S
 GV(H2)]\\@
 The archive entry for this job was punched.


 IF YOU GIVE A BOY AND A PIG EVERYTHING THEY WANT,
 YOU'LL GET A BAD BOY AND A GOOD PIG.
 Job cpu time:       0 days  0 hours  0 minutes  4.5 seconds.
 Elapsed time:       0 days  0 hours  0 minutes  4.2 seconds.
 File lengths (MBytes):  RWF=      6 Int=      0 D2E=      0 Chk=      1 Scr=      1
 Normal termination of Gaussian 16 at Mon Aug 10 16:15:57 2026.
 Link1:  Proceeding to internal job step number  2.
 -----------------------------------------------------------------
 #N Geom=AllCheck Guess=TCheck SCRF=Check GenChk RB3LYP/3-21G Freq
 -----------------------------------------------------------------
 1/10=4,29=7,30=1,38=1,40=1/1,3;
 2/12=2,40=1/2;
 3/5=5,11=2,14=-4,25=1,30=1,70=2,71=2,74=-5,116=1,140=1/1,2,3;
 4/5=101/1;
 5/5=2,38=6,98=1/2;
 8/6=4,10=90,11=11/1;
 11/6=1,8=1,9=11,15=111,16=1/1,2,10;
 10/6=1/2;
 6/7=2,8=2,9=2,10=2,28=1/1;
 7/8=11,10=1,25=1/1,2,3,16;
 1/10=4,30=1/3;
 99//99;
 Structure from the checkpoint file:  "clh3_dft.chk"
 -------------------
 Title Card Required
 -------------------
 Charge =  0 Multiplicity = 1
 Redundant internal coordinates found in file.  (old form).
 Cl,0,0.,0.,0.0863447323
 H,0,0.,0.,-1.2251837508
 H,0,0.,1.804830368,-0.0406234908
 H,0,0.,-1.804830368,-0.0406234908
 Recover connectivity data from disk.

 GradGradGradGradGradGradGradGradGradGradGradGradGradGradGradGradGradGrad
 Berny optimization.
 Initialization pass.
                           ----------------------------
                           !    Initial Parameters    !
                           ! (Angstroms and Degrees)  !
 --------------------------                            --------------------------
 ! Name  Definition              Value          Derivative Info.                !
 --------------------------------------------------------------------------------
 ! R1    R(1,2)                  1.3115         calculate D2E/DX2 analytically  !
 ! R2    R(1,3)                  1.8093         calculate D2E/DX2 analytically  !
 ! R3    R(1,4)                  1.8093         calculate D2E/DX2 analytically  !
 ! A1    A(2,1,3)               85.9759         calculate D2E/DX2 analytically  !
 ! A2    A(2,1,4)               85.9759         calculate D2E/DX2 analytically  !
 ! A3    L(3,1,4,2,-1)         171.9518         calculate D2E/DX2 analytically  !
 ! A4    L(3,1,4,2,-2)         180.0            calculate D2E/DX2 analytically  !
 ! D1    D(2,1,4,3)              0.0            calculate D2E/DX2 analytically  !
 --------------------------------------------------------------------------------
 Trust Radius=3.00D-01 FncErr=1.00D-07 GrdErr=1.00D-07 EigMax=2.50D+02 EigMin=1.00D-04
 Number of steps in this run=      2 maximum allowed number of steps=      2.
 GradGradGradGradGradGradGradGradGradGradGradGradGradGradGradGradGradGrad

                          Input orientation:                          
 ---------------------------------------------------------------------
 Center     Atomic      Atomic             Coordinates (Angstroms)
 Number     Number       Type             X           Y           Z
 ---------------------------------------------------------------------
      1         17           0       -0.000000   -0.000000    0.086345
      2          1           0       -0.000000    0.000000   -1.225184
      3          1           0        0.000000    1.804830   -0.040623
      4          1           0       -0.000000   -1.804830   -0.040623
 ---------------------------------------------------------------------
                    Distance matrix (angstroms):
                    1          2          3          4
     1  Cl   0.000000
     2  H    1.311528   0.000000
     3  H    1.809291   2.158841   0.000000
     4  H    1.809291   2.158841   3.609661   0.000000
 Stoichiometry    ClH3
 Framework group  C2V[C2(HCl),SGV(H2)]
 Deg. of freedom     3
 Full point group                 C2V     NOp   4
 Largest Abelian subgroup         C2V     NOp   4
 Largest concise Abelian subgroup C2      NOp   2
                         Standard orientation:                         
 ---------------------------------------------------------------------
 Center     Atomic      Atomic             Coordinates (Angstroms)
 Number     Number       Type             X           Y           Z
 ---------------------------------------------------------------------
      1         17           0        0.000000    0.000000    0.078273
      2          1           0       -0.000000   -0.000000   -1.233255
      3          1           0       -0.000000    1.804830   -0.048695
      4          1           0       -0.000000   -1.804830   -0.048695
 ---------------------------------------------------------------------
 Rotational constants (GHZ):         297.1868539          76.9713815          61.1369216
 Standard basis: 3-21G (6D, 7F)
 There are    11 symmetry adapted cartesian basis functions of A1  symmetry.
 There are     0 symmetry adapted cartesian basis functions of A2  symmetry.
 There are     3 symmetry adapted cartesian basis functions of B1  symmetry.
 There are     5 symmetry adapted cartesian basis functions of B2  symmetry.
 There are    11 symmetry adapted basis functions of A1  symmetry.
 There are     0 symmetry adapted basis functions of A2  symmetry.
 There are     3 symmetry adapted basis functions of B1  symmetry.
 There are     5 symmetry adapted basis functions of B2  symmetry.
    19 basis functions,    36 primitive gaussians,    19 cartesian basis functions
    10 alpha electrons       10 beta electrons
       nuclear repulsion energy        17.4402653599 Hartrees.
 NAtoms=    4 NActive=    4 NUniq=    3 SFac= 1.78D+00 NAtFMM=   60 NAOKFM=F Big=F
 Integral buffers will be    131072 words long.
 Raffenetti 2 integral format.
 Two-electron integral symmetry is turned on.
 One-electron integrals computed using PRISM.
 NBasis=    19 RedAO= T EigKep=  5.66D-02  NBF=    11     0     3     5
 NBsUse=    19 1.00D-06 EigRej= -1.00D+00 NBFU=    11     0     3     5
 Initial guess from the checkpoint file:  "clh3_dft.chk"
 B after Tr=     0.000000   -0.000000   -0.000000
         Rot=    1.000000   -0.000000    0.000000   -0.000000 Ang=   0.00 deg.
 Initial guess orbital symmetries:
       Occupied  (A1) (A1) (A1) (B2) (B1) (A1) (A1) (B2) (B1) (A1)
       Virtual   (B2) (A1) (A1) (B1) (A1) (B2) (A1) (B2) (A1)
 Keep R1 ints in memory in symmetry-blocked form, NReq=882676.
 Requested convergence on RMS density matrix=1.00D-08 within 128 cycles.
 Requested convergence on MAX density matrix=1.00D-06.
 Requested convergence on             energy=1.00D-06.
 No special actions if energy rises.
 Skip diagonalization as Alpha Fock matrix is already diagonal.
 SCF Done:  E(RB3LYP) =  -459.554791624     A.U. after    1 cycles
            NFock=  1  Conv=0.00D+00     -V/T= 2.0029
 DoSCS=F DFT=T ScalE2(SS,OS)=  1.000000  1.000000
 Range of M.O.s used for correlation:     1    19
 NBasis=    19 NAE=    10 NBE=    10 NFC=     0 NFV=     0
 NROrb=     19 NOA=    10 NOB=    10 NVA=     9 NVB=     9
 Symmetrizing basis deriv contribution to polar:
 IMax=3 JMax=2 DiffMx= 0.00D+00
 G2DrvN: will do     5 centers at a time, making    1 passes.
 Calling FoFCou, ICntrl=  3107 FMM=F I1Cent=   0 AccDes= 0.00D+00.
 End of G2Drv F.D. properties file   721 does not exist.
 End of G2Drv F.D. properties file   722 does not exist.
 End of G2Drv F.D. properties file   788 does not exist.
          IDoAtm=1111
          Differentiating once with respect to electric field.
                with respect to dipole field.
          Differentiating once with respect to nuclear coordinates.
 Keep R1 ints in memory in symmetry-blocked form, NReq=882874.
          There are    12 degrees of freedom in the 1st order CPHF.  IDoFFX=4 NUNeed=    12.
     12 vectors produced by pass  0 Test12= 7.50D-16 8.33D-09 XBig12= 4.44D+02 2.11D+01.
 AX will form    12 AO Fock derivatives at one time.
     12 vectors produced by pass  1 Test12= 7.50D-16 8.33D-09 XBig12= 2.22D+01 3.59D+00.
     12 vectors produced by pass  2 Test12= 7.50D-16 8.33D-09 XBig12= 2.64D-03 2.94D-02.
     11 vectors produced by pass  3 Test12= 7.50D-16 8.33D-09 XBig12= 3.00D-06 7.20D-04.
      4 vectors produced by pass  4 Test12= 7.50D-16 8.33D-09 XBig12= 3.15D-10 7.18D-06.
      1 vectors produced by pass  5 Test12= 7.50D-16 8.33D-09 XBig12= 6.93D-14 1.41D-07.
 InvSVY:  IOpt=1 It=  1 EMax= 2.31D-16
 Solved reduced A of dimension    52 with    12 vectors.
 Isotropic polarizability for W=    0.000000       28.05 Bohr**3.
 End of Minotr F.D. properties file   721 does not exist.
 End of Minotr F.D. properties file   722 does not exist.
 End of Minotr F.D. properties file   788 does not exist.

 **********************************************************************

            Population analysis using the SCF Density.

 **********************************************************************

 Orbital symmetries:
       Occupied  (A1) (A1) (A1) (B2) (B1) (A1) (A1) (B2) (B1) (A1)
       Virtual   (B2) (A1) (A1) (B1) (A1) (B2) (A1) (B2) (A1)
 The electronic state is 1-A1.
 Alpha  occ. eigenvalues -- -100.93332  -9.49722  -7.26776  -7.26472  -7.25536
 Alpha  occ. eigenvalues --   -0.93446  -0.53255  -0.46608  -0.39890  -0.19230
 Alpha virt. eigenvalues --   -0.04448  -0.03976   0.51092   0.51630   0.59685
 Alpha virt. eigenvalues --    0.69652   0.77933   0.96596   1.01560
          Condensed to atoms (all electrons):
               1          2          3          4
     1  Cl  16.655872   0.238894  -0.006814  -0.006814
     2  H    0.238894   0.522210  -0.015692  -0.015692
     3  H   -0.006814  -0.015692   1.207695   0.009380
     4  H   -0.006814  -0.015692   0.009380   1.207695
 Mulliken charges:
               1
     1  Cl   0.118862
     2  H    0.270279
     3  H   -0.194570
     4  H   -0.194570
 Sum of Mulliken charges =  -0.00000
 Mulliken charges with hydrogens summed into heavy atoms:
               1
     1  Cl  -0.000000
 APT charges:
               1
     1  Cl   0.613334
     2  H    0.173125
     3  H   -0.393230
     4  H   -0.393230
 Sum of APT charges =   0.00000
 APT charges with hydrogens summed into heavy atoms:
               1
     1  Cl   0.000000
 Electronic spatial extent (au):  <R**2>=             67.5091
 Charge=             -0.0000 electrons
 Dipole moment (field-independent basis, Debye):
    X=              0.0000    Y=             -0.0000    Z=             -1.7389  Tot=              1.7389
 Quadrupole moment (field-independent basis, Debye-Ang):
   XX=            -16.1927   YY=            -22.8790   ZZ=            -12.6101
   XY=             -0.0000   XZ=             -0.0000   YZ=             -0.0000
 Traceless Quadrupole moment (field-independent basis, Debye-Ang):
   XX=              1.0346   YY=             -5.6517   ZZ=              4.6172
   XY=             -0.0000   XZ=             -0.0000   YZ=             -0.0000
 Octapole moment (field-independent basis, Debye-Ang**2):
  XXX=              0.0000  YYY=             -0.0000  ZZZ=             -2.5111  XYY=              0.0000
  XXY=             -0.0000  XXZ=             -0.2079  XZZ=              0.0000  YZZ=             -0.0000
  YYZ=              0.3279  XYZ=              0.0000
 Hexadecapole moment (field-independent basis, Debye-Ang**3):
 XXXX=            -17.0383 YYYY=           -103.1624 ZZZZ=            -16.3185 XXXY=             -0.0000
 XXXZ=             -0.0000 YYYX=             -0.0000 YYYZ=             -0.0000 ZZZX=             -0.0000
 ZZZY=             -0.0000 XXYY=            -15.8687 XXZZ=             -6.1692 YYZZ=            -16.2839
 XXYZ=              0.0000 YYXZ=             -0.0000 ZZXY=             -0.0000
 N-N= 1.744026535989D+01 E-N=-1.126034325930D+03  KE= 4.582204538726D+02
 Symmetry A1   KE= 3.685718023522D+02
 Symmetry A2   KE= 0.000000000000D+00
 Symmetry B1   KE= 4.543944343849D+01
 Symmetry B2   KE= 4.420920808186D+01
  Exact polarizability:       3.310       0.000      68.028       0.000       0.000      12.812
 Approx polarizability:       3.303       0.000     263.550       0.000       0.000      17.537
 Calling FoFJK, ICntrl=    100127 FMM=F ISym2X=1 I1Cent= 0 IOpClX= 0 NMat=1 NMatS=1 NMatT=0.
 Full mass-weighted force constant matrix:
 Low frequencies ---   -9.8592   -0.0051   -0.0046    0.0040   26.0054   69.0931
 Low frequencies ---  758.9403  798.9750  856.3529
 Diagonal vibrational polarizability:
        3.8476579      29.7389172       2.7599128
 Harmonic frequencies (cm**-1), IR intensities (KM/Mole), Raman scattering
 activities (A**4/AMU), depolarization ratios for plane and unpolarized
 incident light, reduced masses (AMU), force constants (mDyne/A),
 and normal coordinates:
                           1         2         3         4         5
                          B1        A1        B2        B2        A1
       Frequencies ---   758.9403  798.9750  856.3513 1242.5791 1251.9086
    Reduced masses ---     1.0529    1.0592    1.0525    1.0366    1.0079
   Force constants ---     0.3573    0.3984    0.4548    0.9430    0.9307
    IR Intensities ---    82.3528   61.9462  245.3188 1189.7346    0.0173
 Coord Atom Element:
   1     1    17         -0.03645  -0.00000   0.00000   0.00000  -0.00000
   2     1    17         -0.00000  -0.00000  -0.03629  -0.02909   0.00000
   3     1    17          0.00000  -0.03888   0.00000   0.00000   0.00177
   1     2     1         -0.13555  -0.00000   0.00000   0.00000  -0.00000
   2     2     1          0.00000   0.00000   0.84034  -0.32176   0.00000
   3     2     1          0.00000  -0.06038  -0.00000  -0.00000  -0.00758
   1     3     1          0.70011   0.00000  -0.00000  -0.00000   0.00000
   2     3     1         -0.00000   0.02821   0.20934   0.66551   0.70657
   3     3     1         -0.00000   0.70472  -0.32005   0.07009  -0.02692
   1     4     1          0.70011   0.00000  -0.00000  -0.00000   0.00000
   2     4     1          0.00000  -0.02821   0.20934   0.66551  -0.70657
   3     4     1         -0.00000   0.70472   0.32005  -0.07009  -0.02692
                           6
                          A1
       Frequencies ---  2684.3724
    Reduced masses ---     1.0376
   Force constants ---     4.4053
    IR Intensities ---    39.6744
 Coord Atom Element:
   1     1    17          0.00000
   2     1    17         -0.00000
   3     1    17         -0.02962
   1     2     1          0.00000
   2     2     1         -0.00000
   3     2     1          0.99931
   1     3     1         -0.00000
   2     3     1          0.00718
   3     3     1          0.01417
   1     4     1         -0.00000
   2     4     1         -0.00718
   3     4     1          0.01417
 Harmonic frequencies (cm**-1), IR intensities (KM/Mole), Raman scattering
 activities (A**4/AMU), depolarization ratios for plane and unpolarized
 incident light, reduced masses (AMU), force constants (mDyne/A),
 and normal coordinates:
                      1                      2                      3
                     B1                     A1                     B2
 Frequencies --    758.9403               798.9750               856.3513
 Red. masses --      1.0529                 1.0592                 1.0525
 Frc consts  --      0.3573                 0.3984                 0.4548
 IR Inten    --     82.3528                61.9462               245.3188
  Atom  AN      X      Y      Z        X      Y      Z        X      Y      Z
     1  17    -0.04  -0.00   0.00    -0.00  -0.00  -0.04     0.00  -0.04   0.00
     2   1    -0.14   0.00   0.00    -0.00   0.00  -0.06     0.00   0.84  -0.00
     3   1     0.70  -0.00  -0.00     0.00   0.03   0.70    -0.00   0.21  -0.32
     4   1     0.70   0.00  -0.00     0.00  -0.03   0.70    -0.00   0.21   0.32
                      4                      5                      6
                     B2                     A1                     A1
 Frequencies --   1242.5791              1251.9086              2684.3724
 Red. masses --      1.0366                 1.0079                 1.0376
 Frc consts  --      0.9430                 0.9307                 4.4053
 IR Inten    --   1189.7346                 0.0173                39.6744
  Atom  AN      X      Y      Z        X      Y      Z        X      Y      Z
     1  17     0.00  -0.03   0.00    -0.00   0.00   0.00     0.00  -0.00  -0.03
     2   1     0.00  -0.32  -0.00    -0.00   0.00  -0.01     0.00  -0.00   1.00
     3   1    -0.00   0.67   0.07     0.00   0.71  -0.03    -0.00   0.01   0.01
     4   1    -0.00   0.67  -0.07     0.00  -0.71  -0.03    -0.00  -0.01   0.01

 -------------------
 - Thermochemistry -
 -------------------
 Temperature   298.150 Kelvin.  Pressure   1.00000 Atm.
 Atom     1 has atomic number 17 and mass  34.96885
 Atom     2 has atomic number  1 and mass   1.00783
 Atom     3 has atomic number  1 and mass   1.00783
 Atom     4 has atomic number  1 and mass   1.00783
 Molecular mass:    37.99233 amu.
 Principal axes and moments of inertia in atomic units:
                           1         2         3
     Eigenvalues --     6.07275  23.44691  29.51966
           X            0.00000   0.00000   1.00000
           Y            1.00000   0.00000   0.00000
           Z            0.00000   1.00000   0.00000
 This molecule is an asymmetric top.
 Rotational symmetry number  2.
 Rotational temperatures (Kelvin)     14.26272     3.69404     2.93411
 Rotational constants (GHZ):         297.18685    76.97138    61.13692
 Zero-point vibrational energy      45417.0 (Joules/Mol)
                                   10.85492 (Kcal/Mol)
 Vibrational temperatures:   1091.95  1149.55  1232.10  1787.79  1801.22
          (Kelvin)           3862.21
 
 Zero-point correction=                           0.017298 (Hartree/Particle)
 Thermal correction to Energy=                    0.020392
 Thermal correction to Enthalpy=                  0.021336
 Thermal correction to Gibbs Free Energy=        -0.003482
 Sum of electronic and zero-point Energies=           -459.537493
 Sum of electronic and thermal Energies=              -459.534399
 Sum of electronic and thermal Enthalpies=            -459.533455
 Sum of electronic and thermal Free Energies=         -459.558274
 
                     E (Thermal)             CV                S
                      KCal/Mol        Cal/Mol-Kelvin    Cal/Mol-Kelvin
 Total                   12.796              8.250             52.235
 Electronic               0.000              0.000              0.000
 Translational            0.889              2.981             36.833
 Rotational               0.889              2.981             14.716
 Vibrational             11.019              2.288              0.686
                       Q            Log10(Q)             Ln(Q)
 Total Bot       0.399592D+02          1.601617          3.687859
 Total V=0       0.361683D+10          9.558328         22.008865
 Vib (Bot)       0.118307D-07         -7.926988        -18.252564
 Vib (V=0)       0.107084D+01          0.029724          0.068442
 Electronic      0.100000D+01          0.000000          0.000000
 Translational   0.920445D+07          6.963998         16.035197
 Rotational      0.366950D+03          2.564607          5.905225
 ***** Axes restored to original set *****
 -------------------------------------------------------------------
 Center     Atomic                   Forces (Hartrees/Bohr)
 Number     Number              X              Y              Z
 -------------------------------------------------------------------
      1       17          -0.000000000    0.000000000   -0.000157483
      2        1           0.000000000   -0.000000000    0.000101988
      3        1          -0.000000000    0.000010556    0.000027748
      4        1           0.000000000   -0.000010556    0.000027748
 -------------------------------------------------------------------
 Cartesian Forces:  Max     0.000157483 RMS     0.000055502
 FormGI is forming the generalized inverse of G from B-inverse, IUseBI=4.

 GradGradGradGradGradGradGradGradGradGradGradGradGradGradGradGradGradGrad
 Berny optimization.
 Internal  Forces:  Max     0.000101988 RMS     0.000045885
 Search for a local minimum.
 Step number   1 out of a maximum of    2
 All quantities printed in internal units (Hartrees-Bohrs-Radians)
 Second derivative matrix not updated -- analytic derivatives used.
 The second derivative matrix:
                          R1        R2        R3        A1        A2
           R1           0.26666
           R2          -0.00136   0.05617
           R3          -0.00136   0.00358   0.05617
           A1          -0.00332   0.00931  -0.00786   0.05319
           A2          -0.00332  -0.00786   0.00931  -0.02304   0.05319
           A3          -0.00663   0.00144   0.00144   0.03014   0.03014
           A4           0.00000  -0.00000  -0.00000  -0.00000  -0.00000
           D1           0.00000  -0.00000   0.00000   0.00000   0.00000
                          A3        A4        D1
           A3           0.06028
           A4          -0.00000   0.00004
           D1           0.00000  -0.00032   0.00227
 ITU=  0
     Eigenvalues ---    0.00232   0.04356   0.05954   0.08526   0.09024
     Eigenvalues ---    0.26705
 Angle between quadratic step and forces=  29.26 degrees.
 Linear search not attempted -- first point.
 Iteration  1 RMS(Cart)=  0.00037232 RMS(Int)=  0.00000010
 Iteration  2 RMS(Cart)=  0.00000010 RMS(Int)=  0.00000000
 ClnCor:  largest displacement from symmetrization is 1.24D-12 for atom     1.
 Variable       Old X    -DE/DX   Delta X   Delta X   Delta X     New X
                                 (Linear)    (Quad)   (Total)
    R1        2.47843  -0.00010   0.00000  -0.00036  -0.00036   2.47807
    R2        3.41906   0.00001   0.00000   0.00011   0.00011   3.41918
    R3        3.41906   0.00001   0.00000   0.00011   0.00011   3.41918
    A1        1.50056   0.00003   0.00000   0.00034   0.00034   1.50091
    A2        1.50056   0.00003   0.00000   0.00034   0.00034   1.50091
    A3        3.00113   0.00006   0.00000   0.00069   0.00069   3.00181
    A4        3.14159  -0.00000   0.00000  -0.00000   0.00000   3.14159
    D1       -0.00000   0.00000   0.00000   0.00000   0.00000   0.00000
         Item               Value     Threshold  Converged?
 Maximum Force            0.000102     0.000450     YES
 RMS     Force            0.000046     0.000300     YES
 Maximum Displacement     0.000671     0.001800     YES
 RMS     Displacement     0.000372     0.001200     YES
 Predicted change in Energy=-5.245784D-08
 Optimization completed.
    -- Stationary point found.
                           ----------------------------
                           !   Optimized Parameters   !
                           ! (Angstroms and Degrees)  !
 --------------------------                            --------------------------
 ! Name  Definition              Value          Derivative Info.                !
 --------------------------------------------------------------------------------
 ! R1    R(1,2)                  1.3115         -DE/DX =   -0.0001              !
 ! R2    R(1,3)                  1.8093         -DE/DX =    0.0                 !
 ! R3    R(1,4)                  1.8093         -DE/DX =    0.0                 !
 ! A1    A(2,1,3)               85.9759         -DE/DX =    0.0                 !
 ! A2    A(2,1,4)               85.9759         -DE/DX =    0.0                 !
 ! A3    L(3,1,4,2,-1)         171.9518         -DE/DX =    0.0001              !
 ! A4    L(3,1,4,2,-2)         180.0            -DE/DX =    0.0                 !
 ! D1    D(2,1,4,3)              0.0            -DE/DX =    0.0                 !
 --------------------------------------------------------------------------------
 GradGradGradGradGradGradGradGradGradGradGradGradGradGradGradGradGradGrad


 ----------------------------------------------------------------------

 Electric dipole moment (input orientation):
 (Debye = 10**-18 statcoulomb cm , SI units = C m)
                  (au)            (Debye)         (10**-30 SI)
   Tot        0.684121D+00      0.173886D+01      0.580022D+01
   x          0.000000D+00      0.000000D+00      0.000000D+00
   y          0.000000D+00      0.000000D+00      0.000000D+00
   z         -0.684121D+00     -0.173886D+01     -0.580022D+01

 Dipole polarizability, Alpha (input orientation).
 (esu units = cm**3 , SI units = C**2 m**2 J**-1)
 Alpha(0;0):
               (au)            (10**-24 esu)      (10**-40 SI)
   iso        0.280503D+02      0.415662D+01      0.462487D+01
   aniso      0.605293D+02      0.896951D+01      0.997993D+01
   xx         0.330991D+01      0.490479D+00      0.545731D+00
   yx         0.000000D+00      0.000000D+00      0.000000D+00
   yy         0.680284D+02      0.100808D+02      0.112164D+02
   zx         0.000000D+00      0.000000D+00      0.000000D+00
   zy         0.000000D+00      0.000000D+00      0.000000D+00
   zz         0.128125D+02      0.189862D+01      0.211249D+01

 ----------------------------------------------------------------------

 Dipole orientation:
    17         -0.00000000         -0.00000000         -0.16316790
     1         -0.00000000         -0.00000000          2.31526174
     1          0.00000000         -3.41063510          0.07676727
     1         -0.00000000          3.41063510          0.07676727

 Electric dipole moment (dipole orientation):
 (Debye = 10**-18 statcoulomb cm , SI units = C m)
                  (au)            (Debye)         (10**-30 SI)
   Tot        0.684121D+00      0.173886D+01      0.580022D+01
   x          0.000000D+00      0.000000D+00      0.000000D+00
   y          0.000000D+00      0.000000D+00      0.000000D+00
   z          0.684121D+00      0.173886D+01      0.580022D+01

 Dipole polarizability, Alpha (dipole orientation).
 (esu units = cm**3 , SI units = C**2 m**2 J**-1)
 Alpha(0;0):
               (au)            (10**-24 esu)      (10**-40 SI)
   iso        0.280503D+02      0.415662D+01      0.462487D+01
   aniso      0.605293D+02      0.896951D+01      0.997993D+01
   xx         0.330991D+01      0.490479D+00      0.545731D+00
   yx         0.000000D+00      0.000000D+00      0.000000D+00
   yy         0.680284D+02      0.100808D+02      0.112164D+02
   zx         0.000000D+00      0.000000D+00      0.000000D+00
   zy         0.000000D+00      0.000000D+00      0.000000D+00
   zz         0.128125D+02      0.189862D+01      0.211249D+01

 ----------------------------------------------------------------------
 Unable to Open any file for archive entry.
 1\1\GINC-BS001\Freq\RB3LYP\3-21G\Cl1H3\PNATT\10-Aug-2026\0\\#N Geom=Al
 lCheck Guess=TCheck SCRF=Check GenChk RB3LYP/3-21G Freq\\Title Card Re
 quired\\0,1\Cl,0.,0.,0.0863447323\H,0.,0.,-1.2251837508\H,0.,1.8048303
 68,-0.0406234908\H,0.,-1.804830368,-0.0406234908\\Version=ES64L-G16Rev
 C.01\State=1-A1\HF=-459.5547916\RMSD=0.000e+00\RMSF=5.550e-05\ZeroPoin
 t=0.0172984\Thermal=0.0203921\ETot=-459.5343995\HTot=-459.5334553\GTot
 =-459.5582736\Dipole=0.,0.,-0.6841213\DipoleDeriv=0.0518735,0.,0.,0.,1
 .660488,0.,0.,0.,0.1276413,0.3111701,0.,0.,0.,-0.0061866,0.,0.,0.,0.21
 43927,-0.1815218,0.,0.,0.,-0.8271507,-0.0085189,0.,0.1607298,-0.171017
 ,-0.1815218,0.,0.,0.,-0.8271507,0.0085189,0.,-0.1607298,-0.171017\Pola
 r=3.309914,0.,68.0284156,0.,0.,12.8124927\Quadrupole=0.7691684,-4.2019
 207,3.4327523,0.,0.,0.\PG=C02V [C2(H1Cl1),SGV(H2)]\NImag=0\\0.03385231
 ,0.,0.10083524,0.,0.,0.32429584,0.00340757,0.,0.,0.00056051,0.,-0.0097
 9612,0.,0.,0.02488616,0.,0.,-0.27227216,0.,0.,0.26665701,-0.01862994,0
 .,0.,-0.00198404,0.,0.,0.01030514,0.,-0.04551956,-0.00025897,0.,-0.007
 54502,0.00155697,0.,0.05640389,0.,0.00670552,-0.02601184,0.,-0.0084651
 2,0.00280758,0.,0.00023080,0.01461512,-0.01862994,0.,0.,-0.00198404,0.
 ,0.,0.01030885,0.,0.,0.01030514,0.,-0.04551956,0.00025897,0.,-0.007545
 02,-0.00155697,0.,-0.00333931,0.00152880,0.,0.05640389,0.,-0.00670552,
 -0.02601184,0.,0.00846512,0.00280758,0.,-0.00152880,0.00858915,0.,-0.0
 0023080,0.01461512\\0.,0.,0.00015748,0.,0.,-0.00010199,0.,-0.00001056,
 -0.00002775,0.,0.00001056,-0.00002775\\\@
 The archive entry for this job was punched.


 IF YOU BELIEVE CERTAIN WORDS, YOU BELIEVE THEIR HIDDEN ARGUMENTS.
 WHEN YOU BELIEVE SOMETHING IS RIGHT OR WRONG, TRUE OR FALSE, 
 YOU BELIEVE THE ASSUMPTIONS IN THE WORDS WHICH EXPRESS THE ARGUMENTS.
 SUCH ASSUMPTIONS ARE OFTEN FULL OF HOLES, BUT REMAIN MOST PRECIOUS 
 TO THE CONVINCED.

                 -- THE OPEN-ENDED PROOF FROM THE PANOPLIA PROPHETICA
                    CHILDREN OF DUNE BY FRANK HERBERT
 Job cpu time:       0 days  0 hours  0 minutes  2.2 seconds.
 Elapsed time:       0 days  0 hours  0 minutes  2.1 seconds.
 File lengths (MBytes):  RWF=      6 Int=      0 D2E=      0 Chk=      1 Scr=      1
 Normal termination of Gaussian 16 at Mon Aug 10 16:16:00 2026.
