 Entering Gaussian System, Link 0=g16
 Input=PF3.com
 Output=PF3.log
 Initial command:
 /opt/g16/g16/l1.exe "/home/pnatt/scratch/Gau-1481469.inp" -scrdir="/home/pnatt/scratch/"
 Entering Link 1 = /opt/g16/g16/l1.exe PID=   1481477.
  
 Copyright (c) 1988-2019, Gaussian, Inc.  All Rights Reserved.
  
 This is part of the Gaussian(R) 16 program.  It is based on
 the Gaussian(R) 09 system (copyright 2009, Gaussian, Inc.),
 the Gaussian(R) 03 system (copyright 2003, Gaussian, Inc.),
 the Gaussian(R) 98 system (copyright 1998, Gaussian, Inc.),
 the Gaussian(R) 94 system (copyright 1995, Gaussian, Inc.),
 the Gaussian 92(TM) system (copyright 1992, Gaussian, Inc.),
 the Gaussian 90(TM) system (copyright 1990, Gaussian, Inc.),
 the Gaussian 88(TM) system (copyright 1988, Gaussian, Inc.),
 the Gaussian 86(TM) system (copyright 1986, Carnegie Mellon
 University), and the Gaussian 82(TM) system (copyright 1983,
 Carnegie Mellon University). Gaussian is a federally registered
 trademark of Gaussian, Inc.
  
 This software contains proprietary and confidential information,
 including trade secrets, belonging to Gaussian, Inc.
  
 This software is provided under written license and may be
 used, copied, transmitted, or stored only in accord with that
 written license.
  
 The following legend is applicable only to US Government
 contracts under FAR:
  
                    RESTRICTED RIGHTS LEGEND
  
 Use, reproduction and disclosure by the US Government is
 subject to restrictions as set forth in subparagraphs (a)
 and (c) of the Commercial Computer Software - Restricted
 Rights clause in FAR 52.227-19.
  
 Gaussian, Inc.
 340 Quinnipiac St., Bldg. 40, Wallingford CT 06492
  
  
 ---------------------------------------------------------------
 Warning -- This program may not be used in any manner that
 competes with the business of Gaussian, Inc. or will provide
 assistance to any competitor of Gaussian, Inc.  The licensee
 of this program is prohibited from giving any competitor of
 Gaussian, Inc. access to this program.  By using this program,
 the user acknowledges that Gaussian, Inc. is engaged in the
 business of creating and licensing software in the field of
 computational chemistry and represents and warrants to the
 licensee that it is not a competitor of Gaussian, Inc. and that
 it will not use this program in any manner prohibited above.
 ---------------------------------------------------------------
  

 Cite this work as:
 Gaussian 16, Revision C.01,
 M. J. Frisch, G. W. Trucks, H. B. Schlegel, G. E. Scuseria, 
 M. A. Robb, J. R. Cheeseman, G. Scalmani, V. Barone, 
 G. A. Petersson, H. Nakatsuji, X. Li, M. Caricato, A. V. Marenich, 
 J. Bloino, B. G. Janesko, R. Gomperts, B. Mennucci, H. P. Hratchian, 
 J. V. Ortiz, A. F. Izmaylov, J. L. Sonnenberg, D. Williams-Young, 
 F. Ding, F. Lipparini, F. Egidi, J. Goings, B. Peng, A. Petrone, 
 T. Henderson, D. Ranasinghe, V. G. Zakrzewski, J. Gao, N. Rega, 
 G. Zheng, W. Liang, M. Hada, M. Ehara, K. Toyota, R. Fukuda, 
 J. Hasegawa, M. Ishida, T. Nakajima, Y. Honda, O. Kitao, H. Nakai, 
 T. Vreven, K. Throssell, J. A. Montgomery, Jr., J. E. Peralta, 
 F. Ogliaro, M. J. Bearpark, J. J. Heyd, E. N. Brothers, K. N. Kudin, 
 V. N. Staroverov, T. A. Keith, R. Kobayashi, J. Normand, 
 K. Raghavachari, A. P. Rendell, J. C. Burant, S. S. Iyengar, 
 J. Tomasi, M. Cossi, J. M. Millam, M. Klene, C. Adamo, R. Cammi, 
 J. W. Ochterski, R. L. Martin, K. Morokuma, O. Farkas, 
 J. B. Foresman, and D. J. Fox, Gaussian, Inc., Wallingford CT, 2019.
 
 ******************************************
 Gaussian 16:  ES64L-G16RevC.01  3-Jul-2019
                10-Aug-2026 
 ******************************************
 %chk=PF3-6-31g.chk
 ----------------------------------------------
 # opt freq=hpmodes mp2/6-31g geom=connectivity
 ----------------------------------------------
 1/18=20,19=15,38=1,57=2/1,3;
 2/9=110,12=2,17=6,18=5,40=1/2;
 3/5=1,6=6,11=9,25=1,30=1,71=1/1,2,3;
 4//1;
 5/5=2,38=5/2;
 8/6=4,10=2/1;
 9/15=2,16=-3/6;
 10/5=1/2;
 6/7=2,8=2,9=2,10=2/1;
 7/12=2/1,2,3,16;
 1/18=20,19=15/3(2);
 2/9=110/2;
 99//99;
 2/9=110/2;
 3/5=1,6=6,11=9,25=1,30=1,71=1/1,2,3;
 4/5=5,16=3,69=1/1;
 5/5=2,38=5/2;
 8/6=4,10=2/1;
 9/15=2,16=-3/6;
 10/5=1/2;
 7/12=2/1,2,3,16;
 1/18=20,19=15/3(-8);
 2/9=110/2;
 6/7=2,8=2,9=2,10=2/1;
 99/9=10/99;
 -------------------
 Title Card Required
 -------------------
 Symbolic Z-matrix:
 Charge =  0 Multiplicity = 1
 P                     0.        0.       -0.34929 
 F                    -1.33089  -0.76839   0.19405 
 F                     1.33089  -0.76839   0.19405 
 F                     0.        1.53678   0.19405 
 

 GradGradGradGradGradGradGradGradGradGradGradGradGradGradGradGradGradGrad
 Berny optimization.
 Initialization pass.
                           ----------------------------
                           !    Initial Parameters    !
                           ! (Angstroms and Degrees)  !
 --------------------------                            --------------------------
 ! Name  Definition              Value          Derivative Info.                !
 --------------------------------------------------------------------------------
 ! R1    R(1,2)                  1.63           estimate D2E/DX2                !
 ! R2    R(1,3)                  1.63           estimate D2E/DX2                !
 ! R3    R(1,4)                  1.63           estimate D2E/DX2                !
 ! A1    A(2,1,3)              109.4712         estimate D2E/DX2                !
 ! A2    A(2,1,4)              109.4712         estimate D2E/DX2                !
 ! A3    A(3,1,4)              109.4712         estimate D2E/DX2                !
 ! D1    D(2,1,4,3)            120.0            estimate D2E/DX2                !
 --------------------------------------------------------------------------------
 Trust Radius=3.00D-01 FncErr=1.00D-07 GrdErr=1.00D-07 EigMax=2.50D+02 EigMin=1.00D-04
 Number of steps in this run=     20 maximum allowed number of steps=    100.
 GradGradGradGradGradGradGradGradGradGradGradGradGradGradGradGradGradGrad

                          Input orientation:                          
 ---------------------------------------------------------------------
 Center     Atomic      Atomic             Coordinates (Angstroms)
 Number     Number       Type             X           Y           Z
 ---------------------------------------------------------------------
      1         15           0        0.000000    0.000000   -0.349286
      2          9           0       -1.330889   -0.768389    0.194048
      3          9           0        1.330889   -0.768389    0.194048
      4          9           0        0.000000    1.536779    0.194048
 ---------------------------------------------------------------------
                    Distance matrix (angstroms):
                    1          2          3          4
     1  P    0.000000
     2  F    1.630000   0.000000
     3  F    1.630000   2.661779   0.000000
     4  F    1.630000   2.661779   2.661779   0.000000
 Stoichiometry    F3P
 Framework group  C3V[C3(P),3SGV(F)]
 Deg. of freedom     2
 Full point group                 C3V     NOp   6
 Largest Abelian subgroup         CS      NOp   2
 Largest concise Abelian subgroup CS      NOp   2
                         Standard orientation:                         
 ---------------------------------------------------------------------
 Center     Atomic      Atomic             Coordinates (Angstroms)
 Number     Number       Type             X           Y           Z
 ---------------------------------------------------------------------
      1         15           0        0.000000    0.000000    0.349286
      2          9           0        0.000000    1.536779   -0.194048
      3          9           0        1.330889   -0.768389   -0.194048
      4          9           0       -1.330889   -0.768389   -0.194048
 ---------------------------------------------------------------------
 Rotational constants (GHZ):           6.9015622           6.9015622           3.7545350
 Standard basis: 6-31G (6D, 7F)
 There are    26 symmetry adapted cartesian basis functions of A'  symmetry.
 There are    14 symmetry adapted cartesian basis functions of A"  symmetry.
 There are    26 symmetry adapted basis functions of A'  symmetry.
 There are    14 symmetry adapted basis functions of A"  symmetry.
    40 basis functions,   112 primitive gaussians,    40 cartesian basis functions
    21 alpha electrons       21 beta electrons
       nuclear repulsion energy       179.7925028413 Hartrees.
 NAtoms=    4 NActive=    4 NUniq=    2 SFac= 4.00D+00 NAtFMM=   60 NAOKFM=F Big=F
 Integral buffers will be    131072 words long.
 Raffenetti 1 integral format.
 Two-electron integral symmetry is turned on.
 One-electron integrals computed using PRISM.
 NBasis=    40 RedAO= T EigKep=  6.92D-02  NBF=    26    14
 NBsUse=    40 1.00D-06 EigRej= -1.00D+00 NBFU=    26    14
 ExpMin= 9.98D-02 ExpMax= 1.94D+04 ExpMxC= 2.91D+03 IAcc=3 IRadAn=         5 AccDes= 0.00D+00
 Harris functional with IExCor=  205 and IRadAn=       5 diagonalized for initial guess.
 HarFok:  IExCor=  205 AccDes= 0.00D+00 IRadAn=         5 IDoV= 1 UseB2=F ITyADJ=14
 ICtDFT=  3500011 ScaDFX=  1.000000  1.000000  1.000000  1.000000
 FoFCou: FMM=F IPFlag=           0 FMFlag=      100000 FMFlg1=           0
         NFxFlg=           0 DoJE=T BraDBF=F KetDBF=T FulRan=T
         wScrn=  0.000000 ICntrl=       500 IOpCl=  0 I1Cent=   200000004 NGrid=           0
         NMat0=    1 NMatS0=      1 NMatT0=    0 NMatD0=    1 NMtDS0=    0 NMtDT0=    0
 Petite list used in FoFCou.
 Initial guess orbital symmetries:
       Occupied  (A1) (A1) (E) (E) (A1) (E) (E) (A1) (A1) (E) (E)
                 (A1) (E) (E) (A1) (E) (E) (E) (E) (A2) (A1)
       Virtual   (A1) (E) (E) (A1) (A1) (E) (E) (E) (E) (E) (E)
                 (A1) (A2) (A1) (E) (E) (E) (E) (A1)
 The electronic state of the initial guess is 1-A1.
 Keep R1 ints in memory in symmetry-blocked form, NReq=1153768.
 Requested convergence on RMS density matrix=1.00D-08 within 128 cycles.
 Requested convergence on MAX density matrix=1.00D-06.
 Requested convergence on             energy=1.00D-06.
 No special actions if energy rises.
 SCF Done:  E(RHF) =  -638.920663844     A.U. after   11 cycles
            NFock= 11  Conv=0.42D-08     -V/T= 2.0001
 ExpMin= 9.98D-02 ExpMax= 1.94D+04 ExpMxC= 2.91D+03 IAcc=3 IRadAn=         5 AccDes= 0.00D+00
 HarFok:  IExCor=  205 AccDes= 0.00D+00 IRadAn=         5 IDoV=-2 UseB2=F ITyADJ=14
 ICtDFT= 12500011 ScaDFX=  1.000000  1.000000  1.000000  1.000000
 Range of M.O.s used for correlation:     9    40
 NBasis=    40 NAE=    21 NBE=    21 NFC=     8 NFV=     0
 NROrb=     32 NOA=    13 NOB=    13 NVA=    19 NVB=    19
 Fully direct method using O(ONN) memory.
 JobTyp=1 Pass  1:  I=   9 to  21 NPSUse=  1 ParTrn=F ParDer=F DoDerP=T.
 Spin components of T(2) and E(2):
     alpha-alpha T2 =       0.1703346000D-01 E2=     -0.6018869982D-01
     alpha-beta  T2 =       0.9354475419D-01 E2=     -0.3228360918D+00
     beta-beta   T2 =       0.1703346000D-01 E2=     -0.6018869982D-01
 ANorm=    0.1061890613D+01
 E2 =    -0.4432134914D+00 EUMP2 =    -0.63936387733562D+03
          IDoAtm=1111
          Differentiating once with respect to electric field.
                with respect to dipole field.
          Differentiating once with respect to nuclear coordinates.
 Keep R1 ints in memory in symmetry-blocked form, NReq=1154671.
          There are     1 degrees of freedom in the 1st order CPHF.  IDoFFX=0 NUNeed=     1.
 LinEq1:  Iter=  0 NonCon=     1 RMS=1.29D-02 Max=1.11D-01 NDo=     1
 AX will form     1 AO Fock derivatives at one time.
 LinEq1:  Iter=  1 NonCon=     1 RMS=4.51D-03 Max=5.57D-02 NDo=     1
 LinEq1:  Iter=  2 NonCon=     1 RMS=1.46D-03 Max=1.46D-02 NDo=     1
 LinEq1:  Iter=  3 NonCon=     1 RMS=3.88D-04 Max=4.72D-03 NDo=     1
 LinEq1:  Iter=  4 NonCon=     1 RMS=3.76D-05 Max=2.31D-04 NDo=     1
 LinEq1:  Iter=  5 NonCon=     1 RMS=4.05D-06 Max=4.53D-05 NDo=     1
 LinEq1:  Iter=  6 NonCon=     1 RMS=6.83D-07 Max=5.30D-06 NDo=     1
 LinEq1:  Iter=  7 NonCon=     1 RMS=6.71D-08 Max=4.57D-07 NDo=     1
 LinEq1:  Iter=  8 NonCon=     1 RMS=7.60D-09 Max=5.45D-08 NDo=     1
 LinEq1:  Iter=  9 NonCon=     1 RMS=7.89D-10 Max=7.53D-09 NDo=     1
 LinEq1:  Iter= 10 NonCon=     0 RMS=7.26D-11 Max=4.71D-10 NDo=     1
 Linear equations converged to 1.000D-10 1.000D-09 after    10 iterations.
 End of Minotr F.D. properties file   721 does not exist.
 End of Minotr F.D. properties file   722 does not exist.
 End of Minotr F.D. properties file   788 does not exist.

 **********************************************************************

            Population analysis using the SCF Density.

 **********************************************************************

 Orbital symmetries:
       Occupied  (A1) (A1) (E) (E) (A1) (E) (E) (A1) (A1) (E) (E)
                 (A1) (E) (E) (A1) (E) (E) (A2) (E) (E) (A1)
       Virtual   (A1) (E) (E) (A1) (A1) (E) (E) (E) (E) (E) (E)
                 (A1) (A2) (A1) (E) (E) (E) (E) (A1)
 The electronic state is 1-A1.
 Alpha  occ. eigenvalues --  -80.19994 -26.36048 -26.36046 -26.36046  -7.73910
 Alpha  occ. eigenvalues --   -5.62962  -5.62962  -5.62504  -1.68812  -1.65022
 Alpha  occ. eigenvalues --   -1.65022  -0.93139  -0.77713  -0.77713  -0.75513
 Alpha  occ. eigenvalues --   -0.71637  -0.71637  -0.68914  -0.68785  -0.68785
 Alpha  occ. eigenvalues --   -0.45263
 Alpha virt. eigenvalues --    0.09770   0.14393   0.14393   0.34319   0.40190
 Alpha virt. eigenvalues --    0.46777   0.46777   1.37762   1.37762   1.51206
 Alpha virt. eigenvalues --    1.51206   1.51928   1.52538   1.58796   1.63027
 Alpha virt. eigenvalues --    1.63027   1.96341   1.96341   2.31434
          Condensed to atoms (all electrons):
               1          2          3          4
     1  P   13.269059   0.063448   0.063448   0.063448
     2  F    0.063448   9.465367  -0.007641  -0.007641
     3  F    0.063448  -0.007641   9.465367  -0.007641
     4  F    0.063448  -0.007641  -0.007641   9.465367
 Mulliken charges:
               1
     1  P    1.540597
     2  F   -0.513532
     3  F   -0.513532
     4  F   -0.513532
 Sum of Mulliken charges =  -0.00000
 Mulliken charges with hydrogens summed into heavy atoms:
               1
     1  P    1.540597
     2  F   -0.513532
     3  F   -0.513532
     4  F   -0.513532
 Electronic spatial extent (au):  <R**2>=            304.8299
 Charge=              0.0000 electrons
 Dipole moment (field-independent basis, Debye):
    X=             -0.0000    Y=             -0.0000    Z=              0.5071  Tot=              0.5071
 Quadrupole moment (field-independent basis, Debye-Ang):
   XX=            -31.5777   YY=            -31.5777   ZZ=            -26.8988
   XY=              0.0000   XZ=             -0.0000   YZ=              0.0000
 Traceless Quadrupole moment (field-independent basis, Debye-Ang):
   XX=             -1.5596   YY=             -1.5596   ZZ=              3.1193
   XY=              0.0000   XZ=             -0.0000   YZ=              0.0000
 Octapole moment (field-independent basis, Debye-Ang**2):
  XXX=              0.0000  YYY=             -6.1828  ZZZ=             -6.5183  XYY=             -0.0000
  XXY=              6.1828  XXZ=              0.7580  XZZ=              0.0000  YZZ=              0.0000
  YYZ=              0.7580  XYZ=             -0.0000
 Hexadecapole moment (field-independent basis, Debye-Ang**3):
 XXXX=           -138.5922 YYYY=           -138.5922 ZZZZ=            -38.4511 XXXY=              0.0000
 XXXZ=             -0.0000 YYYX=              0.0000 YYYZ=              1.1151 ZZZX=             -0.0000
 ZZZY=             -0.0000 XXYY=            -46.1974 XXZZ=            -27.1288 YYZZ=            -27.1288
 XXYZ=             -1.1151 YYXZ=              0.0000 ZZXY=              0.0000
 N-N= 1.797925028413D+02 E-N=-1.884140506868D+03  KE= 6.388827415491D+02
 Symmetry A'   KE= 5.022672167253D+02
 Symmetry A"   KE= 1.366155248238D+02
 Calling FoFJK, ICntrl=  10002127 FMM=F ISym2X=1 I1Cent= 0 IOpClX= 0 NMat=1 NMatS=1 NMatT=0.
 ***** Axes restored to original set *****
 -------------------------------------------------------------------
 Center     Atomic                   Forces (Hartrees/Bohr)
 Number     Number              X              Y              Z
 -------------------------------------------------------------------
      1       15          -0.000000000   -0.000000000   -0.154281667
      2        9          -0.035169989   -0.020305403    0.051427222
      3        9           0.035169989   -0.020305403    0.051427222
      4        9           0.000000000    0.040610805    0.051427222
 -------------------------------------------------------------------
 Cartesian Forces:  Max     0.154281667 RMS     0.055290764

 GradGradGradGradGradGradGradGradGradGradGradGradGradGradGradGradGradGrad
 Berny optimization.
 FormGI is forming the generalized inverse of G from B-inverse, IUseBI=4.
 Internal  Forces:  Max     0.081136249 RMS     0.056807408
 Search for a local minimum.
 Step number   1 out of a maximum of   20
 All quantities printed in internal units (Hartrees-Bohrs-Radians)
 Mixed Optimization -- RFO/linear search
 Second derivative matrix not updated -- first step.
 The second derivative matrix:
                          R1        R2        R3        A1        A2
           R1           0.45828
           R2           0.00000   0.45828
           R3           0.00000   0.00000   0.45828
           A1           0.00000   0.00000   0.00000   0.25000
           A2           0.00000   0.00000   0.00000   0.00000   0.25000
           A3           0.00000   0.00000   0.00000   0.00000   0.00000
           D1           0.00000   0.00000   0.00000   0.00000   0.00000
                          A3        D1
           A3           0.25000
           D1           0.00000   0.02751
 ITU=  0
     Eigenvalues ---    0.09597   0.25000   0.25000   0.45828   0.45828
     Eigenvalues ---    0.45828
 RFO step:  Lambda=-8.20920383D-02 EMin= 9.59712348D-02
 Linear search not attempted -- first point.
 Maximum step size (   0.300) exceeded in Quadratic search.
    -- Step size scaled by   0.748
 Iteration  1 RMS(Cart)=  0.12966949 RMS(Int)=  0.05711012
 Iteration  2 RMS(Cart)=  0.06344432 RMS(Int)=  0.02286090
 Iteration  3 RMS(Cart)=  0.00354914 RMS(Int)=  0.02268364
 Iteration  4 RMS(Cart)=  0.00019286 RMS(Int)=  0.02268336
 Iteration  5 RMS(Cart)=  0.00000991 RMS(Int)=  0.02268336
 Iteration  6 RMS(Cart)=  0.00000052 RMS(Int)=  0.02268336
 ClnCor:  largest displacement from symmetrization is 3.07D-02 for atom     4.
 Variable       Old X    -DE/DX   Delta X   Delta X   Delta X     New X
                                 (Linear)    (Quad)   (Total)
    R1        3.08025   0.05543   0.00000   0.07671   0.08527   3.16553
    R2        3.08025   0.05543   0.00000   0.07671   0.08527   3.16553
    R3        3.08025   0.05543   0.00000   0.07671   0.08527   3.16553
    A1        1.91063  -0.00828   0.00000  -0.10467  -0.16801   1.74263
    A2        1.91063  -0.05797   0.00000  -0.17354  -0.16801   1.74263
    A3        1.91063  -0.05797   0.00000  -0.17354  -0.16801   1.74263
    D1        2.09440  -0.08114   0.00000  -0.34074  -0.31585   1.77854
         Item               Value     Threshold  Converged?
 Maximum Force            0.081136     0.000450     NO 
 RMS     Force            0.056807     0.000300     NO 
 Maximum Displacement     0.342227     0.001800     NO 
 RMS     Displacement     0.164873     0.001200     NO 
 Predicted change in Energy=-4.372043D-02
 GradGradGradGradGradGradGradGradGradGradGradGradGradGradGradGradGradGrad

                          Input orientation:                          
 ---------------------------------------------------------------------
 Center     Atomic      Atomic             Coordinates (Angstroms)
 Number     Number       Type             X           Y           Z
 ---------------------------------------------------------------------
      1         15           0       -0.000000   -0.000000   -0.530384
      2          9           0       -1.281765   -0.740027    0.254144
      3          9           0        1.281765   -0.740027    0.254144
      4          9           0       -0.000000    1.480054    0.254144
 ---------------------------------------------------------------------
                    Distance matrix (angstroms):
                    1          2          3          4
     1  P    0.000000
     2  F    1.675125   0.000000
     3  F    1.675125   2.563530   0.000000
     4  F    1.675125   2.563530   2.563530   0.000000
 Stoichiometry    F3P
 Framework group  C3V[C3(P),3SGV(F)]
 Deg. of freedom     2
 Full point group                 C3V     NOp   6
 Largest Abelian subgroup         CS      NOp   2
 Largest concise Abelian subgroup CS      NOp   2
                         Standard orientation:                         
 ---------------------------------------------------------------------
 Center     Atomic      Atomic             Coordinates (Angstroms)
 Number     Number       Type             X           Y           Z
 ---------------------------------------------------------------------
      1         15           0        0.000000    0.000000    0.504339
      2          9           0        0.000000    1.480054   -0.280189
      3          9           0        1.281765   -0.740027   -0.280189
      4          9           0       -1.281765   -0.740027   -0.280189
 ---------------------------------------------------------------------
 Rotational constants (GHZ):           6.7584596           6.7584596           4.0478411
 Standard basis: 6-31G (6D, 7F)
 There are    26 symmetry adapted cartesian basis functions of A'  symmetry.
 There are    14 symmetry adapted cartesian basis functions of A"  symmetry.
 There are    26 symmetry adapted basis functions of A'  symmetry.
 There are    14 symmetry adapted basis functions of A"  symmetry.
    40 basis functions,   112 primitive gaussians,    40 cartesian basis functions
    21 alpha electrons       21 beta electrons
       nuclear repulsion energy       178.1020602406 Hartrees.
 NAtoms=    4 NActive=    4 NUniq=    2 SFac= 4.00D+00 NAtFMM=   60 NAOKFM=F Big=F
 Integral buffers will be    131072 words long.
 Raffenetti 1 integral format.
 Two-electron integral symmetry is turned on.
 One-electron integrals computed using PRISM.
 NBasis=    40 RedAO= T EigKep=  5.48D-02  NBF=    26    14
 NBsUse=    40 1.00D-06 EigRej= -1.00D+00 NBFU=    26    14
 Initial guess from the checkpoint file:  "PF3-6-31g.chk"
 B after Tr=     0.000000   -0.000000   -0.000000
         Rot=    1.000000   -0.000000   -0.000000   -0.000000 Ang=   0.00 deg.
 Initial guess orbital symmetries:
       Occupied  (A1) (A1) (E) (E) (A1) (E) (E) (A1) (A1) (E) (E)
                 (A1) (E) (E) (A1) (E) (E) (A2) (E) (E) (A1)
       Virtual   (A1) (E) (E) (A1) (A1) (E) (E) (E) (E) (E) (E)
                 (A1) (A2) (A1) (E) (E) (E) (E) (A1)
 ExpMin= 9.98D-02 ExpMax= 1.94D+04 ExpMxC= 2.91D+03 IAcc=3 IRadAn=         5 AccDes= 0.00D+00
 Harris functional with IExCor=  205 and IRadAn=       5 diagonalized for initial guess.
 HarFok:  IExCor=  205 AccDes= 0.00D+00 IRadAn=         5 IDoV= 1 UseB2=F ITyADJ=14
 ICtDFT=  3500011 ScaDFX=  1.000000  1.000000  1.000000  1.000000
 FoFCou: FMM=F IPFlag=           0 FMFlag=      100000 FMFlg1=           0
         NFxFlg=           0 DoJE=T BraDBF=F KetDBF=T FulRan=T
         wScrn=  0.000000 ICntrl=       500 IOpCl=  0 I1Cent=   200000004 NGrid=           0
         NMat0=    1 NMatS0=      1 NMatT0=    0 NMatD0=    1 NMtDS0=    0 NMtDT0=    0
 Petite list used in FoFCou.
 Keep R1 ints in memory in symmetry-blocked form, NReq=1153768.
 Requested convergence on RMS density matrix=1.00D-08 within 128 cycles.
 Requested convergence on MAX density matrix=1.00D-06.
 Requested convergence on             energy=1.00D-06.
 No special actions if energy rises.
 SCF Done:  E(RHF) =  -638.958873107     A.U. after   10 cycles
            NFock= 10  Conv=0.51D-08     -V/T= 2.0006
 ExpMin= 9.98D-02 ExpMax= 1.94D+04 ExpMxC= 2.91D+03 IAcc=3 IRadAn=         5 AccDes= 0.00D+00
 HarFok:  IExCor=  205 AccDes= 0.00D+00 IRadAn=         5 IDoV=-2 UseB2=F ITyADJ=14
 ICtDFT= 12500011 ScaDFX=  1.000000  1.000000  1.000000  1.000000
 Range of M.O.s used for correlation:     9    40
 NBasis=    40 NAE=    21 NBE=    21 NFC=     8 NFV=     0
 NROrb=     32 NOA=    13 NOB=    13 NVA=    19 NVB=    19
 Fully direct method using O(ONN) memory.
 JobTyp=1 Pass  1:  I=   9 to  21 NPSUse=  1 ParTrn=F ParDer=F DoDerP=T.
 Spin components of T(2) and E(2):
     alpha-alpha T2 =       0.1686221754D-01 E2=     -0.5975139021D-01
     alpha-beta  T2 =       0.9432478086D-01 E2=     -0.3235073243D+00
     beta-beta   T2 =       0.1686221754D-01 E2=     -0.5975139021D-01
 ANorm=    0.1062096613D+01
 E2 =    -0.4430101047D+00 EUMP2 =    -0.63940188321215D+03
          IDoAtm=1111
          Differentiating once with respect to electric field.
                with respect to dipole field.
          Differentiating once with respect to nuclear coordinates.
 Keep R1 ints in memory in symmetry-blocked form, NReq=1154620.
          There are     1 degrees of freedom in the 1st order CPHF.  IDoFFX=0 NUNeed=     1.
 LinEq1:  Iter=  0 NonCon=     1 RMS=1.31D-02 Max=1.24D-01 NDo=     1
 AX will form     1 AO Fock derivatives at one time.
 LinEq1:  Iter=  1 NonCon=     1 RMS=4.34D-03 Max=4.24D-02 NDo=     1
 LinEq1:  Iter=  2 NonCon=     1 RMS=1.27D-03 Max=9.36D-03 NDo=     1
 LinEq1:  Iter=  3 NonCon=     1 RMS=3.06D-04 Max=3.89D-03 NDo=     1
 LinEq1:  Iter=  4 NonCon=     1 RMS=2.77D-05 Max=1.95D-04 NDo=     1
 LinEq1:  Iter=  5 NonCon=     1 RMS=2.46D-06 Max=2.40D-05 NDo=     1
 LinEq1:  Iter=  6 NonCon=     1 RMS=4.55D-07 Max=4.66D-06 NDo=     1
 LinEq1:  Iter=  7 NonCon=     1 RMS=4.96D-08 Max=3.33D-07 NDo=     1
 LinEq1:  Iter=  8 NonCon=     1 RMS=5.43D-09 Max=3.47D-08 NDo=     1
 LinEq1:  Iter=  9 NonCon=     1 RMS=4.41D-10 Max=2.44D-09 NDo=     1
 LinEq1:  Iter= 10 NonCon=     0 RMS=4.65D-11 Max=2.84D-10 NDo=     1
 Linear equations converged to 1.000D-10 1.000D-09 after    10 iterations.
 End of Minotr F.D. properties file   721 does not exist.
 End of Minotr F.D. properties file   722 does not exist.
 End of Minotr F.D. properties file   788 does not exist.
 Calling FoFJK, ICntrl=  10002127 FMM=F ISym2X=1 I1Cent= 0 IOpClX= 0 NMat=1 NMatS=1 NMatT=0.
 ***** Axes restored to original set *****
 -------------------------------------------------------------------
 Center     Atomic                   Forces (Hartrees/Bohr)
 Number     Number              X              Y              Z
 -------------------------------------------------------------------
      1       15          -0.000000000    0.000000000   -0.042775388
      2        9          -0.009358712   -0.005403255    0.014258463
      3        9           0.009358712   -0.005403255    0.014258463
      4        9           0.000000000    0.010806510    0.014258463
 -------------------------------------------------------------------
 Cartesian Forces:  Max     0.042775388 RMS     0.015247915

 GradGradGradGradGradGradGradGradGradGradGradGradGradGradGradGradGradGrad
 Berny optimization.
 Using GEDIIS/GDIIS optimizer.
 FormGI is forming the generalized inverse of G from B-inverse, IUseBI=4.
 Internal  Forces:  Max     0.016225881 RMS     0.014689243
 Search for a local minimum.
 Step number   2 out of a maximum of   20
 All quantities printed in internal units (Hartrees-Bohrs-Radians)
 Mixed Optimization -- RFO/linear search
 Update second derivatives using D2CorX and points    1    2
 DE= -3.80D-02 DEPred=-4.37D-02 R= 8.69D-01
 TightC=F SS=  1.41D+00  RLast= 4.54D-01 DXNew= 5.0454D-01 1.3625D+00
 Trust test= 8.69D-01 RLast= 4.54D-01 DXMaxT set to 5.05D-01
 The second derivative matrix:
                          R1        R2        R3        A1        A2
           R1           0.44660
           R2          -0.01169   0.44660
           R3          -0.01169  -0.01169   0.44660
           A1           0.04617   0.04617   0.04617   0.19813
           A2           0.01287   0.01287   0.01287  -0.04964   0.23583
           A3           0.01287   0.01287   0.01287  -0.04964  -0.01417
           D1          -0.04811  -0.04811  -0.04811  -0.00688   0.05117
                          A3        D1
           A3           0.23583
           D1           0.05117   0.12661
 ITU=  1  0
 Use linear search instead of GDIIS.
     Eigenvalues ---    0.15397   0.25000   0.25987   0.42362   0.45828
     Eigenvalues ---    0.45828
 RFO step:  Lambda=-2.29583671D-04 EMin= 1.53973036D-01
 Quartic linear search produced a step of  0.29746.
 Iteration  1 RMS(Cart)=  0.04897050 RMS(Int)=  0.00702076
 Iteration  2 RMS(Cart)=  0.00225119 RMS(Int)=  0.00673911
 Iteration  3 RMS(Cart)=  0.00000225 RMS(Int)=  0.00673911
 Iteration  4 RMS(Cart)=  0.00000002 RMS(Int)=  0.00673911
 ClnCor:  largest displacement from symmetrization is 1.26D-02 for atom     4.
 Variable       Old X    -DE/DX   Delta X   Delta X   Delta X     New X
                                 (Linear)    (Quad)   (Total)
    R1        3.16553   0.01623   0.02537   0.01015   0.03839   3.20392
    R2        3.16553   0.01623   0.02537   0.01015   0.03839   3.20392
    R3        3.16553   0.01623   0.02537   0.01015   0.03839   3.20392
    A1        1.74263  -0.00566  -0.04998   0.01726  -0.05248   1.69014
    A2        1.74263  -0.01620  -0.04998  -0.00634  -0.05248   1.69014
    A3        1.74263  -0.01620  -0.04998  -0.00634  -0.05248   1.69014
    D1        1.77854  -0.01280  -0.09395   0.01519  -0.07217   1.70637
         Item               Value     Threshold  Converged?
 Maximum Force            0.016226     0.000450     NO 
 RMS     Force            0.014689     0.000300     NO 
 Maximum Displacement     0.099909     0.001800     NO 
 RMS     Displacement     0.047358     0.001200     NO 
 Predicted change in Energy=-2.587605D-03
 GradGradGradGradGradGradGradGradGradGradGradGradGradGradGradGradGradGrad

                          Input orientation:                          
 ---------------------------------------------------------------------
 Center     Atomic      Atomic             Coordinates (Angstroms)
 Number     Number       Type             X           Y           Z
 ---------------------------------------------------------------------
      1         15           0        0.000000    0.000000   -0.583254
      2          9           0       -1.268222   -0.732208    0.271148
      3          9           0        1.268222   -0.732208    0.271148
      4          9           0       -0.000000    1.464417    0.271148
 ---------------------------------------------------------------------
                    Distance matrix (angstroms):
                    1          2          3          4
     1  P    0.000000
     2  F    1.695441   0.000000
     3  F    1.695441   2.536444   0.000000
     4  F    1.695441   2.536444   2.536444   0.000000
 Stoichiometry    F3P
 Framework group  C3V[C3(P),3SGV(F)]
 Deg. of freedom     2
 Full point group                 C3V     NOp   6
 Largest Abelian subgroup         CS      NOp   2
 Largest concise Abelian subgroup CS      NOp   2
                         Standard orientation:                         
 ---------------------------------------------------------------------
 Center     Atomic      Atomic             Coordinates (Angstroms)
 Number     Number       Type             X           Y           Z
 ---------------------------------------------------------------------
      1         15           0        0.000000    0.000000    0.549258
      2          9           0       -0.000000    1.464417   -0.305144
      3          9           0        1.268222   -0.732208   -0.305144
      4          9           0       -1.268222   -0.732208   -0.305144
 ---------------------------------------------------------------------
 Rotational constants (GHZ):           6.6705052           6.6705052           4.1347521
 Standard basis: 6-31G (6D, 7F)
 There are    26 symmetry adapted cartesian basis functions of A'  symmetry.
 There are    14 symmetry adapted cartesian basis functions of A"  symmetry.
 There are    26 symmetry adapted basis functions of A'  symmetry.
 There are    14 symmetry adapted basis functions of A"  symmetry.
    40 basis functions,   112 primitive gaussians,    40 cartesian basis functions
    21 alpha electrons       21 beta electrons
       nuclear repulsion energy       177.1046919668 Hartrees.
 NAtoms=    4 NActive=    4 NUniq=    2 SFac= 4.00D+00 NAtFMM=   60 NAOKFM=F Big=F
 Integral buffers will be    131072 words long.
 Raffenetti 1 integral format.
 Two-electron integral symmetry is turned on.
 One-electron integrals computed using PRISM.
 NBasis=    40 RedAO= T EigKep=  5.20D-02  NBF=    26    14
 NBsUse=    40 1.00D-06 EigRej= -1.00D+00 NBFU=    26    14
 Initial guess from the checkpoint file:  "PF3-6-31g.chk"
 B after Tr=     0.000000    0.000000    0.000000
         Rot=    1.000000   -0.000000   -0.000000   -0.000000 Ang=   0.00 deg.
 Initial guess orbital symmetries:
       Occupied  (A1) (A1) (E) (E) (A1) (E) (E) (A1) (A1) (E) (E)
                 (A1) (E) (E) (A1) (E) (E) (A2) (E) (E) (A1)
       Virtual   (E) (E) (A1) (A1) (A1) (E) (E) (E) (E) (A1) (E)
                 (E) (A2) (A1) (E) (E) (E) (E) (A1)
 ExpMin= 9.98D-02 ExpMax= 1.94D+04 ExpMxC= 2.91D+03 IAcc=3 IRadAn=         5 AccDes= 0.00D+00
 Harris functional with IExCor=  205 and IRadAn=       5 diagonalized for initial guess.
 HarFok:  IExCor=  205 AccDes= 0.00D+00 IRadAn=         5 IDoV= 1 UseB2=F ITyADJ=14
 ICtDFT=  3500011 ScaDFX=  1.000000  1.000000  1.000000  1.000000
 FoFCou: FMM=F IPFlag=           0 FMFlag=      100000 FMFlg1=           0
         NFxFlg=           0 DoJE=T BraDBF=F KetDBF=T FulRan=T
         wScrn=  0.000000 ICntrl=       500 IOpCl=  0 I1Cent=   200000004 NGrid=           0
         NMat0=    1 NMatS0=      1 NMatT0=    0 NMatD0=    1 NMtDS0=    0 NMtDT0=    0
 Petite list used in FoFCou.
 Keep R1 ints in memory in symmetry-blocked form, NReq=1153717.
 Requested convergence on RMS density matrix=1.00D-08 within 128 cycles.
 Requested convergence on MAX density matrix=1.00D-06.
 Requested convergence on             energy=1.00D-06.
 No special actions if energy rises.
 SCF Done:  E(RHF) =  -638.959918291     A.U. after   10 cycles
            NFock= 10  Conv=0.88D-09     -V/T= 2.0008
 ExpMin= 9.98D-02 ExpMax= 1.94D+04 ExpMxC= 2.91D+03 IAcc=3 IRadAn=         5 AccDes= 0.00D+00
 HarFok:  IExCor=  205 AccDes= 0.00D+00 IRadAn=         5 IDoV=-2 UseB2=F ITyADJ=14
 ICtDFT= 12500011 ScaDFX=  1.000000  1.000000  1.000000  1.000000
 Range of M.O.s used for correlation:     9    40
 NBasis=    40 NAE=    21 NBE=    21 NFC=     8 NFV=     0
 NROrb=     32 NOA=    13 NOB=    13 NVA=    19 NVB=    19
 Fully direct method using O(ONN) memory.
 JobTyp=1 Pass  1:  I=   9 to  21 NPSUse=  1 ParTrn=F ParDer=F DoDerP=T.
 Spin components of T(2) and E(2):
     alpha-alpha T2 =       0.1695291512D-01 E2=     -0.5983270434D-01
     alpha-beta  T2 =       0.9558731236D-01 E2=     -0.3249071501D+00
     beta-beta   T2 =       0.1695291512D-01 E2=     -0.5983270434D-01
 ANorm=    0.1062776149D+01
 E2 =    -0.4445725588D+00 EUMP2 =    -0.63940449084934D+03
          IDoAtm=1111
          Differentiating once with respect to electric field.
                with respect to dipole field.
          Differentiating once with respect to nuclear coordinates.
 Keep R1 ints in memory in symmetry-blocked form, NReq=1154575.
          There are     1 degrees of freedom in the 1st order CPHF.  IDoFFX=0 NUNeed=     1.
 LinEq1:  Iter=  0 NonCon=     1 RMS=1.34D-02 Max=1.32D-01 NDo=     1
 AX will form     1 AO Fock derivatives at one time.
 LinEq1:  Iter=  1 NonCon=     1 RMS=4.47D-03 Max=4.11D-02 NDo=     1
 LinEq1:  Iter=  2 NonCon=     1 RMS=1.29D-03 Max=8.45D-03 NDo=     1
 LinEq1:  Iter=  3 NonCon=     1 RMS=3.09D-04 Max=3.87D-03 NDo=     1
 LinEq1:  Iter=  4 NonCon=     1 RMS=2.75D-05 Max=1.92D-04 NDo=     1
 LinEq1:  Iter=  5 NonCon=     1 RMS=2.15D-06 Max=1.36D-05 NDo=     1
 LinEq1:  Iter=  6 NonCon=     1 RMS=3.04D-07 Max=3.51D-06 NDo=     1
 LinEq1:  Iter=  7 NonCon=     1 RMS=4.12D-08 Max=2.71D-07 NDo=     1
 LinEq1:  Iter=  8 NonCon=     1 RMS=5.50D-09 Max=3.52D-08 NDo=     1
 LinEq1:  Iter=  9 NonCon=     1 RMS=4.58D-10 Max=2.74D-09 NDo=     1
 LinEq1:  Iter= 10 NonCon=     0 RMS=4.32D-11 Max=2.47D-10 NDo=     1
 Linear equations converged to 1.000D-10 1.000D-09 after    10 iterations.
 End of Minotr F.D. properties file   721 does not exist.
 End of Minotr F.D. properties file   722 does not exist.
 End of Minotr F.D. properties file   788 does not exist.
 Calling FoFJK, ICntrl=  10002127 FMM=F ISym2X=1 I1Cent= 0 IOpClX= 0 NMat=1 NMatS=1 NMatT=0.
 ***** Axes restored to original set *****
 -------------------------------------------------------------------
 Center     Atomic                   Forces (Hartrees/Bohr)
 Number     Number              X              Y              Z
 -------------------------------------------------------------------
      1       15           0.000000000    0.000000000   -0.006083402
      2        9          -0.002931218   -0.001692339    0.002027801
      3        9           0.002931218   -0.001692339    0.002027801
      4        9           0.000000000    0.003384679    0.002027801
 -------------------------------------------------------------------
 Cartesian Forces:  Max     0.006083402 RMS     0.002641210

 GradGradGradGradGradGradGradGradGradGradGradGradGradGradGradGradGradGrad
 Berny optimization.
 Using GEDIIS/GDIIS optimizer.
 FormGI is forming the generalized inverse of G from B-inverse, IUseBI=4.
 Internal  Forces:  Max     0.003945368 RMS     0.002583606
 Search for a local minimum.
 Step number   3 out of a maximum of   20
 All quantities printed in internal units (Hartrees-Bohrs-Radians)
 Mixed Optimization -- RFO/linear search
 Update second derivatives using D2CorX and points    1    2    3
 DE= -2.61D-03 DEPred=-2.59D-03 R= 1.01D+00
 TightC=F SS=  1.41D+00  RLast= 1.34D-01 DXNew= 8.4853D-01 4.0130D-01
 Trust test= 1.01D+00 RLast= 1.34D-01 DXMaxT set to 5.05D-01
 The second derivative matrix:
                          R1        R2        R3        A1        A2
           R1           0.42479
           R2          -0.03350   0.42479
           R3          -0.03350  -0.03350   0.42479
           A1           0.02904   0.02904   0.02904   0.20610
           A2           0.00879   0.00879   0.00879  -0.02630   0.26797
           A3           0.00879   0.00879   0.00879  -0.02630   0.01797
           D1          -0.01375  -0.01375  -0.01375   0.01256   0.04825
                          A3        D1
           A3           0.26797
           D1           0.04825   0.07515
 ITU=  1  1  0
 Use linear search instead of GDIIS.
     Eigenvalues ---    0.14953   0.25000   0.29998   0.36337   0.45828
     Eigenvalues ---    0.45828
 RFO step:  Lambda=-7.92298729D-05 EMin= 1.49527232D-01
 Quartic linear search produced a step of  0.11346.
 Iteration  1 RMS(Cart)=  0.00597512 RMS(Int)=  0.00013179
 Iteration  2 RMS(Cart)=  0.00000659 RMS(Int)=  0.00013169
 Iteration  3 RMS(Cart)=  0.00000000 RMS(Int)=  0.00013169
 ClnCor:  largest displacement from symmetrization is 1.31D-03 for atom     4.
 Variable       Old X    -DE/DX   Delta X   Delta X   Delta X     New X
                                 (Linear)    (Quad)   (Total)
    R1        3.20392   0.00395   0.00436   0.00688   0.01094   3.21486
    R2        3.20392   0.00395   0.00436   0.00688   0.01094   3.21486
    R3        3.20392   0.00395   0.00436   0.00688   0.01094   3.21486
    A1        1.69014  -0.00004  -0.00595   0.00391  -0.00156   1.68858
    A2        1.69014  -0.00010  -0.00595   0.00499  -0.00156   1.68858
    A3        1.69014  -0.00010  -0.00595   0.00499  -0.00156   1.68858
    D1        1.70637  -0.00007  -0.00819   0.00535  -0.00201   1.70435
         Item               Value     Threshold  Converged?
 Maximum Force            0.003945     0.000450     NO 
 RMS     Force            0.002584     0.000300     NO 
 Maximum Displacement     0.007525     0.001800     NO 
 RMS     Displacement     0.005709     0.001200     NO 
 Predicted change in Energy=-6.594315D-05
 GradGradGradGradGradGradGradGradGradGradGradGradGradGradGradGradGradGrad

                          Input orientation:                          
 ---------------------------------------------------------------------
 Center     Atomic      Atomic             Coordinates (Angstroms)
 Number     Number       Type             X           Y           Z
 ---------------------------------------------------------------------
      1         15           0        0.000000    0.000000   -0.586699
      2          9           0       -1.271671   -0.734199    0.272366
      3          9           0        1.271671   -0.734199    0.272366
      4          9           0       -0.000000    1.468399    0.272366
 ---------------------------------------------------------------------
                    Distance matrix (angstroms):
                    1          2          3          4
     1  P    0.000000
     2  F    1.701231   0.000000
     3  F    1.701231   2.543341   0.000000
     4  F    1.701231   2.543341   2.543341   0.000000
 Stoichiometry    F3P
 Framework group  C3V[C3(P),3SGV(F)]
 Deg. of freedom     2
 Full point group                 C3V     NOp   6
 Largest Abelian subgroup         CS      NOp   2
 Largest concise Abelian subgroup CS      NOp   2
                         Standard orientation:                         
 ---------------------------------------------------------------------
 Center     Atomic      Atomic             Coordinates (Angstroms)
 Number     Number       Type             X           Y           Z
 ---------------------------------------------------------------------
      1         15           0        0.000000    0.000000    0.552256
      2          9           0        0.000000    1.468399   -0.306809
      3          9           0        1.271671   -0.734199   -0.306809
      4          9           0       -1.271671   -0.734199   -0.306809
 ---------------------------------------------------------------------
 Rotational constants (GHZ):           6.6273675           6.6273675           4.1123574
 Standard basis: 6-31G (6D, 7F)
 There are    26 symmetry adapted cartesian basis functions of A'  symmetry.
 There are    14 symmetry adapted cartesian basis functions of A"  symmetry.
 There are    26 symmetry adapted basis functions of A'  symmetry.
 There are    14 symmetry adapted basis functions of A"  symmetry.
    40 basis functions,   112 primitive gaussians,    40 cartesian basis functions
    21 alpha electrons       21 beta electrons
       nuclear repulsion energy       176.5369638340 Hartrees.
 NAtoms=    4 NActive=    4 NUniq=    2 SFac= 4.00D+00 NAtFMM=   60 NAOKFM=F Big=F
 Integral buffers will be    131072 words long.
 Raffenetti 1 integral format.
 Two-electron integral symmetry is turned on.
 One-electron integrals computed using PRISM.
 NBasis=    40 RedAO= T EigKep=  5.22D-02  NBF=    26    14
 NBsUse=    40 1.00D-06 EigRej= -1.00D+00 NBFU=    26    14
 Initial guess from the checkpoint file:  "PF3-6-31g.chk"
 B after Tr=     0.000000    0.000000   -0.000000
         Rot=    1.000000    0.000000   -0.000000    0.000000 Ang=   0.00 deg.
 Initial guess orbital symmetries:
       Occupied  (A1) (A1) (E) (E) (A1) (E) (E) (A1) (A1) (E) (E)
                 (A1) (E) (E) (A1) (E) (E) (A2) (E) (E) (A1)
       Virtual   (E) (E) (A1) (A1) (A1) (E) (E) (E) (E) (A1) (E)
                 (E) (A2) (A1) (E) (E) (E) (E) (A1)
 Keep R1 ints in memory in symmetry-blocked form, NReq=1153717.
 Requested convergence on RMS density matrix=1.00D-08 within 128 cycles.
 Requested convergence on MAX density matrix=1.00D-06.
 Requested convergence on             energy=1.00D-06.
 No special actions if energy rises.
 SCF Done:  E(RHF) =  -638.959205599     A.U. after    8 cycles
            NFock=  8  Conv=0.84D-08     -V/T= 2.0008
 ExpMin= 9.98D-02 ExpMax= 1.94D+04 ExpMxC= 2.91D+03 IAcc=3 IRadAn=         5 AccDes= 0.00D+00
 HarFok:  IExCor=  205 AccDes= 0.00D+00 IRadAn=         5 IDoV=-2 UseB2=F ITyADJ=14
 ICtDFT= 12500011 ScaDFX=  1.000000  1.000000  1.000000  1.000000
 Range of M.O.s used for correlation:     9    40
 NBasis=    40 NAE=    21 NBE=    21 NFC=     8 NFV=     0
 NROrb=     32 NOA=    13 NOB=    13 NVA=    19 NVB=    19
 Fully direct method using O(ONN) memory.
 JobTyp=1 Pass  1:  I=   9 to  21 NPSUse=  1 ParTrn=F ParDer=F DoDerP=T.
 Spin components of T(2) and E(2):
     alpha-alpha T2 =       0.1701515196D-01 E2=     -0.5991829972D-01
     alpha-beta  T2 =       0.9609385060D-01 E2=     -0.3255229389D+00
     beta-beta   T2 =       0.1701515196D-01 E2=     -0.5991829972D-01
 ANorm=    0.1063072977D+01
 E2 =    -0.4453595383D+00 EUMP2 =    -0.63940456513731D+03
          IDoAtm=1111
          Differentiating once with respect to electric field.
                with respect to dipole field.
          Differentiating once with respect to nuclear coordinates.
 Keep R1 ints in memory in symmetry-blocked form, NReq=1154575.
          There are     1 degrees of freedom in the 1st order CPHF.  IDoFFX=0 NUNeed=     1.
 LinEq1:  Iter=  0 NonCon=     1 RMS=1.35D-02 Max=1.33D-01 NDo=     1
 AX will form     1 AO Fock derivatives at one time.
 LinEq1:  Iter=  1 NonCon=     1 RMS=4.53D-03 Max=4.18D-02 NDo=     1
 LinEq1:  Iter=  2 NonCon=     1 RMS=1.31D-03 Max=8.55D-03 NDo=     1
 LinEq1:  Iter=  3 NonCon=     1 RMS=3.14D-04 Max=3.92D-03 NDo=     1
 LinEq1:  Iter=  4 NonCon=     1 RMS=2.79D-05 Max=1.95D-04 NDo=     1
 LinEq1:  Iter=  5 NonCon=     1 RMS=2.17D-06 Max=1.31D-05 NDo=     1
 LinEq1:  Iter=  6 NonCon=     1 RMS=2.99D-07 Max=3.43D-06 NDo=     1
 LinEq1:  Iter=  7 NonCon=     1 RMS=4.02D-08 Max=2.62D-07 NDo=     1
 LinEq1:  Iter=  8 NonCon=     1 RMS=5.55D-09 Max=3.68D-08 NDo=     1
 LinEq1:  Iter=  9 NonCon=     1 RMS=4.74D-10 Max=2.91D-09 NDo=     1
 LinEq1:  Iter= 10 NonCon=     0 RMS=4.46D-11 Max=2.56D-10 NDo=     1
 Linear equations converged to 1.000D-10 1.000D-09 after    10 iterations.
 End of Minotr F.D. properties file   721 does not exist.
 End of Minotr F.D. properties file   722 does not exist.
 End of Minotr F.D. properties file   788 does not exist.
 Calling FoFJK, ICntrl=  10002127 FMM=F ISym2X=1 I1Cent= 0 IOpClX= 0 NMat=1 NMatS=1 NMatT=0.
 ***** Axes restored to original set *****
 -------------------------------------------------------------------
 Center     Atomic                   Forces (Hartrees/Bohr)
 Number     Number              X              Y              Z
 -------------------------------------------------------------------
      1       15          -0.000000000   -0.000000000   -0.000628735
      2        9          -0.000519557   -0.000299967    0.000209578
      3        9           0.000519557   -0.000299967    0.000209578
      4        9           0.000000000    0.000599933    0.000209578
 -------------------------------------------------------------------
 Cartesian Forces:  Max     0.000628735 RMS     0.000365928

 GradGradGradGradGradGradGradGradGradGradGradGradGradGradGradGradGradGrad
 Berny optimization.
 Using GEDIIS/GDIIS optimizer.
 FormGI is forming the generalized inverse of G from B-inverse, IUseBI=4.
 Internal  Forces:  Max     0.000623656 RMS     0.000441135
 Search for a local minimum.
 Step number   4 out of a maximum of   20
 All quantities printed in internal units (Hartrees-Bohrs-Radians)
 Mixed Optimization -- En-DIIS/RFO-DIIS
 Update second derivatives using D2CorX and points    1    2    3    4
 DE= -7.43D-05 DEPred=-6.59D-05 R= 1.13D+00
 TightC=F SS=  1.41D+00  RLast= 1.93D-02 DXNew= 8.4853D-01 5.7752D-02
 Trust test= 1.13D+00 RLast= 1.93D-02 DXMaxT set to 5.05D-01
 The second derivative matrix:
                          R1        R2        R3        A1        A2
           R1           0.40735
           R2          -0.05093   0.40735
           R3          -0.05093  -0.05093   0.40735
           A1           0.00356   0.00356   0.00356   0.20220
           A2           0.00356   0.00356   0.00356  -0.02628   0.26478
           A3           0.00356   0.00356   0.00356  -0.02628   0.01478
           D1           0.00218   0.00218   0.00218   0.01668   0.04763
                          A3        D1
           A3           0.26478
           D1           0.04763   0.07522
 ITU=  1  1  1  0
 Use linear search instead of GDIIS.
     Eigenvalues ---    0.15290   0.25000   0.29168   0.31153   0.45828
     Eigenvalues ---    0.45828
 RFO step:  Lambda=-1.15646344D-06 EMin= 1.52898786D-01
 Quartic linear search produced a step of  0.17487.
 Iteration  1 RMS(Cart)=  0.00177644 RMS(Int)=  0.00000064
 Iteration  2 RMS(Cart)=  0.00000061 RMS(Int)=  0.00000041
 ClnCor:  largest displacement from symmetrization is 1.69D-04 for atom     4.
 Variable       Old X    -DE/DX   Delta X   Delta X   Delta X     New X
                                 (Linear)    (Quad)   (Total)
    R1        3.21486   0.00062   0.00191   0.00013   0.00200   3.21686
    R2        3.21486   0.00062   0.00191   0.00013   0.00200   3.21686
    R3        3.21486   0.00062   0.00191   0.00013   0.00200   3.21686
    A1        1.68858   0.00011  -0.00027   0.00092   0.00074   1.68932
    A2        1.68858   0.00027  -0.00027   0.00109   0.00074   1.68932
    A3        1.68858   0.00027  -0.00027   0.00109   0.00074   1.68932
    D1        1.70435   0.00019  -0.00035   0.00123   0.00095   1.70531
         Item               Value     Threshold  Converged?
 Maximum Force            0.000624     0.000450     NO 
 RMS     Force            0.000441     0.000300     NO 
 Maximum Displacement     0.002641     0.001800     NO 
 RMS     Displacement     0.001739     0.001200     NO 
 Predicted change in Energy=-2.218019D-06
 GradGradGradGradGradGradGradGradGradGradGradGradGradGradGradGradGradGrad

                          Input orientation:                          
 ---------------------------------------------------------------------
 Center     Atomic      Atomic             Coordinates (Angstroms)
 Number     Number       Type             X           Y           Z
 ---------------------------------------------------------------------
      1         15           0        0.000000    0.000000   -0.586474
      2          9           0       -1.272881   -0.734898    0.272300
      3          9           0        1.272881   -0.734898    0.272300
      4          9           0       -0.000000    1.469796    0.272300
 ---------------------------------------------------------------------
                    Distance matrix (angstroms):
                    1          2          3          4
     1  P    0.000000
     2  F    1.702291   0.000000
     3  F    1.702291   2.545762   0.000000
     4  F    1.702291   2.545762   2.545762   0.000000
 Stoichiometry    F3P
 Framework group  C3V[C3(P),3SGV(F)]
 Deg. of freedom     2
 Full point group                 C3V     NOp   6
 Largest Abelian subgroup         CS      NOp   2
 Largest concise Abelian subgroup CS      NOp   2
                         Standard orientation:                         
 ---------------------------------------------------------------------
 Center     Atomic      Atomic             Coordinates (Angstroms)
 Number     Number       Type             X           Y           Z
 ---------------------------------------------------------------------
      1         15           0        0.000000    0.000000    0.552069
      2          9           0       -0.000000    1.469796   -0.306705
      3          9           0        1.272881   -0.734898   -0.306705
      4          9           0       -1.272881   -0.734898   -0.306705
 ---------------------------------------------------------------------
 Rotational constants (GHZ):           6.6180806           6.6180806           4.1045394
 Standard basis: 6-31G (6D, 7F)
 There are    26 symmetry adapted cartesian basis functions of A'  symmetry.
 There are    14 symmetry adapted cartesian basis functions of A"  symmetry.
 There are    26 symmetry adapted basis functions of A'  symmetry.
 There are    14 symmetry adapted basis functions of A"  symmetry.
    40 basis functions,   112 primitive gaussians,    40 cartesian basis functions
    21 alpha electrons       21 beta electrons
       nuclear repulsion energy       176.4104499194 Hartrees.
 NAtoms=    4 NActive=    4 NUniq=    2 SFac= 4.00D+00 NAtFMM=   60 NAOKFM=F Big=F
 Integral buffers will be    131072 words long.
 Raffenetti 1 integral format.
 Two-electron integral symmetry is turned on.
 One-electron integrals computed using PRISM.
 NBasis=    40 RedAO= T EigKep=  5.23D-02  NBF=    26    14
 NBsUse=    40 1.00D-06 EigRej= -1.00D+00 NBFU=    26    14
 Initial guess from the checkpoint file:  "PF3-6-31g.chk"
 B after Tr=    -0.000000   -0.000000    0.000000
         Rot=    1.000000   -0.000000   -0.000000   -0.000000 Ang=   0.00 deg.
 Initial guess orbital symmetries:
       Occupied  (A1) (A1) (E) (E) (A1) (E) (E) (A1) (A1) (E) (E)
                 (A1) (E) (E) (A1) (E) (E) (A2) (E) (E) (A1)
       Virtual   (E) (E) (A1) (A1) (A1) (E) (E) (E) (E) (A1) (E)
                 (E) (A2) (A1) (E) (E) (E) (E) (A1)
 Keep R1 ints in memory in symmetry-blocked form, NReq=1153672.
 Requested convergence on RMS density matrix=1.00D-08 within 128 cycles.
 Requested convergence on MAX density matrix=1.00D-06.
 Requested convergence on             energy=1.00D-06.
 No special actions if energy rises.
 SCF Done:  E(RHF) =  -638.959040936     A.U. after    8 cycles
            NFock=  8  Conv=0.21D-08     -V/T= 2.0008
 ExpMin= 9.98D-02 ExpMax= 1.94D+04 ExpMxC= 2.91D+03 IAcc=3 IRadAn=         5 AccDes= 0.00D+00
 HarFok:  IExCor=  205 AccDes= 0.00D+00 IRadAn=         5 IDoV=-2 UseB2=F ITyADJ=14
 ICtDFT= 12500011 ScaDFX=  1.000000  1.000000  1.000000  1.000000
 Range of M.O.s used for correlation:     9    40
 NBasis=    40 NAE=    21 NBE=    21 NFC=     8 NFV=     0
 NROrb=     32 NOA=    13 NOB=    13 NVA=    19 NVB=    19
 Fully direct method using O(ONN) memory.
 JobTyp=1 Pass  1:  I=   9 to  21 NPSUse=  1 ParTrn=F ParDer=F DoDerP=T.
 Spin components of T(2) and E(2):
     alpha-alpha T2 =       0.1702904281D-01 E2=     -0.5993824934D-01
     alpha-beta  T2 =       0.9619579965D-01 E2=     -0.3256499781D+00
     beta-beta   T2 =       0.1702904281D-01 E2=     -0.5993824934D-01
 ANorm=    0.1063133992D+01
 E2 =    -0.4455264767D+00 EUMP2 =    -0.63940456741235D+03
          IDoAtm=1111
          Differentiating once with respect to electric field.
                with respect to dipole field.
          Differentiating once with respect to nuclear coordinates.
 Keep R1 ints in memory in symmetry-blocked form, NReq=1154575.
          There are     1 degrees of freedom in the 1st order CPHF.  IDoFFX=0 NUNeed=     1.
 LinEq1:  Iter=  0 NonCon=     1 RMS=1.35D-02 Max=1.34D-01 NDo=     1
 AX will form     1 AO Fock derivatives at one time.
 LinEq1:  Iter=  1 NonCon=     1 RMS=4.54D-03 Max=4.20D-02 NDo=     1
 LinEq1:  Iter=  2 NonCon=     1 RMS=1.31D-03 Max=8.60D-03 NDo=     1
 LinEq1:  Iter=  3 NonCon=     1 RMS=3.16D-04 Max=3.94D-03 NDo=     1
 LinEq1:  Iter=  4 NonCon=     1 RMS=2.80D-05 Max=1.95D-04 NDo=     1
 LinEq1:  Iter=  5 NonCon=     1 RMS=2.18D-06 Max=1.32D-05 NDo=     1
 LinEq1:  Iter=  6 NonCon=     1 RMS=3.01D-07 Max=3.48D-06 NDo=     1
 LinEq1:  Iter=  7 NonCon=     1 RMS=4.07D-08 Max=2.62D-07 NDo=     1
 LinEq1:  Iter=  8 NonCon=     1 RMS=5.59D-09 Max=3.71D-08 NDo=     1
 LinEq1:  Iter=  9 NonCon=     1 RMS=4.78D-10 Max=2.94D-09 NDo=     1
 LinEq1:  Iter= 10 NonCon=     0 RMS=4.50D-11 Max=2.58D-10 NDo=     1
 Linear equations converged to 1.000D-10 1.000D-09 after    10 iterations.
 End of Minotr F.D. properties file   721 does not exist.
 End of Minotr F.D. properties file   722 does not exist.
 End of Minotr F.D. properties file   788 does not exist.
 Calling FoFJK, ICntrl=  10002127 FMM=F ISym2X=1 I1Cent= 0 IOpClX= 0 NMat=1 NMatS=1 NMatT=0.
 ***** Axes restored to original set *****
 -------------------------------------------------------------------
 Center     Atomic                   Forces (Hartrees/Bohr)
 Number     Number              X              Y              Z
 -------------------------------------------------------------------
      1       15          -0.000000000    0.000000000    0.000003981
      2        9          -0.000015678   -0.000009052   -0.000001327
      3        9           0.000015678   -0.000009052   -0.000001327
      4        9           0.000000000    0.000018103   -0.000001327
 -------------------------------------------------------------------
 Cartesian Forces:  Max     0.000018103 RMS     0.000009148

 GradGradGradGradGradGradGradGradGradGradGradGradGradGradGradGradGradGrad
 Berny optimization.
 Using GEDIIS/GDIIS optimizer.
 FormGI is forming the generalized inverse of G from B-inverse, IUseBI=4.
 Internal  Forces:  Max     0.000022993 RMS     0.000017150
 Search for a local minimum.
 Step number   5 out of a maximum of   20
 All quantities printed in internal units (Hartrees-Bohrs-Radians)
 Mixed Optimization -- En-DIIS/RFO-DIIS
 Swapping is turned off.
 Update second derivatives using D2CorX and points    1    2    3    4    5
 DE= -2.28D-06 DEPred=-2.22D-06 R= 1.03D+00
 TightC=F SS=  1.41D+00  RLast= 3.82D-03 DXNew= 8.4853D-01 1.1457D-02
 Trust test= 1.03D+00 RLast= 3.82D-03 DXMaxT set to 5.05D-01
 The second derivative matrix:
                          R1        R2        R3        A1        A2
           R1           0.40509
           R2          -0.05320   0.40509
           R3          -0.05320  -0.05320   0.40509
           A1           0.00204   0.00204   0.00204   0.19019
           A2           0.00572   0.00572   0.00572  -0.04101   0.25806
           A3           0.00572   0.00572   0.00572  -0.04101   0.00806
           D1           0.00053   0.00053   0.00053   0.00858   0.05141
                          A3        D1
           A3           0.25806
           D1           0.05141   0.08820
 ITU=  1  1  1  1  0
     Eigenvalues ---    0.14679   0.25000   0.27887   0.30821   0.45828
     Eigenvalues ---    0.45828
 En-DIIS/RFO-DIIS/Sim-DIIS IScMMF=       -3 using points:     5    4
 RFO step:  Lambda= 0.00000000D+00.
 DidBck=F Rises=F RFO-DIIS coefs:    1.03647   -0.03647
 Iteration  1 RMS(Cart)=  0.00009653 RMS(Int)=  0.00000001
 Iteration  2 RMS(Cart)=  0.00000000 RMS(Int)=  0.00000001
 ClnCor:  largest displacement from symmetrization is 5.66D-06 for atom     4.
 Variable       Old X    -DE/DX   Delta X   Delta X   Delta X     New X
                                 (Linear)    (Quad)   (Total)
    R1        3.21686   0.00001   0.00007  -0.00003   0.00005   3.21691
    R2        3.21686   0.00001   0.00007  -0.00003   0.00005   3.21691
    R3        3.21686   0.00001   0.00007  -0.00003   0.00005   3.21691
    A1        1.68932   0.00001   0.00003   0.00004   0.00007   1.68940
    A2        1.68932   0.00002   0.00003   0.00005   0.00007   1.68940
    A3        1.68932   0.00002   0.00003   0.00005   0.00007   1.68940
    D1        1.70531   0.00002   0.00003   0.00006   0.00009   1.70540
         Item               Value     Threshold  Converged?
 Maximum Force            0.000023     0.000450     YES
 RMS     Force            0.000017     0.000300     YES
 Maximum Displacement     0.000130     0.001800     YES
 RMS     Displacement     0.000095     0.001200     YES
 Predicted change in Energy=-3.832723D-09
 Optimization completed.
    -- Stationary point found.
                           ----------------------------
                           !   Optimized Parameters   !
                           ! (Angstroms and Degrees)  !
 --------------------------                            --------------------------
 ! Name  Definition              Value          Derivative Info.                !
 --------------------------------------------------------------------------------
 ! R1    R(1,2)                  1.7023         -DE/DX =    0.0                 !
 ! R2    R(1,3)                  1.7023         -DE/DX =    0.0                 !
 ! R3    R(1,4)                  1.7023         -DE/DX =    0.0                 !
 ! A1    A(2,1,3)               96.791          -DE/DX =    0.0                 !
 ! A2    A(2,1,4)               96.791          -DE/DX =    0.0                 !
 ! A3    A(3,1,4)               96.791          -DE/DX =    0.0                 !
 ! D1    D(2,1,4,3)             97.7069         -DE/DX =    0.0                 !
 --------------------------------------------------------------------------------
 GradGradGradGradGradGradGradGradGradGradGradGradGradGradGradGradGradGrad

                          Input orientation:                          
 ---------------------------------------------------------------------
 Center     Atomic      Atomic             Coordinates (Angstroms)
 Number     Number       Type             X           Y           Z
 ---------------------------------------------------------------------
      1         15           0        0.000000    0.000000   -0.586474
      2          9           0       -1.272881   -0.734898    0.272300
      3          9           0        1.272881   -0.734898    0.272300
      4          9           0       -0.000000    1.469796    0.272300
 ---------------------------------------------------------------------
                    Distance matrix (angstroms):
                    1          2          3          4
     1  P    0.000000
     2  F    1.702291   0.000000
     3  F    1.702291   2.545762   0.000000
     4  F    1.702291   2.545762   2.545762   0.000000
 Stoichiometry    F3P
 Framework group  C3V[C3(P),3SGV(F)]
 Deg. of freedom     2
 Full point group                 C3V     NOp   6
 Largest Abelian subgroup         CS      NOp   2
 Largest concise Abelian subgroup CS      NOp   2
                         Standard orientation:                         
 ---------------------------------------------------------------------
 Center     Atomic      Atomic             Coordinates (Angstroms)
 Number     Number       Type             X           Y           Z
 ---------------------------------------------------------------------
      1         15           0        0.000000    0.000000    0.552069
      2          9           0        0.000000    1.469796   -0.306705
      3          9           0        1.272881   -0.734898   -0.306705
      4          9           0       -1.272881   -0.734898   -0.306705
 ---------------------------------------------------------------------
 Rotational constants (GHZ):           6.6180806           6.6180806           4.1045394

 **********************************************************************

            Population analysis using the SCF Density.

 **********************************************************************

 Orbital symmetries:
       Occupied  (A1) (A1) (E) (E) (A1) (E) (E) (A1) (A1) (E) (E)
                 (A1) (E) (E) (A1) (E) (E) (A2) (E) (E) (A1)
       Virtual   (E) (E) (A1) (A1) (A1) (E) (E) (E) (E) (A1) (E)
                 (E) (A2) (A1) (E) (E) (E) (E) (A1)
 The electronic state is 1-A1.
 Alpha  occ. eigenvalues --  -80.21620 -26.33636 -26.33633 -26.33633  -7.74937
 Alpha  occ. eigenvalues --   -5.63998  -5.63998  -5.63726  -1.64966  -1.60755
 Alpha  occ. eigenvalues --   -1.60755  -0.91645  -0.73744  -0.73744  -0.72870
 Alpha  occ. eigenvalues --   -0.68634  -0.68634  -0.65698  -0.65254  -0.65254
 Alpha  occ. eigenvalues --   -0.51642
 Alpha virt. eigenvalues --    0.07493   0.07493   0.16343   0.34546   0.42824
 Alpha virt. eigenvalues --    0.43337   0.43337   1.37198   1.37198   1.43125
 Alpha virt. eigenvalues --    1.56434   1.56434   1.57996   1.62230   1.68881
 Alpha virt. eigenvalues --    1.68881   1.86762   1.86762   2.46552
          Condensed to atoms (all electrons):
               1          2          3          4
     1  P   13.017851   0.125497   0.125497   0.125497
     2  F    0.125497   9.434201  -0.012239  -0.012239
     3  F    0.125497  -0.012239   9.434201  -0.012239
     4  F    0.125497  -0.012239  -0.012239   9.434201
 Mulliken charges:
               1
     1  P    1.605658
     2  F   -0.535219
     3  F   -0.535219
     4  F   -0.535219
 Sum of Mulliken charges =  -0.00000
 Mulliken charges with hydrogens summed into heavy atoms:
               1
     1  P    1.605658
     2  F   -0.535219
     3  F   -0.535219
     4  F   -0.535219
 Electronic spatial extent (au):  <R**2>=            299.1515
 Charge=             -0.0000 electrons
 Dipole moment (field-independent basis, Debye):
    X=              0.0000    Y=              0.0000    Z=              3.3621  Tot=              3.3621
 Quadrupole moment (field-independent basis, Debye-Ang):
   XX=            -30.9281   YY=            -30.9281   ZZ=            -26.1927
   XY=             -0.0000   XZ=             -0.0000   YZ=             -0.0000
 Traceless Quadrupole moment (field-independent basis, Debye-Ang):
   XX=             -1.5785   YY=             -1.5785   ZZ=              3.1569
   XY=             -0.0000   XZ=             -0.0000   YZ=             -0.0000
 Octapole moment (field-independent basis, Debye-Ang**2):
  XXX=              0.0000  YYY=             -5.5900  ZZZ=             -5.8637  XYY=              0.0000
  XXY=              5.5900  XXZ=              1.6319  XZZ=              0.0000  YZZ=              0.0000
  YYZ=              1.6319  XYZ=              0.0000
 Hexadecapole moment (field-independent basis, Debye-Ang**3):
 XXXX=           -127.5676 YYYY=           -127.5676 ZZZZ=            -53.9396 XXXY=             -0.0000
 XXXZ=             -0.0000 YYYX=             -0.0000 YYYZ=              1.2182 ZZZX=             -0.0000
 ZZZY=             -0.0000 XXYY=            -42.5225 XXZZ=            -27.8830 YYZZ=            -27.8830
 XXYZ=             -1.2182 YYXZ=             -0.0000 ZZXY=             -0.0000
 N-N= 1.764104499194D+02 E-N=-1.877727501640D+03  KE= 6.384440249253D+02
 Symmetry A'   KE= 5.018203862366D+02
 Symmetry A"   KE= 1.366236386887D+02
 Unable to Open any file for archive entry.
 1\1\GINC-BS001\FOpt\RMP2-FC\6-31G\F3P1\PNATT\10-Aug-2026\0\\# opt freq
 =hpmodes mp2/6-31g geom=connectivity\\Title Card Required\\0,1\P,0.,0.
 ,-0.5864735334\F,-1.2728810982,-0.7348982447,0.2723002998\F,1.27288109
 82,-0.7348982447,0.2723002998\F,0.,1.4697964894,0.2723002998\\Version=
 ES64L-G16RevC.01\State=1-A1\HF=-638.9590409\MP2=-639.4045674\RMSD=2.07
 5e-09\RMSF=9.148e-06\Dipole=0.,0.,-1.1206024\PG=C03V [C3(P1),3SGV(F1)]
 \\@
 The archive entry for this job was punched.


 YOU WILL NEVER "FIND" TIME FOR ANYTHING.
 IF YOU WANT TIME, YOU MUST MAKE IT.

                        -- CHARLES BIXTON
 Job cpu time:       0 days  0 hours  0 minutes  6.5 seconds.
 Elapsed time:       0 days  0 hours  0 minutes  6.1 seconds.
 File lengths (MBytes):  RWF=      6 Int=      0 D2E=      0 Chk=      1 Scr=      1
 Normal termination of Gaussian 16 at Mon Aug 10 16:33:39 2026.
 Link1:  Proceeding to internal job step number  2.
 -------------------------------------------------------------------
 #N Geom=AllCheck Guess=TCheck SCRF=Check GenChk RMP2(FC)/6-31G Freq
 -------------------------------------------------------------------
 1/10=4,29=7,30=1,38=1,40=1/1,3;
 2/12=2,40=1/2;
 3/5=1,6=6,11=1,14=-4,25=1,30=1,70=2,71=2,116=1,140=1/1,2,3;
 4/5=101/1;
 5/5=2,38=6,98=1/2;
 8/6=3,8=1,10=2,19=11,30=-1/1;
 9/15=3,16=-3/6;
 11/6=1,8=1,15=11,17=12,24=-1,27=1,28=-2,29=300,32=6,42=3/1,2,10;
 10/6=2,21=1/2;
 8/6=4,8=1,10=2,19=11,30=-1/11,4;
 10/5=1,20=4/2;
 11/12=2,14=11,16=1,17=2,28=-2,42=3,76=2/2,10,12;
 6/7=2,8=2,9=2,10=2/1;
 7/8=11,10=1,12=2,25=1,44=2/1,2,3,16;
 1/10=4,30=1/3;
 99//99;
 Structure from the checkpoint file:  "PF3-6-31g.chk"
 -------------------
 Title Card Required
 -------------------
 Charge =  0 Multiplicity = 1
 Redundant internal coordinates found in file.  (old form).
 P,0,0.,0.,-0.5864735334
 F,0,-1.2728810982,-0.7348982447,0.2723002998
 F,0,1.2728810982,-0.7348982447,0.2723002998
 F,0,0.,1.4697964894,0.2723002998
 Recover connectivity data from disk.

 GradGradGradGradGradGradGradGradGradGradGradGradGradGradGradGradGradGrad
 Berny optimization.
 Initialization pass.
                           ----------------------------
                           !    Initial Parameters    !
                           ! (Angstroms and Degrees)  !
 --------------------------                            --------------------------
 ! Name  Definition              Value          Derivative Info.                !
 --------------------------------------------------------------------------------
 ! R1    R(1,2)                  1.7023         calculate D2E/DX2 analytically  !
 ! R2    R(1,3)                  1.7023         calculate D2E/DX2 analytically  !
 ! R3    R(1,4)                  1.7023         calculate D2E/DX2 analytically  !
 ! A1    A(2,1,3)               96.791          calculate D2E/DX2 analytically  !
 ! A2    A(2,1,4)               96.791          calculate D2E/DX2 analytically  !
 ! A3    A(3,1,4)               96.791          calculate D2E/DX2 analytically  !
 ! D1    D(2,1,4,3)             97.7069         calculate D2E/DX2 analytically  !
 --------------------------------------------------------------------------------
 Trust Radius=3.00D-01 FncErr=1.00D-07 GrdErr=1.00D-07 EigMax=2.50D+02 EigMin=1.00D-04
 Number of steps in this run=      2 maximum allowed number of steps=      2.
 GradGradGradGradGradGradGradGradGradGradGradGradGradGradGradGradGradGrad

                          Input orientation:                          
 ---------------------------------------------------------------------
 Center     Atomic      Atomic             Coordinates (Angstroms)
 Number     Number       Type             X           Y           Z
 ---------------------------------------------------------------------
      1         15           0        0.000000    0.000000   -0.586474
      2          9           0       -1.272881   -0.734898    0.272300
      3          9           0        1.272881   -0.734898    0.272300
      4          9           0       -0.000000    1.469796    0.272300
 ---------------------------------------------------------------------
                    Distance matrix (angstroms):
                    1          2          3          4
     1  P    0.000000
     2  F    1.702291   0.000000
     3  F    1.702291   2.545762   0.000000
     4  F    1.702291   2.545762   2.545762   0.000000
 Stoichiometry    F3P
 Framework group  C3V[C3(P),3SGV(F)]
 Deg. of freedom     2
 Full point group                 C3V     NOp   6
 Largest Abelian subgroup         CS      NOp   2
 Largest concise Abelian subgroup CS      NOp   2
                         Standard orientation:                         
 ---------------------------------------------------------------------
 Center     Atomic      Atomic             Coordinates (Angstroms)
 Number     Number       Type             X           Y           Z
 ---------------------------------------------------------------------
      1         15           0        0.000000    0.000000    0.552069
      2          9           0       -0.000000    1.469796   -0.306705
      3          9           0        1.272881   -0.734898   -0.306705
      4          9           0       -1.272881   -0.734898   -0.306705
 ---------------------------------------------------------------------
 Rotational constants (GHZ):           6.6180806           6.6180806           4.1045394
 Standard basis: 6-31G (6D, 7F)
 There are    26 symmetry adapted cartesian basis functions of A'  symmetry.
 There are    14 symmetry adapted cartesian basis functions of A"  symmetry.
 There are    26 symmetry adapted basis functions of A'  symmetry.
 There are    14 symmetry adapted basis functions of A"  symmetry.
    40 basis functions,   112 primitive gaussians,    40 cartesian basis functions
    21 alpha electrons       21 beta electrons
       nuclear repulsion energy       176.4104499194 Hartrees.
 NAtoms=    4 NActive=    4 NUniq=    2 SFac= 4.00D+00 NAtFMM=   60 NAOKFM=F Big=F
 Integral buffers will be    131072 words long.
 Raffenetti 1 integral format.
 Two-electron integral symmetry is turned on.
 One-electron integrals computed using PRISM.
 NBasis=    40 RedAO= T EigKep=  5.23D-02  NBF=    26    14
 NBsUse=    40 1.00D-06 EigRej= -1.00D+00 NBFU=    26    14
 Initial guess from the checkpoint file:  "PF3-6-31g.chk"
 B after Tr=    -0.000000    0.000000    0.000000
         Rot=    1.000000   -0.000000    0.000000   -0.000000 Ang=   0.00 deg.
 Initial guess orbital symmetries:
       Occupied  (A1) (A1) (E) (E) (A1) (E) (E) (A1) (A1) (E) (E)
                 (A1) (E) (E) (A1) (E) (E) (A2) (E) (E) (A1)
       Virtual   (E) (E) (A1) (A1) (A1) (E) (E) (E) (E) (A1) (E)
                 (E) (A2) (A1) (E) (E) (E) (E) (A1)
 Keep R1 ints in memory in symmetry-blocked form, NReq=1153672.
 Requested convergence on RMS density matrix=1.00D-08 within 128 cycles.
 Requested convergence on MAX density matrix=1.00D-06.
 Requested convergence on             energy=1.00D-06.
 No special actions if energy rises.
 SCF Done:  E(RHF) =  -638.959040936     A.U. after    1 cycles
            NFock=  1  Conv=0.35D-09     -V/T= 2.0008
 ExpMin= 9.98D-02 ExpMax= 1.94D+04 ExpMxC= 2.91D+03 IAcc=3 IRadAn=         5 AccDes= 0.00D+00
 HarFok:  IExCor=  205 AccDes= 0.00D+00 IRadAn=         5 IDoV=-2 UseB2=F ITyADJ=14
 ICtDFT= 12500011 ScaDFX=  1.000000  1.000000  1.000000  1.000000
 Range of M.O.s used for correlation:     9    40
 NBasis=    40 NAE=    21 NBE=    21 NFC=     8 NFV=     0
 NROrb=     32 NOA=    13 NOB=    13 NVA=    19 NVB=    19
 Disk-based method using ON**2 memory for 13 occupieds at a time.
 Permanent disk used for amplitudes=      195111 words.
 Estimated scratch disk usage=     1512600 words.
 Actual    scratch disk usage=     1512600 words.
 JobTyp=1 Pass  1:  I=   9 to  21 NPSUse=  1 ParTrn=F ParDer=F DoDerP=T.
 (rs|ai) integrals will be sorted in core.
 Spin components of T(2) and E(2):
     alpha-alpha T2 =       0.1702904289D-01 E2=     -0.5993824948D-01
     alpha-beta  T2 =       0.9619579989D-01 E2=     -0.3256499785D+00
     beta-beta   T2 =       0.1702904289D-01 E2=     -0.5993824948D-01
 ANorm=    0.1063133992D+01
 E2 =    -0.4455264775D+00 EUMP2 =    -0.63940456741309D+03
 G2DrvN: will do     5 centers at a time, making    1 passes.
 Calling FoFCou, ICntrl=  3107 FMM=F I1Cent=   0 AccDes= 0.00D+00.
 End of G2Drv F.D. properties file   721 does not exist.
 End of G2Drv F.D. properties file   722 does not exist.
 End of G2Drv F.D. properties file   788 does not exist.
          IDoAtm=1111
          Differentiating once with respect to electric field.
                with respect to dipole field.
          Differentiating once with respect to nuclear coordinates.
 Keep R1 ints in memory in symmetry-blocked form, NReq=1154074.
          There are    15 degrees of freedom in the 1st order CPHF.  IDoFFX=6 NUNeed=    15.
     12 vectors produced by pass  0 Test12= 2.66D-15 6.67D-09 XBig12= 6.00D+00 1.80D+00.
 AX will form    12 AO Fock derivatives at one time.
     12 vectors produced by pass  1 Test12= 2.66D-15 6.67D-09 XBig12= 3.21D-01 1.87D-01.
     12 vectors produced by pass  2 Test12= 2.66D-15 6.67D-09 XBig12= 1.05D-02 3.70D-02.
     12 vectors produced by pass  3 Test12= 2.66D-15 6.67D-09 XBig12= 1.29D-04 4.43D-03.
     12 vectors produced by pass  4 Test12= 2.66D-15 6.67D-09 XBig12= 4.71D-07 2.27D-04.
     12 vectors produced by pass  5 Test12= 2.66D-15 6.67D-09 XBig12= 2.56D-09 1.57D-05.
     12 vectors produced by pass  6 Test12= 2.66D-15 6.67D-09 XBig12= 1.85D-11 1.37D-06.
      3 vectors produced by pass  7 Test12= 2.66D-15 6.67D-09 XBig12= 1.09D-13 1.05D-07.
      3 vectors produced by pass  8 Test12= 2.66D-15 6.67D-09 XBig12= 5.24D-16 8.55D-09.
 InvSVY:  IOpt=1 It=  1 EMax= 6.66D-16
 Solved reduced A of dimension    90 with    12 vectors.
 End of Minotr F.D. properties file   721 does not exist.
 End of Minotr F.D. properties file   722 does not exist.
 End of Minotr F.D. properties file   788 does not exist.
 MDV=   104857600.
 Form MO integral derivatives with frozen-active canonical formalism.
 Discarding MO integrals.
 Reordered first order wavefunction length =       318402
 In DefCFB: NBatch=  1 ICI= 21 ICA= 19 LFMax= 21
            Large arrays: LIAPS=     2553600 LIARS=     1452360 words.
 Semi-Direct transformation.
 ModeAB=           4 MOrb=            21 LenV=     104710045
 LASXX=       369285 LTotXX=      369285 LenRXX=      793716
 LTotAB=      424431 MaxLAS=      496440 LenRXY=           0
 NonZer=     1163001 LenScr=     2357760 LnRSAI=      496440
 LnScr1=     1488896 LExtra=           0 Total=      5136812
 MaxDsk=          -1 SrtSym=           T ITran=            4
 JobTyp=0 Pass  1:  I=   1 to  21.
 (rs|ai) integrals will be sorted in core.
 Spin components of T(2) and E(2):
     alpha-alpha T2 =       0.1702904289D-01 E2=     -0.5993824948D-01
     alpha-beta  T2 =       0.9619579989D-01 E2=     -0.3256499785D+00
     beta-beta   T2 =       0.1702904289D-01 E2=     -0.5993824948D-01
 ANorm=    0.1503498511D+01
 E2 =    -0.4455264775D+00 EUMP2 =    -0.63940456741309D+03
          IDoAtm=1111
          Differentiating once with respect to electric field.
                with respect to dipole field.
          Differentiating once with respect to nuclear coordinates.
          There are     1 degrees of freedom in the 1st order CPHF.  IDoFFX=0 NUNeed=     1.
 LinEq1:  Iter=  0 NonCon=     1 RMS=1.35D-02 Max=1.34D-01 NDo=     1
 LinEq1:  Iter=  1 NonCon=     1 RMS=4.54D-03 Max=4.20D-02 NDo=     1
 LinEq1:  Iter=  2 NonCon=     1 RMS=1.31D-03 Max=8.60D-03 NDo=     1
 LinEq1:  Iter=  3 NonCon=     1 RMS=3.16D-04 Max=3.94D-03 NDo=     1
 LinEq1:  Iter=  4 NonCon=     1 RMS=2.80D-05 Max=1.95D-04 NDo=     1
 LinEq1:  Iter=  5 NonCon=     1 RMS=2.18D-06 Max=1.32D-05 NDo=     1
 LinEq1:  Iter=  6 NonCon=     1 RMS=3.01D-07 Max=3.48D-06 NDo=     1
 LinEq1:  Iter=  7 NonCon=     1 RMS=4.07D-08 Max=2.62D-07 NDo=     1
 LinEq1:  Iter=  8 NonCon=     1 RMS=5.59D-09 Max=3.71D-08 NDo=     1
 LinEq1:  Iter=  9 NonCon=     1 RMS=4.78D-10 Max=2.94D-09 NDo=     1
 LinEq1:  Iter= 10 NonCon=     0 RMS=4.50D-11 Max=2.58D-10 NDo=     1
 Linear equations converged to 1.000D-10 1.000D-09 after    10 iterations.
 End of Minotr F.D. properties file   721 does not exist.
 End of Minotr F.D. properties file   722 does not exist.
 End of Minotr F.D. properties file   788 does not exist.
 Symmetrizing basis deriv contribution to polar:
 IMax=3 JMax=2 DiffMx= 0.00D+00
 G2DrvN: will do     5 centers at a time, making    1 passes.
 Calling FoFCou, ICntrl=  3107 FMM=F I1Cent=   0 AccDes= 0.00D+00.
 End of G2Drv F.D. properties file   721 does not exist.
 End of G2Drv F.D. properties file   722 does not exist.
 End of G2Drv F.D. properties file   788 does not exist.
 R2 and R3 integrals will be kept in memory, NReq=     1473220.
 DD1Dir will call FoFMem   1 times, MxPair=       462
 NAB=   231 NAA=     0 NBB=     0.
 Discarding MO integrals.

 **********************************************************************

            Population analysis using the SCF Density.

 **********************************************************************

 Orbital symmetries:
       Occupied  (A1) (A1) (E) (E) (A1) (E) (E) (A1) (A1) (E) (E)
                 (A1) (E) (E) (A1) (E) (E) (A2) (E) (E) (A1)
       Virtual   (E) (E) (A1) (A1) (A1) (E) (E) (E) (E) (A1) (E)
                 (E) (A2) (A1) (E) (E) (E) (E) (A1)
 The electronic state is 1-A1.
 Alpha  occ. eigenvalues --  -80.21620 -26.33636 -26.33633 -26.33633  -7.74937
 Alpha  occ. eigenvalues --   -5.63998  -5.63998  -5.63726  -1.64966  -1.60755
 Alpha  occ. eigenvalues --   -1.60755  -0.91645  -0.73744  -0.73744  -0.72870
 Alpha  occ. eigenvalues --   -0.68634  -0.68634  -0.65698  -0.65254  -0.65254
 Alpha  occ. eigenvalues --   -0.51642
 Alpha virt. eigenvalues --    0.07493   0.07493   0.16343   0.34546   0.42824
 Alpha virt. eigenvalues --    0.43337   0.43337   1.37198   1.37198   1.43125
 Alpha virt. eigenvalues --    1.56434   1.56434   1.57996   1.62230   1.68881
 Alpha virt. eigenvalues --    1.68881   1.86762   1.86762   2.46552
          Condensed to atoms (all electrons):
               1          2          3          4
     1  P   13.017851   0.125497   0.125497   0.125497
     2  F    0.125497   9.434201  -0.012239  -0.012239
     3  F    0.125497  -0.012239   9.434201  -0.012239
     4  F    0.125497  -0.012239  -0.012239   9.434201
 Mulliken charges:
               1
     1  P    1.605658
     2  F   -0.535219
     3  F   -0.535219
     4  F   -0.535219
 Sum of Mulliken charges =  -0.00000
 Mulliken charges with hydrogens summed into heavy atoms:
               1
     1  P    1.605658
     2  F   -0.535219
     3  F   -0.535219
     4  F   -0.535219
 APT charges:
               1
     1  P    1.579988
     2  F   -0.526663
     3  F   -0.526663
     4  F   -0.526663
 Sum of APT charges =  -0.00000
 APT charges with hydrogens summed into heavy atoms:
               1
     1  P    1.579988
     2  F   -0.526663
     3  F   -0.526663
     4  F   -0.526663
 Electronic spatial extent (au):  <R**2>=            299.1515
 Charge=              0.0000 electrons
 Dipole moment (field-independent basis, Debye):
    X=             -0.0000    Y=              0.0000    Z=              3.3621  Tot=              3.3621
 Quadrupole moment (field-independent basis, Debye-Ang):
   XX=            -30.9281   YY=            -30.9281   ZZ=            -26.1927
   XY=              0.0000   XZ=             -0.0000   YZ=              0.0000
 Traceless Quadrupole moment (field-independent basis, Debye-Ang):
   XX=             -1.5785   YY=             -1.5785   ZZ=              3.1569
   XY=              0.0000   XZ=             -0.0000   YZ=              0.0000
 Octapole moment (field-independent basis, Debye-Ang**2):
  XXX=              0.0000  YYY=             -5.5900  ZZZ=             -5.8637  XYY=             -0.0000
  XXY=              5.5900  XXZ=              1.6319  XZZ=              0.0000  YZZ=              0.0000
  YYZ=              1.6319  XYZ=             -0.0000
 Hexadecapole moment (field-independent basis, Debye-Ang**3):
 XXXX=           -127.5676 YYYY=           -127.5676 ZZZZ=            -53.9396 XXXY=              0.0000
 XXXZ=             -0.0000 YYYX=              0.0000 YYYZ=              1.2182 ZZZX=             -0.0000
 ZZZY=             -0.0000 XXYY=            -42.5225 XXZZ=            -27.8830 YYZZ=            -27.8830
 XXYZ=             -1.2182 YYXZ=              0.0000 ZZXY=              0.0000
 N-N= 1.764104499194D+02 E-N=-1.877727501590D+03  KE= 6.384440248941D+02
 Symmetry A'   KE= 5.018203862394D+02
 Symmetry A"   KE= 1.366236386547D+02
  Exact polarizability:      22.188       0.000      22.188       0.000      -0.000      15.161
 Approx polarizability:      17.495      -0.000      17.495       0.000       0.000      10.502
 Calling FoFJK, ICntrl=  10100127 FMM=F ISym2X=1 I1Cent= 0 IOpClX= 0 NMat=1 NMatS=1 NMatT=0.
 Full mass-weighted force constant matrix:
 Low frequencies ---   -3.0117   -2.5853   -2.5853   -0.0018   -0.0008   -0.0008
 Low frequencies ---  267.7052  267.7052  380.3123
 Diagonal vibrational polarizability:
        8.0748645       8.0748645      11.0347244
 Harmonic frequencies (cm**-1), IR intensities (KM/Mole), Raman scattering
 activities (A**4/AMU), depolarization ratios for plane and unpolarized
 incident light, reduced masses (AMU), force constants (mDyne/A),
 and normal coordinates:
                           1         2         3         4         5
                           E         E        A1        A1         E
       Frequencies ---   267.7052  267.7052  380.3123  802.0726  804.2155
    Reduced masses ---    19.7700   19.7700   21.0124   22.4740   22.6960
   Force constants ---     0.8348    0.8348    1.7906    8.5184    8.6486
    IR Intensities ---     8.2684    8.2684   39.4208   88.4521  119.4457
 Coord Atom Element:
   1     1    15         -0.07077  -0.24378   0.00000  -0.00000  -0.20188
   2     1    15         -0.24378   0.07077   0.00000  -0.00000   0.51770
   3     1    15          0.00000   0.00000   0.41009   0.53873   0.00000
   1     2     9          0.18593   0.64050  -0.00000   0.00000   0.00892
   2     2     9         -0.37554   0.10902  -0.47708   0.38842  -0.53980
   3     2     9         -0.15481   0.04494  -0.22286  -0.29277   0.32877
   1     3     9          0.40468  -0.24925  -0.41317   0.33639   0.38394
   2     3     9          0.51421   0.32776   0.23854  -0.19421  -0.23939
   3     3     9          0.03849  -0.15654  -0.22286  -0.29277  -0.27541
   1     4     9         -0.47524   0.00619   0.41317  -0.33639  -0.06373
   2     4     9          0.25877  -0.55215   0.23854  -0.19421  -0.06483
   3     4     9          0.11632   0.11160  -0.22286  -0.29277  -0.05336
                           6
                           E
       Frequencies ---   804.2155
    Reduced masses ---    22.6960
   Force constants ---     8.6486
    IR Intensities ---   119.4457
 Coord Atom Element:
   1     1    15          0.51770
   2     1    15          0.20188
   3     1    15          0.00000
   1     2     9         -0.02288
   2     2     9         -0.21049
   3     2     9          0.12820
   1     3     9         -0.32329
   2     3     9          0.16452
   3     3     9          0.22062
   1     4     9         -0.49786
   2     4     9         -0.28315
   3     4     9         -0.34882
 Harmonic frequencies (cm**-1), IR intensities (KM/Mole), Raman scattering
 activities (A**4/AMU), depolarization ratios for plane and unpolarized
 incident light, reduced masses (AMU), force constants (mDyne/A),
 and normal coordinates:
                      1                      2                      3
                      E                      E                     A1
 Frequencies --    267.7052               267.7052               380.3123
 Red. masses --     19.7700                19.7700                21.0124
 Frc consts  --      0.8348                 0.8348                 1.7906
 IR Inten    --      8.2684                 8.2684                39.4208
  Atom  AN      X      Y      Z        X      Y      Z        X      Y      Z
     1  15    -0.07  -0.24   0.00    -0.24   0.07   0.00     0.00   0.00   0.41
     2   9     0.19  -0.38  -0.15     0.64   0.11   0.04    -0.00  -0.48  -0.22
     3   9     0.40   0.51   0.04    -0.25   0.33  -0.16    -0.41   0.24  -0.22
     4   9    -0.48   0.26   0.12     0.01  -0.55   0.11     0.41   0.24  -0.22
                      4                      5                      6
                     A1                      E                      E
 Frequencies --    802.0726               804.2155               804.2155
 Red. masses --     22.4740                22.6960                22.6960
 Frc consts  --      8.5184                 8.6486                 8.6486
 IR Inten    --     88.4521               119.4457               119.4457
  Atom  AN      X      Y      Z        X      Y      Z        X      Y      Z
     1  15    -0.00  -0.00   0.54    -0.20   0.52   0.00     0.52   0.20   0.00
     2   9     0.00   0.39  -0.29     0.01  -0.54   0.33    -0.02  -0.21   0.13
     3   9     0.34  -0.19  -0.29     0.38  -0.24  -0.28    -0.32   0.16   0.22
     4   9    -0.34  -0.19  -0.29    -0.06  -0.06  -0.05    -0.50  -0.28  -0.35

 -------------------
 - Thermochemistry -
 -------------------
 Temperature   298.150 Kelvin.  Pressure   1.00000 Atm.
 Atom     1 has atomic number 15 and mass  30.97376
 Atom     2 has atomic number  9 and mass  18.99840
 Atom     3 has atomic number  9 and mass  18.99840
 Atom     4 has atomic number  9 and mass  18.99840
 Molecular mass:    87.96897 amu.
 Principal axes and moments of inertia in atomic units:
                           1         2         3
     Eigenvalues --   272.69858 272.69858 439.69396
           X            0.05256   0.99862   0.00000
           Y            0.99862  -0.05256   0.00000
           Z           -0.00000  -0.00000   1.00000
 This molecule is an oblate symmetric top.
 Rotational symmetry number  3.
 Rotational temperatures (Kelvin)      0.31762     0.31762     0.19699
 Rotational constants (GHZ):           6.61808     6.61808     4.10454
 Zero-point vibrational energy      19895.3 (Joules/Mol)
                                    4.75508 (Kcal/Mol)
 Warning -- explicit consideration of   3 degrees of freedom as
           vibrations may cause significant error
 Vibrational temperatures:    385.17   385.17   547.18  1154.00  1157.09
          (Kelvin)           1157.09
 
 Zero-point correction=                           0.007578 (Hartree/Particle)
 Thermal correction to Energy=                    0.011896
 Thermal correction to Enthalpy=                  0.012840
 Thermal correction to Gibbs Free Energy=        -0.019004
 Sum of electronic and zero-point Energies=           -639.396990
 Sum of electronic and thermal Energies=              -639.392672
 Sum of electronic and thermal Enthalpies=            -639.391728
 Sum of electronic and thermal Free Energies=         -639.423571
 
                     E (Thermal)             CV                S
                      KCal/Mol        Cal/Mol-Kelvin    Cal/Mol-Kelvin
 Total                    7.465             12.874             67.021
 Electronic               0.000              0.000              0.000
 Translational            0.889              2.981             39.336
 Rotational               0.889              2.981             22.812
 Vibrational              5.687              6.912              4.873
 Vibration     1          0.673              1.732              1.611
 Vibration     2          0.673              1.732              1.611
 Vibration     3          0.750              1.512              1.038
                       Q            Log10(Q)             Ln(Q)
 Total Bot       0.551094D+09          8.741226         20.127416
 Total V=0       0.168548D+13         12.226723         28.153071
 Vib (Bot)       0.787581D-03         -3.103705         -7.146545
 Vib (Bot)    1  0.722760D+00         -0.141006         -0.324679
 Vib (Bot)    2  0.722760D+00         -0.141006         -0.324679
 Vib (Bot)    3  0.475309D+00         -0.323024         -0.743790
 Vib (V=0)       0.240875D+01          0.381793          0.879110
 Vib (V=0)    1  0.137885D+01          0.139518          0.321252
 Vib (V=0)    2  0.137885D+01          0.139518          0.321252
 Vib (V=0)    3  0.118987D+01          0.075499          0.173843
 Electronic      0.100000D+01          0.000000          0.000000
 Translational   0.324301D+08          7.510948         17.294597
 Rotational      0.215766D+05          4.333982          9.979363
 ***** Axes restored to original set *****
 -------------------------------------------------------------------
 Center     Atomic                   Forces (Hartrees/Bohr)
 Number     Number              X              Y              Z
 -------------------------------------------------------------------
      1       15          -0.000000000    0.000000000    0.000003981
      2        9          -0.000015678   -0.000009052   -0.000001327
      3        9           0.000015678   -0.000009052   -0.000001327
      4        9          -0.000000000    0.000018104   -0.000001327
 -------------------------------------------------------------------
 Cartesian Forces:  Max     0.000018104 RMS     0.000009149
 FormGI is forming the generalized inverse of G from B-inverse, IUseBI=4.

 GradGradGradGradGradGradGradGradGradGradGradGradGradGradGradGradGradGrad
 Berny optimization.
 Internal  Forces:  Max     0.000022994 RMS     0.000017150
 Search for a local minimum.
 Step number   1 out of a maximum of    2
 All quantities printed in internal units (Hartrees-Bohrs-Radians)
 Second derivative matrix not updated -- analytic derivatives used.
 The second derivative matrix:
                          R1        R2        R3        A1        A2
           R1           0.28200
           R2           0.00851   0.28200
           R3           0.00851   0.00851   0.28200
           A1           0.00270   0.00270  -0.00146   0.05892
           A2           0.00557  -0.00176   0.00599  -0.00496   0.23830
           A3          -0.00176   0.00557   0.00599  -0.00496   0.03519
           D1           0.00326   0.00326   0.00015   0.05852   0.03223
                          A3        D1
           A3           0.23830
           D1           0.03223   0.06826
 ITU=  0
     Eigenvalues ---    0.11717   0.20236   0.27181   0.27425   0.28121
     Eigenvalues ---    0.30301
 Angle between quadratic step and forces=  18.81 degrees.
 Linear search not attempted -- first point.
 Iteration  1 RMS(Cart)=  0.00009539 RMS(Int)=  0.00000000
 Iteration  2 RMS(Cart)=  0.00000000 RMS(Int)=  0.00000000
 ClnCor:  largest displacement from symmetrization is 2.45D-09 for atom     4.
 Variable       Old X    -DE/DX   Delta X   Delta X   Delta X     New X
                                 (Linear)    (Quad)   (Total)
    R1        3.21686   0.00001   0.00000   0.00005   0.00005   3.21691
    R2        3.21686   0.00001   0.00000   0.00005   0.00005   3.21691
    R3        3.21686   0.00001   0.00000   0.00005   0.00005   3.21691
    A1        1.68932   0.00001   0.00000   0.00007   0.00007   1.68939
    A2        1.68932   0.00002   0.00000   0.00007   0.00007   1.68939
    A3        1.68932   0.00002   0.00000   0.00007   0.00007   1.68939
    D1        1.70531   0.00002   0.00000   0.00009   0.00009   1.70540
         Item               Value     Threshold  Converged?
 Maximum Force            0.000023     0.000450     YES
 RMS     Force            0.000017     0.000300     YES
 Maximum Displacement     0.000131     0.001800     YES
 RMS     Displacement     0.000095     0.001200     YES
 Predicted change in Energy=-3.802927D-09
 Optimization completed.
    -- Stationary point found.
                           ----------------------------
                           !   Optimized Parameters   !
                           ! (Angstroms and Degrees)  !
 --------------------------                            --------------------------
 ! Name  Definition              Value          Derivative Info.                !
 --------------------------------------------------------------------------------
 ! R1    R(1,2)                  1.7023         -DE/DX =    0.0                 !
 ! R2    R(1,3)                  1.7023         -DE/DX =    0.0                 !
 ! R3    R(1,4)                  1.7023         -DE/DX =    0.0                 !
 ! A1    A(2,1,3)               96.791          -DE/DX =    0.0                 !
 ! A2    A(2,1,4)               96.791          -DE/DX =    0.0                 !
 ! A3    A(3,1,4)               96.791          -DE/DX =    0.0                 !
 ! D1    D(2,1,4,3)             97.7069         -DE/DX =    0.0                 !
 --------------------------------------------------------------------------------
 GradGradGradGradGradGradGradGradGradGradGradGradGradGradGradGradGradGrad


 ----------------------------------------------------------------------

 Electric dipole moment (input orientation):
 (Debye = 10**-18 statcoulomb cm , SI units = C m)
                  (au)            (Debye)         (10**-30 SI)
   Tot        0.112060D+01      0.284829D+01      0.950086D+01
   x          0.000000D+00      0.000000D+00      0.000000D+00
   y          0.000000D+00      0.000000D+00      0.000000D+00
   z         -0.112060D+01     -0.284829D+01     -0.950086D+01

 Dipole polarizability, Alpha (input orientation).
 (esu units = cm**3 , SI units = C**2 m**2 J**-1)
 Alpha(0;0):
               (au)            (10**-24 esu)      (10**-40 SI)
   iso        0.198459D+02      0.294086D+01      0.327214D+01
   aniso      0.702676D+01      0.104126D+01      0.115856D+01
   xx         0.221881D+02      0.328794D+01      0.365833D+01
   yx         0.000000D+00      0.000000D+00      0.000000D+00
   yy         0.221881D+02      0.328794D+01      0.365833D+01
   zx         0.000000D+00      0.000000D+00      0.000000D+00
   zy         0.000000D+00      0.000000D+00      0.000000D+00
   zz         0.151614D+02      0.224668D+01      0.249977D+01

 ----------------------------------------------------------------------

 Dipole orientation:
    15          0.00000000         -0.00000000          1.10827436
     9         -2.40539666          1.38875641         -0.51457299
     9          2.40539666          1.38875641         -0.51457299
     9         -0.00000000         -2.77751282         -0.51457299

 Electric dipole moment (dipole orientation):
 (Debye = 10**-18 statcoulomb cm , SI units = C m)
                  (au)            (Debye)         (10**-30 SI)
   Tot        0.112060D+01      0.284829D+01      0.950086D+01
   x          0.000000D+00      0.000000D+00      0.000000D+00
   y          0.000000D+00      0.000000D+00      0.000000D+00
   z          0.112060D+01      0.284829D+01      0.950086D+01

 Dipole polarizability, Alpha (dipole orientation).
 (esu units = cm**3 , SI units = C**2 m**2 J**-1)
 Alpha(0;0):
               (au)            (10**-24 esu)      (10**-40 SI)
   iso        0.198459D+02      0.294086D+01      0.327214D+01
   aniso      0.702676D+01      0.104126D+01      0.115856D+01
   xx         0.221881D+02      0.328794D+01      0.365833D+01
   yx         0.000000D+00      0.000000D+00      0.000000D+00
   yy         0.221881D+02      0.328794D+01      0.365833D+01
   zx         0.000000D+00      0.000000D+00      0.000000D+00
   zy         0.000000D+00      0.000000D+00      0.000000D+00
   zz         0.151614D+02      0.224668D+01      0.249977D+01

 ----------------------------------------------------------------------
 Unable to Open any file for archive entry.
 1\1\GINC-BS001\Freq\RMP2-FC\6-31G\F3P1\PNATT\10-Aug-2026\0\\#N Geom=Al
 lCheck Guess=TCheck SCRF=Check GenChk RMP2(FC)/6-31G Freq\\Title Card 
 Required\\0,1\P,0.,0.,-0.5864735334\F,-1.2728810982,-0.7348982447,0.27
 23002998\F,1.2728810982,-0.7348982447,0.2723002998\F,0.,1.4697964894,0
 .2723002998\\Version=ES64L-G16RevC.01\State=1-A1\HF=-638.9590409\MP2=-
 639.4045674\RMSD=3.506e-10\RMSF=9.149e-06\ZeroPoint=0.0075777\Thermal=
 0.0118957\ETot=-639.3926717\HTot=-639.3917275\GTot=-639.4235714\Dipole
 =0.,0.,-1.1206024\DipoleDeriv=1.5612526,0.,0.,0.,1.5612526,0.,0.,0.,1.
 6174589,-0.6099601,-0.1550923,0.0617192,-0.1550923,-0.430875,0.0356336
 ,0.2937296,0.1695848,-0.539153,-0.6099601,0.1550923,-0.0617192,0.15509
 23,-0.430875,0.0356336,-0.2937296,0.1695848,-0.539153,-0.3413324,0.,0.
 ,0.,-0.6995027,-0.0712672,0.,-0.3391697,-0.539153\Polar=22.1881335,0.,
 22.1881335,0.,0.,15.1613715\PG=C03V [C3(P1),3SGV(F1)]\NImag=0\\0.32793
 498,0.,0.32793498,0.,0.,0.34365716,-0.15280409,-0.07533110,0.08954813,
 0.16953713,-0.07533110,-0.06581923,0.05170064,0.08503207,0.07135055,0.
 11062301,0.06386822,-0.11455239,-0.09606672,-0.05546415,0.08793575,-0.
 15280409,0.07533110,-0.08954813,-0.01676780,0.00313296,-0.00702496,0.1
 6953713,0.07533110,-0.06581923,0.05170064,-0.00313296,0.00563562,-0.00
 464057,-0.08503207,0.07135055,-0.11062301,0.06386822,-0.11455239,0.007
 02496,-0.00464057,0.01330832,0.09606672,-0.05546415,0.08793575,-0.0223
 2680,0.,0.,0.00003477,-0.01283393,-0.00753133,0.00003477,0.01283393,0.
 00753133,0.02225727,0.,-0.19629652,-0.10340128,-0.00656801,-0.01116695
 ,-0.00376351,0.00656801,-0.01116695,-0.00376351,0.,0.21863041,0.,-0.12
 773645,-0.11455239,-0.00050637,0.00840408,0.01330832,0.00050637,0.0084
 0408,0.01330832,0.,0.11092830,0.08793575\\0.,0.,-0.00000398,0.00001568
 ,0.00000905,0.00000133,-0.00001568,0.00000905,0.00000133,0.,-0.0000181
 0,0.00000133\\\@
 The archive entry for this job was punched.


 REPARTEE - WHAT YOU THINK OF AFTER YOU BECOME A DEPARTEE.
 Job cpu time:       0 days  0 hours  0 minutes  5.0 seconds.
 Elapsed time:       0 days  0 hours  0 minutes  4.8 seconds.
 File lengths (MBytes):  RWF=     49 Int=      0 D2E=      0 Chk=      1 Scr=      1
 Normal termination of Gaussian 16 at Mon Aug 10 16:33:45 2026.
