 Entering Gaussian System, Link 0=g16
 Input=SbH3.com
 Output=SbH3.log
 Initial command:
 /opt/g16/g16/l1.exe "/home/pnatt/scratch/Gau-1481479.inp" -scrdir="/home/pnatt/scratch/"
 Entering Link 1 = /opt/g16/g16/l1.exe PID=   1481484.
  
 Copyright (c) 1988-2019, Gaussian, Inc.  All Rights Reserved.
  
 This is part of the Gaussian(R) 16 program.  It is based on
 the Gaussian(R) 09 system (copyright 2009, Gaussian, Inc.),
 the Gaussian(R) 03 system (copyright 2003, Gaussian, Inc.),
 the Gaussian(R) 98 system (copyright 1998, Gaussian, Inc.),
 the Gaussian(R) 94 system (copyright 1995, Gaussian, Inc.),
 the Gaussian 92(TM) system (copyright 1992, Gaussian, Inc.),
 the Gaussian 90(TM) system (copyright 1990, Gaussian, Inc.),
 the Gaussian 88(TM) system (copyright 1988, Gaussian, Inc.),
 the Gaussian 86(TM) system (copyright 1986, Carnegie Mellon
 University), and the Gaussian 82(TM) system (copyright 1983,
 Carnegie Mellon University). Gaussian is a federally registered
 trademark of Gaussian, Inc.
  
 This software contains proprietary and confidential information,
 including trade secrets, belonging to Gaussian, Inc.
  
 This software is provided under written license and may be
 used, copied, transmitted, or stored only in accord with that
 written license.
  
 The following legend is applicable only to US Government
 contracts under FAR:
  
                    RESTRICTED RIGHTS LEGEND
  
 Use, reproduction and disclosure by the US Government is
 subject to restrictions as set forth in subparagraphs (a)
 and (c) of the Commercial Computer Software - Restricted
 Rights clause in FAR 52.227-19.
  
 Gaussian, Inc.
 340 Quinnipiac St., Bldg. 40, Wallingford CT 06492
  
  
 ---------------------------------------------------------------
 Warning -- This program may not be used in any manner that
 competes with the business of Gaussian, Inc. or will provide
 assistance to any competitor of Gaussian, Inc.  The licensee
 of this program is prohibited from giving any competitor of
 Gaussian, Inc. access to this program.  By using this program,
 the user acknowledges that Gaussian, Inc. is engaged in the
 business of creating and licensing software in the field of
 computational chemistry and represents and warrants to the
 licensee that it is not a competitor of Gaussian, Inc. and that
 it will not use this program in any manner prohibited above.
 ---------------------------------------------------------------
  

 Cite this work as:
 Gaussian 16, Revision C.01,
 M. J. Frisch, G. W. Trucks, H. B. Schlegel, G. E. Scuseria, 
 M. A. Robb, J. R. Cheeseman, G. Scalmani, V. Barone, 
 G. A. Petersson, H. Nakatsuji, X. Li, M. Caricato, A. V. Marenich, 
 J. Bloino, B. G. Janesko, R. Gomperts, B. Mennucci, H. P. Hratchian, 
 J. V. Ortiz, A. F. Izmaylov, J. L. Sonnenberg, D. Williams-Young, 
 F. Ding, F. Lipparini, F. Egidi, J. Goings, B. Peng, A. Petrone, 
 T. Henderson, D. Ranasinghe, V. G. Zakrzewski, J. Gao, N. Rega, 
 G. Zheng, W. Liang, M. Hada, M. Ehara, K. Toyota, R. Fukuda, 
 J. Hasegawa, M. Ishida, T. Nakajima, Y. Honda, O. Kitao, H. Nakai, 
 T. Vreven, K. Throssell, J. A. Montgomery, Jr., J. E. Peralta, 
 F. Ogliaro, M. J. Bearpark, J. J. Heyd, E. N. Brothers, K. N. Kudin, 
 V. N. Staroverov, T. A. Keith, R. Kobayashi, J. Normand, 
 K. Raghavachari, A. P. Rendell, J. C. Burant, S. S. Iyengar, 
 J. Tomasi, M. Cossi, J. M. Millam, M. Klene, C. Adamo, R. Cammi, 
 J. W. Ochterski, R. L. Martin, K. Morokuma, O. Farkas, 
 J. B. Foresman, and D. J. Fox, Gaussian, Inc., Wallingford CT, 2019.
 
 ******************************************
 Gaussian 16:  ES64L-G16RevC.01  3-Jul-2019
                10-Aug-2026 
 ******************************************
 %chk=SbH3_MP2_3-21G.chk
 ----------------------------
 # opt freq=hpmodes mp2/3-21g
 ----------------------------
 1/18=20,19=15,38=1/1,3;
 2/9=110,12=2,17=6,18=5,40=1/2;
 3/5=5,11=9,25=1,30=1,71=1/1,2,3;
 4//1;
 5/5=2,38=5/2;
 8/6=4,10=1/1;
 9/15=2,16=-3/6;
 10/5=1/2;
 6/7=2,8=2,9=2,10=2/1;
 7/12=2/1,2,3,16;
 1/18=20,19=15/3(2);
 2/9=110/2;
 99//99;
 2/9=110/2;
 3/5=5,11=9,25=1,30=1,71=1/1,2,3;
 4/5=5,16=3,69=1/1;
 5/5=2,38=5/2;
 8/6=4,10=1/1;
 9/15=2,16=-3/6;
 10/5=1/2;
 7/12=2/1,2,3,16;
 1/18=20,19=15/3(-8);
 2/9=110/2;
 6/7=2,8=2,9=2,10=2/1;
 99/9=10/99;
 -------------------
 Title Card Required
 -------------------
 Symbolic Z-matrix:
 Charge =  0 Multiplicity = 1
 Sb                    0.        0.        0.04986 
 H                     0.        1.39624  -0.84766 
 H                     1.20918  -0.69812  -0.84766 
 H                    -1.20918  -0.69812  -0.84766 
 

 GradGradGradGradGradGradGradGradGradGradGradGradGradGradGradGradGradGrad
 Berny optimization.
 Initialization pass.
                           ----------------------------
                           !    Initial Parameters    !
                           ! (Angstroms and Degrees)  !
 --------------------------                            --------------------------
 ! Name  Definition              Value          Derivative Info.                !
 --------------------------------------------------------------------------------
 ! R1    R(1,2)                  1.6598         estimate D2E/DX2                !
 ! R2    R(1,3)                  1.6598         estimate D2E/DX2                !
 ! R3    R(1,4)                  1.6598         estimate D2E/DX2                !
 ! A1    A(2,1,3)               93.5208         estimate D2E/DX2                !
 ! A2    A(2,1,4)               93.5208         estimate D2E/DX2                !
 ! A3    A(3,1,4)               93.5208         estimate D2E/DX2                !
 ! D1    D(2,1,4,3)             93.7514         estimate D2E/DX2                !
 --------------------------------------------------------------------------------
 Trust Radius=3.00D-01 FncErr=1.00D-07 GrdErr=1.00D-07 EigMax=2.50D+02 EigMin=1.00D-04
 Number of steps in this run=     20 maximum allowed number of steps=    100.
 GradGradGradGradGradGradGradGradGradGradGradGradGradGradGradGradGradGrad

                          Input orientation:                          
 ---------------------------------------------------------------------
 Center     Atomic      Atomic             Coordinates (Angstroms)
 Number     Number       Type             X           Y           Z
 ---------------------------------------------------------------------
      1         51           0        0.000000    0.000000    0.049862
      2          1           0        0.000000    1.396235   -0.847662
      3          1           0        1.209175   -0.698117   -0.847662
      4          1           0       -1.209175   -0.698117   -0.847662
 ---------------------------------------------------------------------
                    Distance matrix (angstroms):
                    1          2          3          4
     1  Sb   0.000000
     2  H    1.659826   0.000000
     3  H    1.659826   2.418350   0.000000
     4  H    1.659826   2.418350   2.418350   0.000000
 Stoichiometry    H3Sb
 Framework group  C3[C3(Sb),X(H3)]
 Deg. of freedom     2
 Full point group                 C3      NOp   3
 Largest Abelian subgroup         C1      NOp   1
 Largest concise Abelian subgroup C1      NOp   1
                         Standard orientation:                         
 ---------------------------------------------------------------------
 Center     Atomic      Atomic             Coordinates (Angstroms)
 Number     Number       Type             X           Y           Z
 ---------------------------------------------------------------------
      1         51           0        0.000000    0.000000    0.049862
      2          1           0        0.000000    1.396235   -0.847662
      3          1           0        1.209175   -0.698117   -0.847662
      4          1           0       -1.209175   -0.698117   -0.847662
 ---------------------------------------------------------------------
 Rotational constants (GHZ):          94.9384518          94.9384518          85.7420322
 Standard basis: 3-21G (6D, 7F)
 There are    39 symmetry adapted cartesian basis functions of A   symmetry.
 There are    39 symmetry adapted basis functions of A   symmetry.
    39 basis functions,    96 primitive gaussians,    39 cartesian basis functions
    27 alpha electrons       27 beta electrons
       nuclear repulsion energy        49.4351354983 Hartrees.
 NAtoms=    4 NActive=    4 NUniq=    2 SFac= 4.00D+00 NAtFMM=   60 NAOKFM=F Big=F
 Integral buffers will be    131072 words long.
 Raffenetti 1 integral format.
 Two-electron integral symmetry is turned on.
 One-electron integrals computed using PRISM.
 NBasis=    39 RedAO= T EigKep=  1.26D-03  NBF=    39
 NBsUse=    39 1.00D-06 EigRej= -1.00D+00 NBFU=    39
 ExpMin= 8.66D-02 ExpMax= 1.33D+04 ExpMxC= 1.33D+04 IAcc=3 IRadAn=         5 AccDes= 0.00D+00
 Harris functional with IExCor=  205 and IRadAn=       5 diagonalized for initial guess.
 HarFok:  IExCor=  205 AccDes= 0.00D+00 IRadAn=         5 IDoV= 1 UseB2=F ITyADJ=14
 ICtDFT=  3500011 ScaDFX=  1.000000  1.000000  1.000000  1.000000
 Defaulting to unpruned grid for atomic number  51.
 FoFCou: FMM=F IPFlag=           0 FMFlag=      100000 FMFlg1=           0
         NFxFlg=           0 DoJE=T BraDBF=F KetDBF=T FulRan=T
         wScrn=  0.000000 ICntrl=       500 IOpCl=  0 I1Cent=   200000004 NGrid=           0
         NMat0=    1 NMatS0=      1 NMatT0=    0 NMatD0=    1 NMtDS0=    0 NMtDT0=    0
 Petite list used in FoFCou.
 Initial guess orbital symmetries:
       Occupied  (A) (A) (E) (E) (A) (A) (E) (E) (A) (E) (E) (E)
                 (E) (A) (A) (E) (E) (A) (E) (E) (E) (E) (A) (A)
                 (E) (E) (A)
       Virtual   (E) (E) (A) (A) (E) (E) (A) (E) (E) (A) (A) (A)
 The electronic state of the initial guess is 1-A.
 Keep R1 ints in memory in canonical form, NReq=1134732.
 Requested convergence on RMS density matrix=1.00D-08 within 128 cycles.
 Requested convergence on MAX density matrix=1.00D-06.
 Requested convergence on             energy=1.00D-06.
 No special actions if energy rises.
 SCF Done:  E(RHF) =  -6287.80927931     A.U. after    9 cycles
            NFock=  9  Conv=0.29D-08     -V/T= 2.0027
 ExpMin= 8.66D-02 ExpMax= 1.33D+04 ExpMxC= 1.33D+04 IAcc=3 IRadAn=         5 AccDes= 0.00D+00
 HarFok:  IExCor=  205 AccDes= 0.00D+00 IRadAn=         5 IDoV=-2 UseB2=F ITyADJ=14
 ICtDFT= 12500011 ScaDFX=  1.000000  1.000000  1.000000  1.000000
 Defaulting to unpruned grid for atomic number  51.
 Range of M.O.s used for correlation:    19    39
 NBasis=    39 NAE=    27 NBE=    27 NFC=    18 NFV=     0
 NROrb=     21 NOA=     9 NOB=     9 NVA=    12 NVB=    12

 **** Warning!!: The largest alpha MO coefficient is  0.21315774D+02

 Fully direct method using O(ONN) memory.
 JobTyp=1 Pass  1:  I=  19 to  27 NPSUse=  1 ParTrn=F ParDer=F DoDerP=T.
 Spin components of T(2) and E(2):
     alpha-alpha T2 =       0.1115957787D-02 E2=     -0.2294977383D-02
     alpha-beta  T2 =       0.2891672345D-01 E2=     -0.5218824877D-01
     beta-beta   T2 =       0.1115957787D-02 E2=     -0.2294977383D-02
 ANorm=    0.1015454893D+01
 E2 =    -0.5677820354D-01 EUMP2 =    -0.62878660575137D+04
          IDoAtm=1111
          Differentiating once with respect to electric field.
                with respect to dipole field.
          Differentiating once with respect to nuclear coordinates.
 Keep R1 ints in memory in canonical form, NReq=1135556.
          There are     1 degrees of freedom in the 1st order CPHF.  IDoFFX=0 NUNeed=     1.
 LinEq1:  Iter=  0 NonCon=     1 RMS=2.92D-03 Max=2.21D-02 NDo=     1
 AX will form     1 AO Fock derivatives at one time.
 LinEq1:  Iter=  1 NonCon=     1 RMS=2.55D-04 Max=2.18D-03 NDo=     1
 LinEq1:  Iter=  2 NonCon=     1 RMS=2.91D-05 Max=2.45D-04 NDo=     1
 LinEq1:  Iter=  3 NonCon=     1 RMS=4.66D-06 Max=3.23D-05 NDo=     1
 LinEq1:  Iter=  4 NonCon=     1 RMS=5.34D-07 Max=5.21D-06 NDo=     1
 LinEq1:  Iter=  5 NonCon=     1 RMS=5.51D-08 Max=4.90D-07 NDo=     1
 LinEq1:  Iter=  6 NonCon=     1 RMS=2.38D-09 Max=1.68D-08 NDo=     1
 LinEq1:  Iter=  7 NonCon=     1 RMS=1.47D-10 Max=1.27D-09 NDo=     1
 LinEq1:  Iter=  8 NonCon=     0 RMS=8.03D-12 Max=5.24D-11 NDo=     1
 Linear equations converged to 1.000D-10 1.000D-09 after     8 iterations.
 End of Minotr F.D. properties file   721 does not exist.
 End of Minotr F.D. properties file   722 does not exist.
 End of Minotr F.D. properties file   788 does not exist.

 **********************************************************************

            Population analysis using the SCF Density.

 **********************************************************************

 Orbital symmetries:
       Occupied  (A) (A) (E) (E) (A) (A) (E) (E) (A) (E) (E) (E)
                 (E) (A) (A) (E) (E) (A) (E) (E) (E) (E) (A) (A)
                 (E) (E) (A)
       Virtual   (E) (E) (A) (A) (E) (E) (A) (E) (E) (A) (A) (A)
 The electronic state is 1-A.
 Alpha  occ. eigenvalues -- **********-163.95605-152.80221-152.80221-152.80183
 Alpha  occ. eigenvalues --  -33.54894 -28.78580 -28.78580 -28.78389 -20.69097
 Alpha  occ. eigenvalues --  -20.69097 -20.68923 -20.68923 -20.68847  -6.08764
 Alpha  occ. eigenvalues --   -4.39619  -4.39619  -4.38961  -1.72973  -1.72973
 Alpha  occ. eigenvalues --   -1.72248  -1.72248  -1.71809  -0.74920  -0.47524
 Alpha  occ. eigenvalues --   -0.47524  -0.34337
 Alpha virt. eigenvalues --    0.12513   0.12513   0.27352   0.39367   0.42362
 Alpha virt. eigenvalues --    0.42362   0.46563   1.29233   1.29233   1.31870
 Alpha virt. eigenvalues --    3.57358 218.35318
          Condensed to atoms (all electrons):
               1          2          3          4
     1  Sb  49.495167   0.313752   0.313752   0.313752
     2  H    0.313752   0.910762  -0.018328  -0.018328
     3  H    0.313752  -0.018328   0.910762  -0.018328
     4  H    0.313752  -0.018328  -0.018328   0.910762
 Mulliken charges:
               1
     1  Sb   0.563577
     2  H   -0.187859
     3  H   -0.187859
     4  H   -0.187859
 Sum of Mulliken charges =  -0.00000
 Mulliken charges with hydrogens summed into heavy atoms:
               1
     1  Sb  -0.000000
 Electronic spatial extent (au):  <R**2>=             98.2844
 Charge=             -0.0000 electrons
 Dipole moment (field-independent basis, Debye):
    X=             -0.0000    Y=             -0.0000    Z=             -0.2796  Tot=              0.2796
 Quadrupole moment (field-independent basis, Debye-Ang):
   XX=            -29.9658   YY=            -29.9658   ZZ=            -33.2105
   XY=              0.0000   XZ=              0.0000   YZ=              0.0000
 Traceless Quadrupole moment (field-independent basis, Debye-Ang):
   XX=              1.0816   YY=              1.0816   ZZ=             -2.1631
   XY=              0.0000   XZ=              0.0000   YZ=              0.0000
 Octapole moment (field-independent basis, Debye-Ang**2):
  XXX=             -0.0000  YYY=             -2.1036  ZZZ=              2.0020  XYY=             -0.0000
  XXY=              2.1036  XXZ=              2.7867  XZZ=             -0.0000  YZZ=             -0.0000
  YYZ=              2.7867  XYZ=             -0.0000
 Hexadecapole moment (field-independent basis, Debye-Ang**3):
 XXXX=            -59.0455 YYYY=            -59.0455 ZZZZ=            -66.8933 XXXY=              0.0000
 XXXZ=              0.0000 YYYX=              0.0000 YYYZ=              1.2538 ZZZX=              0.0000
 ZZZY=              0.0000 XXYY=            -19.6818 XXZZ=            -21.7948 YYZZ=            -21.7948
 XXYZ=             -1.2538 YYXZ=              0.0000 ZZXY=              0.0000
 N-N= 4.943513549829D+01 E-N=-1.503570341139D+04  KE= 6.271029065600D+03
 Calling FoFJK, ICntrl=  10002127 FMM=F ISym2X=1 I1Cent= 0 IOpClX= 0 NMat=1 NMatS=1 NMatT=0.
 ***** Axes restored to original set *****
 -------------------------------------------------------------------
 Center     Atomic                   Forces (Hartrees/Bohr)
 Number     Number              X              Y              Z
 -------------------------------------------------------------------
      1       51          -0.000000000   -0.000000000    0.039757144
      2        1          -0.000000000    0.022441674   -0.013252381
      3        1           0.019435059   -0.011220837   -0.013252381
      4        1          -0.019435059   -0.011220837   -0.013252381
 -------------------------------------------------------------------
 Cartesian Forces:  Max     0.039757144 RMS     0.017364700

 GradGradGradGradGradGradGradGradGradGradGradGradGradGradGradGradGradGrad
 Berny optimization.
 FormGI is forming the generalized inverse of G from B-inverse, IUseBI=4.
 Internal  Forces:  Max     0.026043806 RMS     0.017100327
 Search for a local minimum.
 Step number   1 out of a maximum of   20
 All quantities printed in internal units (Hartrees-Bohrs-Radians)
 Mixed Optimization -- RFO/linear search
 Second derivative matrix not updated -- first step.
 The second derivative matrix:
                          R1        R2        R3        A1        A2
           R1           0.14194
           R2           0.00000   0.14194
           R3           0.00000   0.00000   0.14194
           A1           0.00000   0.00000   0.00000   0.16000
           A2           0.00000   0.00000   0.00000   0.00000   0.16000
           A3           0.00000   0.00000   0.00000   0.00000   0.00000
           D1           0.00000   0.00000   0.00000   0.00000   0.00000
                          A3        D1
           A3           0.16000
           D1           0.00000   0.00230
 ITU=  0
     Eigenvalues ---    0.08050   0.14194   0.14194   0.14194   0.16000
     Eigenvalues ---    0.16000
 RFO step:  Lambda=-1.32017905D-02 EMin= 8.04958091D-02
 Linear search not attempted -- first point.
 Iteration  1 RMS(Cart)=  0.10493024 RMS(Int)=  0.00050130
 Iteration  2 RMS(Cart)=  0.00069106 RMS(Int)=  0.00005469
 Iteration  3 RMS(Cart)=  0.00000027 RMS(Int)=  0.00005469
 ClnCor:  largest displacement from symmetrization is 2.24D-03 for atom     3.
 Variable       Old X    -DE/DX   Delta X   Delta X   Delta X     New X
                                 (Linear)    (Quad)   (Total)
    R1        3.13662   0.02604   0.00000   0.16787   0.16759   3.30421
    R2        3.13662   0.02604   0.00000   0.16787   0.16759   3.30421
    R3        3.13662   0.02604   0.00000   0.16787   0.16759   3.30421
    A1        1.63225   0.00098   0.00000   0.01185   0.01243   1.64468
    A2        1.63225   0.00218   0.00000   0.01300   0.01243   1.64468
    A3        1.63225   0.00218   0.00000   0.01300   0.01243   1.64468
    D1        1.63627   0.00128   0.00000   0.01361   0.01431   1.65058
         Item               Value     Threshold  Converged?
 Maximum Force            0.026044     0.000450     NO 
 RMS     Force            0.017100     0.000300     NO 
 Maximum Displacement     0.157169     0.001800     NO 
 RMS     Displacement     0.105082     0.001200     NO 
 Predicted change in Energy=-7.161589D-03
 GradGradGradGradGradGradGradGradGradGradGradGradGradGradGradGradGradGrad

                          Input orientation:                          
 ---------------------------------------------------------------------
 Center     Atomic      Atomic             Coordinates (Angstroms)
 Number     Number       Type             X           Y           Z
 ---------------------------------------------------------------------
      1         51           0        0.000000    0.000000    0.075672
      2          1           0        0.000593    1.479405   -0.856341
      3          1           0        1.280906   -0.740216   -0.856341
      4          1           0       -1.281499   -0.739189   -0.856341
 ---------------------------------------------------------------------
                    Distance matrix (angstroms):
                    1          2          3          4
     1  Sb   0.000000
     2  H    1.748510   0.000000
     3  H    1.748510   2.562406   0.000000
     4  H    1.748510   2.562406   2.562406   0.000000
 Stoichiometry    H3Sb
 Framework group  C3V[C3(Sb),3SGV(H)]
 Deg. of freedom     2
 Full point group                 C3V     NOp   6
 Omega: Change in point group or standard orientation.

 Old FWG=C03  [C3(Sb1),X(H3)]
 New FWG=C03V [C3(Sb1),3SGV(H1)]
 Largest Abelian subgroup         CS      NOp   2
 Largest concise Abelian subgroup CS      NOp   2
                         Standard orientation:                         
 ---------------------------------------------------------------------
 Center     Atomic      Atomic             Coordinates (Angstroms)
 Number     Number       Type             X           Y           Z
 ---------------------------------------------------------------------
      1         51           0        0.000000    0.000000    0.051778
      2          1           0       -0.000000    1.479406   -0.880234
      3          1           0        1.281203   -0.739703   -0.880234
      4          1           0       -1.281203   -0.739703   -0.880234
 ---------------------------------------------------------------------
 Rotational constants (GHZ):          86.0819070          86.0819070          76.3723796
 Standard basis: 3-21G (6D, 7F)
 There are    28 symmetry adapted cartesian basis functions of A'  symmetry.
 There are    11 symmetry adapted cartesian basis functions of A"  symmetry.
 There are    28 symmetry adapted basis functions of A'  symmetry.
 There are    11 symmetry adapted basis functions of A"  symmetry.
    39 basis functions,    96 primitive gaussians,    39 cartesian basis functions
    27 alpha electrons       27 beta electrons
       nuclear repulsion energy        46.9241742616 Hartrees.
 NAtoms=    4 NActive=    4 NUniq=    2 SFac= 4.00D+00 NAtFMM=   60 NAOKFM=F Big=F
 Integral buffers will be    131072 words long.
 Raffenetti 1 integral format.
 Two-electron integral symmetry is turned on.
 One-electron integrals computed using PRISM.
 NBasis=    39 RedAO= T EigKep=  1.26D-03  NBF=    28    11
 NBsUse=    39 1.00D-06 EigRej= -1.00D+00 NBFU=    28    11
 Initial guess from the checkpoint file:  "SbH3_MP2_3-21G.chk"
 B after Tr=     0.000000   -0.000000    0.000000
         Rot=    1.000000   -0.000000    0.000000   -0.000000 Ang=   0.00 deg.
 Initial guess orbital symmetries:
       Occupied  (A1) (A1) (E) (E) (A1) (A1) (E) (E) (A1) (E) (E)
                 (E) (E) (A1) (A1) (E) (E) (A1) (E) (E) (E) (E)
                 (A1) (A1) (E) (E) (A1)
       Virtual   (E) (E) (A1) (A1) (E) (E) (A1) (E) (E) (A1) (A1)
                 (A1)
 ExpMin= 8.66D-02 ExpMax= 1.33D+04 ExpMxC= 1.33D+04 IAcc=3 IRadAn=         5 AccDes= 0.00D+00
 Harris functional with IExCor=  205 and IRadAn=       5 diagonalized for initial guess.
 HarFok:  IExCor=  205 AccDes= 0.00D+00 IRadAn=         5 IDoV= 1 UseB2=F ITyADJ=14
 ICtDFT=  3500011 ScaDFX=  1.000000  1.000000  1.000000  1.000000
 Defaulting to unpruned grid for atomic number  51.
 FoFCou: FMM=F IPFlag=           0 FMFlag=      100000 FMFlg1=           0
         NFxFlg=           0 DoJE=T BraDBF=F KetDBF=T FulRan=T
         wScrn=  0.000000 ICntrl=       500 IOpCl=  0 I1Cent=   200000004 NGrid=           0
         NMat0=    1 NMatS0=      1 NMatT0=    0 NMatD0=    1 NMtDS0=    0 NMtDT0=    0
 Petite list used in FoFCou.
 Keep R1 ints in memory in symmetry-blocked form, NReq=1136808.
 Requested convergence on RMS density matrix=1.00D-08 within 128 cycles.
 Requested convergence on MAX density matrix=1.00D-06.
 Requested convergence on             energy=1.00D-06.
 No special actions if energy rises.
 An orbital has undefined symmetry, so N**3 symmetry is turned off.
 SCF Done:  E(RHF) =  -6287.81281093     A.U. after    9 cycles
            NFock=  9  Conv=0.69D-08     -V/T= 2.0027
 ExpMin= 8.66D-02 ExpMax= 1.33D+04 ExpMxC= 1.33D+04 IAcc=3 IRadAn=         5 AccDes= 0.00D+00
 HarFok:  IExCor=  205 AccDes= 0.00D+00 IRadAn=         5 IDoV=-2 UseB2=F ITyADJ=14
 ICtDFT= 12500011 ScaDFX=  1.000000  1.000000  1.000000  1.000000
 Defaulting to unpruned grid for atomic number  51.
 Range of M.O.s used for correlation:    19    39
 NBasis=    39 NAE=    27 NBE=    27 NFC=    18 NFV=     0
 NROrb=     21 NOA=     9 NOB=     9 NVA=    12 NVB=    12

 **** Warning!!: The largest alpha MO coefficient is  0.21315690D+02

 Fully direct method using O(ONN) memory.
 JobTyp=1 Pass  1:  I=  19 to  27 NPSUse=  1 ParTrn=F ParDer=F DoDerP=T.
 Spin components of T(2) and E(2):
     alpha-alpha T2 =       0.1161558443D-02 E2=     -0.2303736543D-02
     alpha-beta  T2 =       0.3182847441D-01 E2=     -0.5422315722D-01
     beta-beta   T2 =       0.1161558443D-02 E2=     -0.2303736543D-02
 ANorm=    0.1016932442D+01
 E2 =    -0.5883063031D-01 EUMP2 =    -0.62878716415627D+04
          IDoAtm=1111
          Differentiating once with respect to electric field.
                with respect to dipole field.
          Differentiating once with respect to nuclear coordinates.
 Keep R1 ints in memory in symmetry-blocked form, NReq=1137554.
          There are     1 degrees of freedom in the 1st order CPHF.  IDoFFX=0 NUNeed=     1.
 LinEq1:  Iter=  0 NonCon=     1 RMS=3.20D-03 Max=2.52D-02 NDo=     1
 AX will form     1 AO Fock derivatives at one time.
 LinEq1:  Iter=  1 NonCon=     1 RMS=3.18D-04 Max=2.90D-03 NDo=     1
 LinEq1:  Iter=  2 NonCon=     1 RMS=4.34D-05 Max=3.64D-04 NDo=     1
 LinEq1:  Iter=  3 NonCon=     1 RMS=8.27D-06 Max=8.03D-05 NDo=     1
 LinEq1:  Iter=  4 NonCon=     1 RMS=7.65D-07 Max=6.40D-06 NDo=     1
 LinEq1:  Iter=  5 NonCon=     1 RMS=7.24D-08 Max=5.97D-07 NDo=     1
 LinEq1:  Iter=  6 NonCon=     1 RMS=2.78D-09 Max=1.47D-08 NDo=     1
 LinEq1:  Iter=  7 NonCon=     1 RMS=1.62D-10 Max=8.24D-10 NDo=     1
 LinEq1:  Iter=  8 NonCon=     0 RMS=9.70D-12 Max=6.67D-11 NDo=     1
 Linear equations converged to 1.000D-10 1.000D-09 after     8 iterations.
 End of Minotr F.D. properties file   721 does not exist.
 End of Minotr F.D. properties file   722 does not exist.
 End of Minotr F.D. properties file   788 does not exist.
 Calling FoFJK, ICntrl=  10002127 FMM=F ISym2X=1 I1Cent= 0 IOpClX= 0 NMat=1 NMatS=1 NMatT=0.
 ***** Axes restored to original set *****
 -------------------------------------------------------------------
 Center     Atomic                   Forces (Hartrees/Bohr)
 Number     Number              X              Y              Z
 -------------------------------------------------------------------
      1       51          -0.000000000   -0.000000000   -0.000681492
      2        1          -0.000000929   -0.002319481    0.000227164
      3        1          -0.002008265    0.001160545    0.000227164
      4        1           0.002009194    0.001158936    0.000227164
 -------------------------------------------------------------------
 Cartesian Forces:  Max     0.002319481 RMS     0.001181779

 GradGradGradGradGradGradGradGradGradGradGradGradGradGradGradGradGradGrad
 Berny optimization.
 Using GEDIIS/GDIIS optimizer.
 FormGI is forming the generalized inverse of G from B-inverse, IUseBI=4.
 Internal  Forces:  Max     0.002425600 RMS     0.002002877
 Search for a local minimum.
 Step number   2 out of a maximum of   20
 All quantities printed in internal units (Hartrees-Bohrs-Radians)
 Mixed Optimization -- RFO/linear search
 Update second derivatives using D2CorX and points    1    2
 DE= -5.58D-03 DEPred=-7.16D-03 R= 7.80D-01
 TightC=F SS=  1.41D+00  RLast= 2.91D-01 DXNew= 5.0454D-01 8.7427D-01
 Trust test= 7.80D-01 RLast= 2.91D-01 DXMaxT set to 5.05D-01
 The second derivative matrix:
                          R1        R2        R3        A1        A2
           R1           0.15016
           R2           0.00823   0.15016
           R3           0.00823   0.00823   0.15016
           A1           0.00010   0.00010   0.00010   0.15997
           A2           0.00512   0.00512   0.00512   0.00033   0.16115
           A3           0.00512   0.00512   0.00512   0.00033   0.00115
           D1           0.00532   0.00532   0.00532   0.00039   0.00088
                          A3        D1
           A3           0.16115
           D1           0.00088   0.00282
 ITU=  1  0
 Use linear search instead of GDIIS.
     Eigenvalues ---    0.08034   0.14194   0.14194   0.15197   0.16000
     Eigenvalues ---    0.17750
 RFO step:  Lambda=-8.50752676D-05 EMin= 8.03429965D-02
 Quartic linear search produced a step of -0.09501.
 Iteration  1 RMS(Cart)=  0.02103821 RMS(Int)=  0.00014980
 Iteration  2 RMS(Cart)=  0.00011734 RMS(Int)=  0.00006315
 Iteration  3 RMS(Cart)=  0.00000002 RMS(Int)=  0.00006315
 ClnCor:  largest displacement from symmetrization is 1.31D-04 for atom     4.
 Variable       Old X    -DE/DX   Delta X   Delta X   Delta X     New X
                                 (Linear)    (Quad)   (Total)
    R1        3.30421  -0.00208  -0.01592   0.00225  -0.01370   3.29050
    R2        3.30421  -0.00208  -0.01592   0.00225  -0.01370   3.29050
    R3        3.30421  -0.00208  -0.01592   0.00225  -0.01370   3.29050
    A1        1.64468  -0.00107  -0.00118  -0.01315  -0.01438   1.63030
    A2        1.64468  -0.00243  -0.00118  -0.01314  -0.01438   1.63030
    A3        1.64468  -0.00243  -0.00118  -0.01314  -0.01438   1.63030
    D1        1.65058  -0.00146  -0.00136  -0.01533  -0.01651   1.63407
         Item               Value     Threshold  Converged?
 Maximum Force            0.002426     0.000450     NO 
 RMS     Force            0.002003     0.000300     NO 
 Maximum Displacement     0.030254     0.001800     NO 
 RMS     Displacement     0.021072     0.001200     NO 
 Predicted change in Energy=-8.720751D-05
 GradGradGradGradGradGradGradGradGradGradGradGradGradGradGradGradGradGrad

                          Input orientation:                          
 ---------------------------------------------------------------------
 Center     Atomic      Atomic             Coordinates (Angstroms)
 Number     Number       Type             X           Y           Z
 ---------------------------------------------------------------------
      1         51           0       -0.000000    0.000000    0.084388
      2          1           0        0.000586    1.463396   -0.859254
      3          1           0        1.267045   -0.732205   -0.859254
      4          1           0       -1.267631   -0.731190   -0.859254
 ---------------------------------------------------------------------
                    Distance matrix (angstroms):
                    1          2          3          4
     1  Sb   0.000000
     2  H    1.741260   0.000000
     3  H    1.741260   2.534676   0.000000
     4  H    1.741260   2.534676   2.534676   0.000000
 Stoichiometry    H3Sb
 Framework group  C3V[C3(Sb),3SGV(H)]
 Deg. of freedom     2
 Full point group                 C3V     NOp   6
 Largest Abelian subgroup         CS      NOp   2
 Largest concise Abelian subgroup CS      NOp   2
                         Standard orientation:                         
 ---------------------------------------------------------------------
 Center     Atomic      Atomic             Coordinates (Angstroms)
 Number     Number       Type             X           Y           Z
 ---------------------------------------------------------------------
      1         51           0        0.000000    0.000000    0.052425
      2          1           0       -0.000000    1.463396   -0.891217
      3          1           0        1.267338   -0.731698   -0.891217
      4          1           0       -1.267338   -0.731698   -0.891217
 ---------------------------------------------------------------------
 Rotational constants (GHZ):          86.1829971          86.1829971          78.0525695
 Standard basis: 3-21G (6D, 7F)
 There are    28 symmetry adapted cartesian basis functions of A'  symmetry.
 There are    11 symmetry adapted cartesian basis functions of A"  symmetry.
 There are    28 symmetry adapted basis functions of A'  symmetry.
 There are    11 symmetry adapted basis functions of A"  symmetry.
    39 basis functions,    96 primitive gaussians,    39 cartesian basis functions
    27 alpha electrons       27 beta electrons
       nuclear repulsion energy        47.1237595624 Hartrees.
 NAtoms=    4 NActive=    4 NUniq=    2 SFac= 4.00D+00 NAtFMM=   60 NAOKFM=F Big=F
 Integral buffers will be    131072 words long.
 Raffenetti 1 integral format.
 Two-electron integral symmetry is turned on.
 One-electron integrals computed using PRISM.
 NBasis=    39 RedAO= T EigKep=  1.26D-03  NBF=    28    11
 NBsUse=    39 1.00D-06 EigRej= -1.00D+00 NBFU=    28    11
 Initial guess from the checkpoint file:  "SbH3_MP2_3-21G.chk"
 B after Tr=    -0.000000   -0.000000   -0.000000
         Rot=    1.000000    0.000000    0.000000    0.000000 Ang=   0.00 deg.
 Initial guess orbital symmetries:
       Occupied  (A1) (A1) (E) (E) (A1) (A1) (E) (E) (A1) (E) (E)
                 (E) (E) (A1) (A1) (E) (E) (A1) (E) (E) (E) (E)
                 (A1) (A1) (E) (E) (A1)
       Virtual   (E) (E) (A1) (A1) (E) (E) (A1) (E) (E) (A1) (A1)
                 (A1)
 ExpMin= 8.66D-02 ExpMax= 1.33D+04 ExpMxC= 1.33D+04 IAcc=3 IRadAn=         5 AccDes= 0.00D+00
 Harris functional with IExCor=  205 and IRadAn=       5 diagonalized for initial guess.
 HarFok:  IExCor=  205 AccDes= 0.00D+00 IRadAn=         5 IDoV= 1 UseB2=F ITyADJ=14
 ICtDFT=  3500011 ScaDFX=  1.000000  1.000000  1.000000  1.000000
 Defaulting to unpruned grid for atomic number  51.
 FoFCou: FMM=F IPFlag=           0 FMFlag=      100000 FMFlg1=           0
         NFxFlg=           0 DoJE=T BraDBF=F KetDBF=T FulRan=T
         wScrn=  0.000000 ICntrl=       500 IOpCl=  0 I1Cent=   200000004 NGrid=           0
         NMat0=    1 NMatS0=      1 NMatT0=    0 NMatD0=    1 NMtDS0=    0 NMtDT0=    0
 Petite list used in FoFCou.
 Keep R1 ints in memory in symmetry-blocked form, NReq=1136808.
 Requested convergence on RMS density matrix=1.00D-08 within 128 cycles.
 Requested convergence on MAX density matrix=1.00D-06.
 Requested convergence on             energy=1.00D-06.
 No special actions if energy rises.
 SCF Done:  E(RHF) =  -6287.81306408     A.U. after    7 cycles
            NFock=  7  Conv=0.80D-08     -V/T= 2.0027
 ExpMin= 8.66D-02 ExpMax= 1.33D+04 ExpMxC= 1.33D+04 IAcc=3 IRadAn=         5 AccDes= 0.00D+00
 HarFok:  IExCor=  205 AccDes= 0.00D+00 IRadAn=         5 IDoV=-2 UseB2=F ITyADJ=14
 ICtDFT= 12500011 ScaDFX=  1.000000  1.000000  1.000000  1.000000
 Defaulting to unpruned grid for atomic number  51.
 Range of M.O.s used for correlation:    19    39
 NBasis=    39 NAE=    27 NBE=    27 NFC=    18 NFV=     0
 NROrb=     21 NOA=     9 NOB=     9 NVA=    12 NVB=    12

 **** Warning!!: The largest alpha MO coefficient is  0.21315688D+02

 Fully direct method using O(ONN) memory.
 JobTyp=1 Pass  1:  I=  19 to  27 NPSUse=  1 ParTrn=F ParDer=F DoDerP=T.
 Spin components of T(2) and E(2):
     alpha-alpha T2 =       0.1147080316D-02 E2=     -0.2289022595D-02
     alpha-beta  T2 =       0.3164146503D-01 E2=     -0.5409988875D-01
     beta-beta   T2 =       0.1147080316D-02 E2=     -0.2289022595D-02
 ANorm=    0.1016826251D+01
 E2 =    -0.5867793394D-01 EUMP2 =    -0.62878717420161D+04
          IDoAtm=1111
          Differentiating once with respect to electric field.
                with respect to dipole field.
          Differentiating once with respect to nuclear coordinates.
 Keep R1 ints in memory in symmetry-blocked form, NReq=1137554.
          There are     1 degrees of freedom in the 1st order CPHF.  IDoFFX=0 NUNeed=     1.
 LinEq1:  Iter=  0 NonCon=     1 RMS=3.19D-03 Max=2.46D-02 NDo=     1
 AX will form     1 AO Fock derivatives at one time.
 LinEq1:  Iter=  1 NonCon=     1 RMS=3.13D-04 Max=2.94D-03 NDo=     1
 LinEq1:  Iter=  2 NonCon=     1 RMS=4.26D-05 Max=3.59D-04 NDo=     1
 LinEq1:  Iter=  3 NonCon=     1 RMS=7.99D-06 Max=7.69D-05 NDo=     1
 LinEq1:  Iter=  4 NonCon=     1 RMS=7.40D-07 Max=6.26D-06 NDo=     1
 LinEq1:  Iter=  5 NonCon=     1 RMS=7.01D-08 Max=5.66D-07 NDo=     1
 LinEq1:  Iter=  6 NonCon=     1 RMS=2.74D-09 Max=1.45D-08 NDo=     1
 LinEq1:  Iter=  7 NonCon=     1 RMS=1.50D-10 Max=8.40D-10 NDo=     1
 LinEq1:  Iter=  8 NonCon=     0 RMS=7.84D-12 Max=5.19D-11 NDo=     1
 Linear equations converged to 1.000D-10 1.000D-09 after     8 iterations.
 End of Minotr F.D. properties file   721 does not exist.
 End of Minotr F.D. properties file   722 does not exist.
 End of Minotr F.D. properties file   788 does not exist.
 Calling FoFJK, ICntrl=  10002127 FMM=F ISym2X=1 I1Cent= 0 IOpClX= 0 NMat=1 NMatS=1 NMatT=0.
 ***** Axes restored to original set *****
 -------------------------------------------------------------------
 Center     Atomic                   Forces (Hartrees/Bohr)
 Number     Number              X              Y              Z
 -------------------------------------------------------------------
      1       51          -0.000000000   -0.000000000    0.000279526
      2        1           0.000000003    0.000006812   -0.000093175
      3        1           0.000005898   -0.000003408   -0.000093175
      4        1          -0.000005901   -0.000003404   -0.000093175
 -------------------------------------------------------------------
 Cartesian Forces:  Max     0.000279526 RMS     0.000093238

 GradGradGradGradGradGradGradGradGradGradGradGradGradGradGradGradGradGrad
 Berny optimization.
 Using GEDIIS/GDIIS optimizer.
 FormGI is forming the generalized inverse of G from B-inverse, IUseBI=4.
 Internal  Forces:  Max     0.000172987 RMS     0.000110581
 Search for a local minimum.
 Step number   3 out of a maximum of   20
 All quantities printed in internal units (Hartrees-Bohrs-Radians)
 Mixed Optimization -- En-DIIS/RFO-DIIS
 Update second derivatives using D2CorX and points    1    2    3
 DE= -1.00D-04 DEPred=-8.72D-05 R= 1.15D+00
 TightC=F SS=  1.41D+00  RLast= 3.82D-02 DXNew= 8.4853D-01 1.1448D-01
 Trust test= 1.15D+00 RLast= 3.82D-02 DXMaxT set to 5.05D-01
 The second derivative matrix:
                          R1        R2        R3        A1        A2
           R1           0.14485
           R2           0.00291   0.14485
           R3           0.00291   0.00291   0.14485
           A1          -0.01465  -0.01465  -0.01465   0.13781
           A2           0.00069   0.00069   0.00069  -0.01668   0.15727
           A3           0.00069   0.00069   0.00069  -0.01668  -0.00273
           D1           0.01613   0.01613   0.01613   0.00554   0.01465
                          A3        D1
           A3           0.15727
           D1           0.01465   0.01213
 ITU=  1  1  0
 Use linear search instead of GDIIS.
     Eigenvalues ---    0.07975   0.14194   0.14194   0.14912   0.16000
     Eigenvalues ---    0.16022
 RFO step:  Lambda=-5.29951514D-07 EMin= 7.97525689D-02
 Quartic linear search produced a step of  0.02854.
 Iteration  1 RMS(Cart)=  0.00111708 RMS(Int)=  0.00000248
 Iteration  2 RMS(Cart)=  0.00000088 RMS(Int)=  0.00000235
 ClnCor:  largest displacement from symmetrization is 1.52D-05 for atom     4.
 Variable       Old X    -DE/DX   Delta X   Delta X   Delta X     New X
                                 (Linear)    (Quad)   (Total)
    R1        3.29050   0.00006  -0.00039   0.00081   0.00042   3.29092
    R2        3.29050   0.00006  -0.00039   0.00081   0.00042   3.29092
    R3        3.29050   0.00006  -0.00039   0.00081   0.00042   3.29092
    A1        1.63030  -0.00008  -0.00041  -0.00072  -0.00114   1.62916
    A2        1.63030  -0.00017  -0.00041  -0.00074  -0.00114   1.62916
    A3        1.63030  -0.00017  -0.00041  -0.00074  -0.00114   1.62916
    D1        1.63407  -0.00010  -0.00047  -0.00082  -0.00129   1.63278
         Item               Value     Threshold  Converged?
 Maximum Force            0.000173     0.000450     YES
 RMS     Force            0.000111     0.000300     YES
 Maximum Displacement     0.001901     0.001800     NO 
 RMS     Displacement     0.001115     0.001200     YES
 Predicted change in Energy=-3.431654D-07
 GradGradGradGradGradGradGradGradGradGradGradGradGradGradGradGradGradGrad

                          Input orientation:                          
 ---------------------------------------------------------------------
 Center     Atomic      Atomic             Coordinates (Angstroms)
 Number     Number       Type             X           Y           Z
 ---------------------------------------------------------------------
      1         51           0       -0.000000    0.000000    0.085394
      2          1           0        0.000586    1.462793   -0.859588
      3          1           0        1.266523   -0.731904   -0.859588
      4          1           0       -1.267109   -0.730889   -0.859588
 ---------------------------------------------------------------------
                    Distance matrix (angstroms):
                    1          2          3          4
     1  Sb   0.000000
     2  H    1.741481   0.000000
     3  H    1.741481   2.533632   0.000000
     4  H    1.741481   2.533632   2.533632   0.000000
 Stoichiometry    H3Sb
 Framework group  C3V[C3(Sb),3SGV(H)]
 Deg. of freedom     2
 Full point group                 C3V     NOp   6
 Largest Abelian subgroup         CS      NOp   2
 Largest concise Abelian subgroup CS      NOp   2
                         Standard orientation:                         
 ---------------------------------------------------------------------
 Center     Atomic      Atomic             Coordinates (Angstroms)
 Number     Number       Type             X           Y           Z
 ---------------------------------------------------------------------
      1         51           0        0.000000    0.000000    0.052499
      2          1           0       -0.000000    1.462793   -0.892483
      3          1           0        1.266816   -0.731397   -0.892483
      4          1           0       -1.266816   -0.731397   -0.892483
 ---------------------------------------------------------------------
 Rotational constants (GHZ):          86.1124492          86.1124492          78.1168720
 Standard basis: 3-21G (6D, 7F)
 There are    28 symmetry adapted cartesian basis functions of A'  symmetry.
 There are    11 symmetry adapted cartesian basis functions of A"  symmetry.
 There are    28 symmetry adapted basis functions of A'  symmetry.
 There are    11 symmetry adapted basis functions of A"  symmetry.
    39 basis functions,    96 primitive gaussians,    39 cartesian basis functions
    27 alpha electrons       27 beta electrons
       nuclear repulsion energy        47.1181197155 Hartrees.
 NAtoms=    4 NActive=    4 NUniq=    2 SFac= 4.00D+00 NAtFMM=   60 NAOKFM=F Big=F
 Integral buffers will be    131072 words long.
 Raffenetti 1 integral format.
 Two-electron integral symmetry is turned on.
 One-electron integrals computed using PRISM.
 NBasis=    39 RedAO= T EigKep=  1.26D-03  NBF=    28    11
 NBsUse=    39 1.00D-06 EigRej= -1.00D+00 NBFU=    28    11
 Initial guess from the checkpoint file:  "SbH3_MP2_3-21G.chk"
 B after Tr=     0.000000    0.000000    0.000000
         Rot=    1.000000    0.000000    0.000000   -0.000000 Ang=   0.00 deg.
 Initial guess orbital symmetries:
       Occupied  (A1) (A1) (E) (E) (A1) (A1) (E) (E) (A1) (E) (E)
                 (E) (E) (A1) (A1) (E) (E) (A1) (E) (E) (E) (E)
                 (A1) (A1) (E) (E) (A1)
       Virtual   (E) (E) (A1) (A1) (E) (E) (A1) (E) (E) (A1) (A1)
                 (A1)
 Keep R1 ints in memory in symmetry-blocked form, NReq=1136808.
 Requested convergence on RMS density matrix=1.00D-08 within 128 cycles.
 Requested convergence on MAX density matrix=1.00D-06.
 Requested convergence on             energy=1.00D-06.
 No special actions if energy rises.
 SCF Done:  E(RHF) =  -6287.81305595     A.U. after    6 cycles
            NFock=  6  Conv=0.70D-08     -V/T= 2.0027
 ExpMin= 8.66D-02 ExpMax= 1.33D+04 ExpMxC= 1.33D+04 IAcc=3 IRadAn=         5 AccDes= 0.00D+00
 HarFok:  IExCor=  205 AccDes= 0.00D+00 IRadAn=         5 IDoV=-2 UseB2=F ITyADJ=14
 ICtDFT= 12500011 ScaDFX=  1.000000  1.000000  1.000000  1.000000
 Defaulting to unpruned grid for atomic number  51.
 Range of M.O.s used for correlation:    19    39
 NBasis=    39 NAE=    27 NBE=    27 NFC=    18 NFV=     0
 NROrb=     21 NOA=     9 NOB=     9 NVA=    12 NVB=    12

 **** Warning!!: The largest alpha MO coefficient is  0.21315688D+02

 Fully direct method using O(ONN) memory.
 JobTyp=1 Pass  1:  I=  19 to  27 NPSUse=  1 ParTrn=F ParDer=F DoDerP=T.
 Spin components of T(2) and E(2):
     alpha-alpha T2 =       0.1146299648D-02 E2=     -0.2287911968D-02
     alpha-beta  T2 =       0.3165600522D-01 E2=     -0.5411062548D-01
     beta-beta   T2 =       0.1146299648D-02 E2=     -0.2287911968D-02
 ANorm=    0.1016832633D+01
 E2 =    -0.5868644942D-01 EUMP2 =    -0.62878717423982D+04
          IDoAtm=1111
          Differentiating once with respect to electric field.
                with respect to dipole field.
          Differentiating once with respect to nuclear coordinates.
 Keep R1 ints in memory in symmetry-blocked form, NReq=1137554.
          There are     1 degrees of freedom in the 1st order CPHF.  IDoFFX=0 NUNeed=     1.
 LinEq1:  Iter=  0 NonCon=     1 RMS=3.19D-03 Max=2.46D-02 NDo=     1
 AX will form     1 AO Fock derivatives at one time.
 LinEq1:  Iter=  1 NonCon=     1 RMS=3.14D-04 Max=2.95D-03 NDo=     1
 LinEq1:  Iter=  2 NonCon=     1 RMS=4.27D-05 Max=3.60D-04 NDo=     1
 LinEq1:  Iter=  3 NonCon=     1 RMS=8.01D-06 Max=7.71D-05 NDo=     1
 LinEq1:  Iter=  4 NonCon=     1 RMS=7.41D-07 Max=6.25D-06 NDo=     1
 LinEq1:  Iter=  5 NonCon=     1 RMS=7.01D-08 Max=5.64D-07 NDo=     1
 LinEq1:  Iter=  6 NonCon=     1 RMS=2.74D-09 Max=1.45D-08 NDo=     1
 LinEq1:  Iter=  7 NonCon=     1 RMS=1.49D-10 Max=8.36D-10 NDo=     1
 LinEq1:  Iter=  8 NonCon=     0 RMS=7.72D-12 Max=5.03D-11 NDo=     1
 Linear equations converged to 1.000D-10 1.000D-09 after     8 iterations.
 End of Minotr F.D. properties file   721 does not exist.
 End of Minotr F.D. properties file   722 does not exist.
 End of Minotr F.D. properties file   788 does not exist.
 Calling FoFJK, ICntrl=  10002127 FMM=F ISym2X=1 I1Cent= 0 IOpClX= 0 NMat=1 NMatS=1 NMatT=0.
 ***** Axes restored to original set *****
 -------------------------------------------------------------------
 Center     Atomic                   Forces (Hartrees/Bohr)
 Number     Number              X              Y              Z
 -------------------------------------------------------------------
      1       51          -0.000000000    0.000000000    0.000042908
      2        1           0.000000003    0.000008640   -0.000014303
      3        1           0.000007481   -0.000004323   -0.000014303
      4        1          -0.000007485   -0.000004317   -0.000014303
 -------------------------------------------------------------------
 Cartesian Forces:  Max     0.000042908 RMS     0.000014941

 GradGradGradGradGradGradGradGradGradGradGradGradGradGradGradGradGradGrad
 Berny optimization.
 Using GEDIIS/GDIIS optimizer.
 FormGI is forming the generalized inverse of G from B-inverse, IUseBI=4.
 Internal  Forces:  Max     0.000016988 RMS     0.000014194
 Search for a local minimum.
 Step number   4 out of a maximum of   20
 All quantities printed in internal units (Hartrees-Bohrs-Radians)
 Mixed Optimization -- En-DIIS/RFO-DIIS
 Swapping is turned off.
 Update second derivatives using D2CorX and points    1    2    3    4
 DE= -3.82D-07 DEPred=-3.43D-07 R= 1.11D+00
 Trust test= 1.11D+00 RLast= 2.47D-03 DXMaxT set to 5.05D-01
 The second derivative matrix:
                          R1        R2        R3        A1        A2
           R1           0.14300
           R2           0.00106   0.14300
           R3           0.00106   0.00106   0.14300
           A1          -0.00261  -0.00261  -0.00261   0.11534
           A2           0.00511   0.00511   0.00511  -0.03406   0.15257
           A3           0.00511   0.00511   0.00511  -0.03406  -0.00743
           D1           0.00827   0.00827   0.00827   0.01041   0.02749
                          A3        D1
           A3           0.15257
           D1           0.02749   0.02047
 ITU=  0  1  1  0
     Eigenvalues ---    0.07589   0.13709   0.14194   0.14194   0.16000
     Eigenvalues ---    0.16273
 En-DIIS/RFO-DIIS/Sim-DIIS IScMMF=       -3 using points:     4    3
 RFO step:  Lambda=-1.23767567D-08.
 DidBck=F Rises=F RFO-DIIS coefs:    1.13071   -0.13071
 Iteration  1 RMS(Cart)=  0.00011899 RMS(Int)=  0.00000006
 Iteration  2 RMS(Cart)=  0.00000001 RMS(Int)=  0.00000006
 ClnCor:  largest displacement from symmetrization is 1.16D-07 for atom     4.
 Variable       Old X    -DE/DX   Delta X   Delta X   Delta X     New X
                                 (Linear)    (Quad)   (Total)
    R1        3.29092   0.00002   0.00005   0.00006   0.00012   3.29104
    R2        3.29092   0.00002   0.00005   0.00006   0.00012   3.29104
    R3        3.29092   0.00002   0.00005   0.00006   0.00012   3.29104
    A1        1.62916  -0.00001  -0.00015   0.00002  -0.00013   1.62902
    A2        1.62916  -0.00002  -0.00015   0.00002  -0.00013   1.62902
    A3        1.62916  -0.00002  -0.00015   0.00002  -0.00013   1.62902
    D1        1.63278  -0.00001  -0.00017   0.00002  -0.00015   1.63263
         Item               Value     Threshold  Converged?
 Maximum Force            0.000017     0.000450     YES
 RMS     Force            0.000014     0.000300     YES
 Maximum Displacement     0.000250     0.001800     YES
 RMS     Displacement     0.000119     0.001200     YES
 Predicted change in Energy=-6.188356D-09
 Optimization completed.
    -- Stationary point found.
                           ----------------------------
                           !   Optimized Parameters   !
                           ! (Angstroms and Degrees)  !
 --------------------------                            --------------------------
 ! Name  Definition              Value          Derivative Info.                !
 --------------------------------------------------------------------------------
 ! R1    R(1,2)                  1.7415         -DE/DX =    0.0                 !
 ! R2    R(1,3)                  1.7415         -DE/DX =    0.0                 !
 ! R3    R(1,4)                  1.7415         -DE/DX =    0.0                 !
 ! A1    A(2,1,3)               93.3438         -DE/DX =    0.0                 !
 ! A2    A(2,1,4)               93.3438         -DE/DX =    0.0                 !
 ! A3    A(3,1,4)               93.3438         -DE/DX =    0.0                 !
 ! D1    D(2,1,4,3)             93.5512         -DE/DX =    0.0                 !
 --------------------------------------------------------------------------------
 GradGradGradGradGradGradGradGradGradGradGradGradGradGradGradGradGradGrad

                          Input orientation:                          
 ---------------------------------------------------------------------
 Center     Atomic      Atomic             Coordinates (Angstroms)
 Number     Number       Type             X           Y           Z
 ---------------------------------------------------------------------
      1         51           0       -0.000000    0.000000    0.085394
      2          1           0        0.000586    1.462793   -0.859588
      3          1           0        1.266523   -0.731904   -0.859588
      4          1           0       -1.267109   -0.730889   -0.859588
 ---------------------------------------------------------------------
                    Distance matrix (angstroms):
                    1          2          3          4
     1  Sb   0.000000
     2  H    1.741481   0.000000
     3  H    1.741481   2.533632   0.000000
     4  H    1.741481   2.533632   2.533632   0.000000
 Stoichiometry    H3Sb
 Framework group  C3V[C3(Sb),3SGV(H)]
 Deg. of freedom     2
 Full point group                 C3V     NOp   6
 Largest Abelian subgroup         CS      NOp   2
 Largest concise Abelian subgroup CS      NOp   2
                         Standard orientation:                         
 ---------------------------------------------------------------------
 Center     Atomic      Atomic             Coordinates (Angstroms)
 Number     Number       Type             X           Y           Z
 ---------------------------------------------------------------------
      1         51           0        0.000000    0.000000    0.052499
      2          1           0       -0.000000    1.462793   -0.892483
      3          1           0        1.266816   -0.731397   -0.892483
      4          1           0       -1.266816   -0.731397   -0.892483
 ---------------------------------------------------------------------
 Rotational constants (GHZ):          86.1124492          86.1124492          78.1168720

 **********************************************************************

            Population analysis using the SCF Density.

 **********************************************************************

 Orbital symmetries:
       Occupied  (A1) (A1) (E) (E) (A1) (A1) (E) (E) (A1) (E) (E)
                 (E) (E) (A1) (A1) (E) (E) (A1) (E) (E) (E) (E)
                 (A1) (A1) (E) (E) (A1)
       Virtual   (E) (E) (A1) (A1) (E) (E) (A1) (E) (E) (A1) (A1)
                 (A1)
 The electronic state is 1-A1.
 Alpha  occ. eigenvalues -- **********-163.96724-152.81346-152.81346-152.81308
 Alpha  occ. eigenvalues --  -33.55900 -28.79578 -28.79578 -28.79392 -20.70117
 Alpha  occ. eigenvalues --  -20.70117 -20.69946 -20.69946 -20.69873  -6.09531
 Alpha  occ. eigenvalues --   -4.40334  -4.40334  -4.39712  -1.73572  -1.73572
 Alpha  occ. eigenvalues --   -1.72913  -1.72913  -1.72532  -0.73143  -0.46351
 Alpha  occ. eigenvalues --   -0.46351  -0.34763
 Alpha virt. eigenvalues --    0.11369   0.11369   0.23821   0.41703   0.42228
 Alpha virt. eigenvalues --    0.42228   0.45902   1.28580   1.28580   1.29755
 Alpha virt. eigenvalues --    3.56629 218.34264
          Condensed to atoms (all electrons):
               1          2          3          4
     1  Sb  49.537912   0.307745   0.307745   0.307745
     2  H    0.307745   0.900615  -0.014371  -0.014371
     3  H    0.307745  -0.014371   0.900615  -0.014371
     4  H    0.307745  -0.014371  -0.014371   0.900615
 Mulliken charges:
               1
     1  Sb   0.538853
     2  H   -0.179618
     3  H   -0.179618
     4  H   -0.179618
 Sum of Mulliken charges =   0.00000
 Mulliken charges with hydrogens summed into heavy atoms:
               1
     1  Sb   0.000000
 Electronic spatial extent (au):  <R**2>=            102.0351
 Charge=              0.0000 electrons
 Dipole moment (field-independent basis, Debye):
    X=             -0.0000    Y=              0.0000    Z=              0.0095  Tot=              0.0095
 Quadrupole moment (field-independent basis, Debye-Ang):
   XX=            -30.4013   YY=            -30.4013   ZZ=            -33.4522
   XY=              0.0000   XZ=              0.0000   YZ=             -0.0000
 Traceless Quadrupole moment (field-independent basis, Debye-Ang):
   XX=              1.0170   YY=              1.0170   ZZ=             -2.0339
   XY=              0.0000   XZ=              0.0000   YZ=             -0.0000
 Octapole moment (field-independent basis, Debye-Ang**2):
  XXX=             -0.0000  YYY=             -2.1834  ZZZ=              3.4798  XYY=             -0.0000
  XXY=              2.1834  XXZ=              3.3589  XZZ=             -0.0000  YZZ=              0.0000
  YYZ=              3.3589  XYZ=             -0.0000
 Hexadecapole moment (field-independent basis, Debye-Ang**3):
 XXXX=            -63.3227 YYYY=            -63.3227 ZZZZ=            -69.6961 XXXY=              0.0000
 XXXZ=              0.0000 YYYX=              0.0000 YYYZ=              1.3275 ZZZX=              0.0000
 ZZZY=             -0.0000 XXYY=            -21.1076 XXZZ=            -23.0354 YYZZ=            -23.0354
 XXYZ=             -1.3275 YYXZ=              0.0000 ZZXY=              0.0000
 N-N= 4.711811971552D+01 E-N=-1.503044181498D+04  KE= 6.270740095537D+03
 Symmetry A'   KE= 5.196871451434D+03
 Symmetry A"   KE= 1.073868644103D+03
 Unable to Open any file for archive entry.
 1\1\GINC-BS001\FOpt\RMP2-FC\3-21G\H3Sb1\PNATT\10-Aug-2026\0\\# opt fre
 q=hpmodes mp2/3-21g\\Title Card Required\\0,1\Sb,0.,0.0000000185,0.085
 3937578\H,0.0005859666,1.4627932549,-0.8595880505\H,1.2665231199,-0.73
 19040616,-0.8595880505\H,-1.2671090865,-0.7308891378,-0.8595880505\\Ve
 rsion=ES64L-G16RevC.01\State=1-A1\HF=-6287.8130559\MP2=-6287.8717424\R
 MSD=7.010e-09\RMSF=1.494e-05\Dipole=0.,0.,-0.057054\PG=C03V [C3(Sb1),3
 SGV(H1)]\\@
 The archive entry for this job was punched.


 Standing in the middle of the road is very dangerous;
 you get knocked down by the traffic from both sides.
                                -- Margaret Thatcher
 Job cpu time:       0 days  0 hours  0 minutes  8.6 seconds.
 Elapsed time:       0 days  0 hours  0 minutes  8.3 seconds.
 File lengths (MBytes):  RWF=      6 Int=      0 D2E=      0 Chk=      1 Scr=      1
 Normal termination of Gaussian 16 at Mon Aug 10 16:33:42 2026.
 Link1:  Proceeding to internal job step number  2.
 -------------------------------------------------------------------
 #N Geom=AllCheck Guess=TCheck SCRF=Check GenChk RMP2(FC)/3-21G Freq
 -------------------------------------------------------------------
 1/10=4,29=7,30=1,38=1,40=1/1,3;
 2/12=2,40=1/2;
 3/5=5,11=1,14=-4,25=1,30=1,70=2,71=2,116=1,140=1/1,2,3;
 4/5=101/1;
 5/5=2,38=6,98=1/2;
 8/6=3,8=1,10=1,19=11,30=-1/1;
 9/15=3,16=-3/6;
 11/6=1,8=1,15=11,17=12,24=-1,27=1,28=-2,29=300,32=6,42=3/1,2,10;
 10/6=2,21=1/2;
 8/6=4,8=1,10=1,19=11,30=-1/11,4;
 10/5=1,20=4/2;
 11/12=2,14=11,16=1,17=2,28=-2,42=3,76=2/2,10,12;
 6/7=2,8=2,9=2,10=2/1;
 7/8=11,10=1,12=2,25=1,44=2/1,2,3,16;
 1/10=4,30=1/3;
 99//99;
 Structure from the checkpoint file:  "SbH3_MP2_3-21G.chk"
 -------------------
 Title Card Required
 -------------------
 Charge =  0 Multiplicity = 1
 Redundant internal coordinates found in file.  (old form).
 Sb,0,0.,0.0000000185,0.0853937578
 H,0,0.0005859666,1.4627932549,-0.8595880505
 H,0,1.2665231199,-0.7319040616,-0.8595880505
 H,0,-1.2671090865,-0.7308891378,-0.8595880505
 Recover connectivity data from disk.

 GradGradGradGradGradGradGradGradGradGradGradGradGradGradGradGradGradGrad
 Berny optimization.
 Initialization pass.
                           ----------------------------
                           !    Initial Parameters    !
                           ! (Angstroms and Degrees)  !
 --------------------------                            --------------------------
 ! Name  Definition              Value          Derivative Info.                !
 --------------------------------------------------------------------------------
 ! R1    R(1,2)                  1.7415         calculate D2E/DX2 analytically  !
 ! R2    R(1,3)                  1.7415         calculate D2E/DX2 analytically  !
 ! R3    R(1,4)                  1.7415         calculate D2E/DX2 analytically  !
 ! A1    A(2,1,3)               93.3438         calculate D2E/DX2 analytically  !
 ! A2    A(2,1,4)               93.3438         calculate D2E/DX2 analytically  !
 ! A3    A(3,1,4)               93.3438         calculate D2E/DX2 analytically  !
 ! D1    D(2,1,4,3)             93.5512         calculate D2E/DX2 analytically  !
 --------------------------------------------------------------------------------
 Trust Radius=3.00D-01 FncErr=1.00D-07 GrdErr=1.00D-07 EigMax=2.50D+02 EigMin=1.00D-04
 Number of steps in this run=      2 maximum allowed number of steps=      2.
 GradGradGradGradGradGradGradGradGradGradGradGradGradGradGradGradGradGrad

                          Input orientation:                          
 ---------------------------------------------------------------------
 Center     Atomic      Atomic             Coordinates (Angstroms)
 Number     Number       Type             X           Y           Z
 ---------------------------------------------------------------------
      1         51           0       -0.000000    0.000000    0.085394
      2          1           0        0.000586    1.462793   -0.859588
      3          1           0        1.266523   -0.731904   -0.859588
      4          1           0       -1.267109   -0.730889   -0.859588
 ---------------------------------------------------------------------
                    Distance matrix (angstroms):
                    1          2          3          4
     1  Sb   0.000000
     2  H    1.741481   0.000000
     3  H    1.741481   2.533632   0.000000
     4  H    1.741481   2.533632   2.533632   0.000000
 Stoichiometry    H3Sb
 Framework group  C3V[C3(Sb),3SGV(H)]
 Deg. of freedom     2
 Full point group                 C3V     NOp   6
 Largest Abelian subgroup         CS      NOp   2
 Largest concise Abelian subgroup CS      NOp   2
                         Standard orientation:                         
 ---------------------------------------------------------------------
 Center     Atomic      Atomic             Coordinates (Angstroms)
 Number     Number       Type             X           Y           Z
 ---------------------------------------------------------------------
      1         51           0        0.000000    0.000000    0.052499
      2          1           0       -0.000000    1.462793   -0.892483
      3          1           0        1.266816   -0.731397   -0.892483
      4          1           0       -1.266816   -0.731397   -0.892483
 ---------------------------------------------------------------------
 Rotational constants (GHZ):          86.1124492          86.1124492          78.1168720
 Standard basis: 3-21G (6D, 7F)
 There are    28 symmetry adapted cartesian basis functions of A'  symmetry.
 There are    11 symmetry adapted cartesian basis functions of A"  symmetry.
 There are    28 symmetry adapted basis functions of A'  symmetry.
 There are    11 symmetry adapted basis functions of A"  symmetry.
    39 basis functions,    96 primitive gaussians,    39 cartesian basis functions
    27 alpha electrons       27 beta electrons
       nuclear repulsion energy        47.1181197155 Hartrees.
 NAtoms=    4 NActive=    4 NUniq=    2 SFac= 4.00D+00 NAtFMM=   60 NAOKFM=F Big=F
 Integral buffers will be    131072 words long.
 Raffenetti 1 integral format.
 Two-electron integral symmetry is turned on.
 One-electron integrals computed using PRISM.
 NBasis=    39 RedAO= T EigKep=  1.26D-03  NBF=    28    11
 NBsUse=    39 1.00D-06 EigRej= -1.00D+00 NBFU=    28    11
 Initial guess from the checkpoint file:  "SbH3_MP2_3-21G.chk"
 B after Tr=    -0.000000    0.000000   -0.000000
         Rot=    1.000000    0.000000   -0.000000    0.000000 Ang=   0.00 deg.
 Initial guess orbital symmetries:
       Occupied  (A1) (A1) (E) (E) (A1) (A1) (E) (E) (A1) (E) (E)
                 (E) (E) (A1) (A1) (E) (E) (A1) (E) (E) (E) (E)
                 (A1) (A1) (E) (E) (A1)
       Virtual   (E) (E) (A1) (A1) (E) (E) (A1) (E) (E) (A1) (A1)
                 (A1)
 Keep R1 ints in memory in symmetry-blocked form, NReq=1136808.
 Requested convergence on RMS density matrix=1.00D-08 within 128 cycles.
 Requested convergence on MAX density matrix=1.00D-06.
 Requested convergence on             energy=1.00D-06.
 No special actions if energy rises.
 SCF Done:  E(RHF) =  -6287.81305595     A.U. after    1 cycles
            NFock=  1  Conv=0.30D-09     -V/T= 2.0027
 ExpMin= 8.66D-02 ExpMax= 1.33D+04 ExpMxC= 1.33D+04 IAcc=3 IRadAn=         5 AccDes= 0.00D+00
 HarFok:  IExCor=  205 AccDes= 0.00D+00 IRadAn=         5 IDoV=-2 UseB2=F ITyADJ=14
 ICtDFT= 12500011 ScaDFX=  1.000000  1.000000  1.000000  1.000000
 Defaulting to unpruned grid for atomic number  51.
 Range of M.O.s used for correlation:    19    39
 NBasis=    39 NAE=    27 NBE=    27 NFC=    18 NFV=     0
 NROrb=     21 NOA=     9 NOB=     9 NVA=    12 NVB=    12

 **** Warning!!: The largest alpha MO coefficient is  0.21315688D+02

 Disk-based method using ON**2 memory for  9 occupieds at a time.
 Permanent disk used for amplitudes=      128142 words.
 Estimated scratch disk usage=     1313746 words.
 Actual    scratch disk usage=     1313746 words.
 JobTyp=1 Pass  1:  I=  19 to  27 NPSUse=  1 ParTrn=F ParDer=F DoDerP=T.
 (rs|ai) integrals will be sorted in core.
 Spin components of T(2) and E(2):
     alpha-alpha T2 =       0.1146299650D-02 E2=     -0.2287911971D-02
     alpha-beta  T2 =       0.3165600531D-01 E2=     -0.5411062556D-01
     beta-beta   T2 =       0.1146299650D-02 E2=     -0.2287911971D-02
 ANorm=    0.1016832634D+01
 E2 =    -0.5868644950D-01 EUMP2 =    -0.62878717423983D+04
 G2DrvN: will do     5 centers at a time, making    1 passes.
 Calling FoFCou, ICntrl=  3107 FMM=F I1Cent=   0 AccDes= 0.00D+00.
 End of G2Drv F.D. properties file   721 does not exist.
 End of G2Drv F.D. properties file   722 does not exist.
 End of G2Drv F.D. properties file   788 does not exist.
          IDoAtm=1111
          Differentiating once with respect to electric field.
                with respect to dipole field.
          Differentiating once with respect to nuclear coordinates.
 Keep R1 ints in memory in symmetry-blocked form, NReq=1137467.
          There are    15 degrees of freedom in the 1st order CPHF.  IDoFFX=6 NUNeed=    15.
     12 vectors produced by pass  0 Test12= 2.16D-15 6.67D-09 XBig12= 1.28D+01 2.59D+00.
 AX will form    12 AO Fock derivatives at one time.
     12 vectors produced by pass  1 Test12= 2.16D-15 6.67D-09 XBig12= 1.52D-01 2.22D-01.
     12 vectors produced by pass  2 Test12= 2.16D-15 6.67D-09 XBig12= 1.08D-03 1.94D-02.
     12 vectors produced by pass  3 Test12= 2.16D-15 6.67D-09 XBig12= 2.59D-06 8.71D-04.
     12 vectors produced by pass  4 Test12= 2.16D-15 6.67D-09 XBig12= 1.80D-08 6.52D-05.
      7 vectors produced by pass  5 Test12= 2.16D-15 6.67D-09 XBig12= 2.42D-11 1.84D-06.
      3 vectors produced by pass  6 Test12= 2.16D-15 6.67D-09 XBig12= 2.33D-14 5.33D-08.
 InvSVY:  IOpt=1 It=  1 EMax= 1.11D-15
 Solved reduced A of dimension    70 with    12 vectors.
 End of Minotr F.D. properties file   721 does not exist.
 End of Minotr F.D. properties file   722 does not exist.
 End of Minotr F.D. properties file   788 does not exist.
 MDV=   104857600.
 Form MO integral derivatives with frozen-active canonical formalism.
 Discarding MO integrals.
 Reordered first order wavefunction length =       209952
 In DefCFB: NBatch=  1 ICI= 27 ICA= 12 LFMax= 27
            Large arrays: LIAPS=     1971216 LIARS=     2918916 words.
 Semi-Direct transformation.
 ModeAB=           4 MOrb=            27 LenV=     104663285
 LASXX=       325026 LTotXX=      325026 LenRXX=      750114
 LTotAB=      425088 MaxLAS=      806598 LenRXY=           0
 NonZer=     1075140 LenScr=     2357760 LnRSAI=      806598
 LnScr1=     1814016 LExtra=           0 Total=      5728488
 MaxDsk=          -1 SrtSym=           T ITran=            4
 JobTyp=0 Pass  1:  I=   1 to  27.
 (rs|ai) integrals will be sorted in core.
 Spin components of T(2) and E(2):
     alpha-alpha T2 =       0.1146299650D-02 E2=     -0.2287911971D-02
     alpha-beta  T2 =       0.3165600531D-01 E2=     -0.5411062556D-01
     beta-beta   T2 =       0.1146299650D-02 E2=     -0.2287911971D-02
 ANorm=    0.1438018501D+01
 E2 =    -0.5868644950D-01 EUMP2 =    -0.62878717423983D+04
          IDoAtm=1111
          Differentiating once with respect to electric field.
                with respect to dipole field.
          Differentiating once with respect to nuclear coordinates.
          There are     1 degrees of freedom in the 1st order CPHF.  IDoFFX=0 NUNeed=     1.
 LinEq1:  Iter=  0 NonCon=     1 RMS=3.19D-03 Max=2.46D-02 NDo=     1
 LinEq1:  Iter=  1 NonCon=     1 RMS=3.14D-04 Max=2.95D-03 NDo=     1
 LinEq1:  Iter=  2 NonCon=     1 RMS=4.27D-05 Max=3.60D-04 NDo=     1
 LinEq1:  Iter=  3 NonCon=     1 RMS=8.01D-06 Max=7.71D-05 NDo=     1
 LinEq1:  Iter=  4 NonCon=     1 RMS=7.41D-07 Max=6.25D-06 NDo=     1
 LinEq1:  Iter=  5 NonCon=     1 RMS=7.01D-08 Max=5.64D-07 NDo=     1
 LinEq1:  Iter=  6 NonCon=     1 RMS=2.74D-09 Max=1.45D-08 NDo=     1
 LinEq1:  Iter=  7 NonCon=     1 RMS=1.49D-10 Max=8.36D-10 NDo=     1
 LinEq1:  Iter=  8 NonCon=     0 RMS=7.72D-12 Max=5.03D-11 NDo=     1
 Linear equations converged to 1.000D-10 1.000D-09 after     8 iterations.
 End of Minotr F.D. properties file   721 does not exist.
 End of Minotr F.D. properties file   722 does not exist.
 End of Minotr F.D. properties file   788 does not exist.
 Symmetrizing basis deriv contribution to polar:
 IMax=3 JMax=2 DiffMx= 0.00D+00
 G2DrvN: will do     5 centers at a time, making    1 passes.
 Calling FoFCou, ICntrl=  3107 FMM=F I1Cent=   0 AccDes= 0.00D+00.
 End of G2Drv F.D. properties file   721 does not exist.
 End of G2Drv F.D. properties file   722 does not exist.
 End of G2Drv F.D. properties file   788 does not exist.
 R2 and R3 integrals will be kept in memory, NReq=     1429180.
 DD1Dir will call FoFMem   1 times, MxPair=       756
 NAB=   378 NAA=     0 NBB=     0.
 Discarding MO integrals.

 **********************************************************************

            Population analysis using the SCF Density.

 **********************************************************************

 Orbital symmetries:
       Occupied  (A1) (A1) (E) (E) (A1) (A1) (E) (E) (A1) (E) (E)
                 (E) (E) (A1) (A1) (E) (E) (A1) (E) (E) (E) (E)
                 (A1) (A1) (E) (E) (A1)
       Virtual   (E) (E) (A1) (A1) (E) (E) (A1) (E) (E) (A1) (A1)
                 (A1)
 The electronic state is 1-A1.
 Alpha  occ. eigenvalues -- **********-163.96724-152.81346-152.81346-152.81308
 Alpha  occ. eigenvalues --  -33.55900 -28.79578 -28.79578 -28.79392 -20.70117
 Alpha  occ. eigenvalues --  -20.70117 -20.69946 -20.69946 -20.69873  -6.09531
 Alpha  occ. eigenvalues --   -4.40334  -4.40334  -4.39712  -1.73572  -1.73572
 Alpha  occ. eigenvalues --   -1.72913  -1.72913  -1.72532  -0.73143  -0.46351
 Alpha  occ. eigenvalues --   -0.46351  -0.34763
 Alpha virt. eigenvalues --    0.11369   0.11369   0.23821   0.41703   0.42228
 Alpha virt. eigenvalues --    0.42228   0.45902   1.28580   1.28580   1.29755
 Alpha virt. eigenvalues --    3.56629 218.34264
          Condensed to atoms (all electrons):
               1          2          3          4
     1  Sb  49.537912   0.307745   0.307745   0.307745
     2  H    0.307745   0.900615  -0.014371  -0.014371
     3  H    0.307745  -0.014371   0.900615  -0.014371
     4  H    0.307745  -0.014371  -0.014371   0.900615
 Mulliken charges:
               1
     1  Sb   0.538853
     2  H   -0.179618
     3  H   -0.179618
     4  H   -0.179618
 Sum of Mulliken charges =   0.00000
 Mulliken charges with hydrogens summed into heavy atoms:
               1
     1  Sb   0.000000
 APT charges:
               1
     1  Sb   0.706380
     2  H   -0.235460
     3  H   -0.235460
     4  H   -0.235460
 Sum of APT charges =   0.00000
 APT charges with hydrogens summed into heavy atoms:
               1
     1  Sb   0.000000
 Electronic spatial extent (au):  <R**2>=            102.0351
 Charge=             -0.0000 electrons
 Dipole moment (field-independent basis, Debye):
    X=              0.0000    Y=              0.0000    Z=              0.0095  Tot=              0.0095
 Quadrupole moment (field-independent basis, Debye-Ang):
   XX=            -30.4013   YY=            -30.4013   ZZ=            -33.4522
   XY=              0.0000   XZ=             -0.0000   YZ=             -0.0000
 Traceless Quadrupole moment (field-independent basis, Debye-Ang):
   XX=              1.0170   YY=              1.0170   ZZ=             -2.0339
   XY=              0.0000   XZ=             -0.0000   YZ=             -0.0000
 Octapole moment (field-independent basis, Debye-Ang**2):
  XXX=              0.0000  YYY=             -2.1834  ZZZ=              3.4798  XYY=             -0.0000
  XXY=              2.1834  XXZ=              3.3589  XZZ=              0.0000  YZZ=              0.0000
  YYZ=              3.3589  XYZ=              0.0000
 Hexadecapole moment (field-independent basis, Debye-Ang**3):
 XXXX=            -63.3227 YYYY=            -63.3227 ZZZZ=            -69.6961 XXXY=              0.0000
 XXXZ=             -0.0000 YYYX=              0.0000 YYYZ=              1.3275 ZZZX=             -0.0000
 ZZZY=             -0.0000 XXYY=            -21.1076 XXZZ=            -23.0354 YYZZ=            -23.0354
 XXYZ=             -1.3275 YYXZ=              0.0000 ZZXY=              0.0000
 N-N= 4.711811971552D+01 E-N=-1.503044181500D+04  KE= 6.270740095541D+03
 Symmetry A'   KE= 5.196871451425D+03
 Symmetry A"   KE= 1.073868644116D+03
  Exact polarizability:      33.667      -0.000      33.667       0.000       0.000      25.832
 Approx polarizability:      28.312      -0.000      28.312       0.000       0.000      20.445
 Calling FoFJK, ICntrl=  10100127 FMM=F ISym2X=1 I1Cent= 0 IOpClX= 0 NMat=1 NMatS=1 NMatT=0.
 Full mass-weighted force constant matrix:
 Low frequencies ---  -11.9135  -11.9127   -9.0536   -0.0235   -0.0220   -0.0220
 Low frequencies ---  819.1607  832.9185  832.9185
 Diagonal vibrational polarizability:
        3.1953579       3.1953578       6.1666768
 Harmonic frequencies (cm**-1), IR intensities (KM/Mole), Raman scattering
 activities (A**4/AMU), depolarization ratios for plane and unpolarized
 incident light, reduced masses (AMU), force constants (mDyne/A),
 and normal coordinates:
                           1         2         3         4         5
                          A1         E         E         E         E
       Frequencies ---   819.1607  832.9185  832.9185 1929.8925 1929.8925
    Reduced masses ---     1.0264    1.0127    1.0127    1.0165    1.0165
   Force constants ---     0.4058    0.4139    0.4139    2.2307    2.2307
    IR Intensities ---   130.6529   40.7381   40.7381  223.5278  223.5278
 Coord Atom Element:
   1     1    51          0.00000  -0.00635  -0.00000   0.00000  -0.00852
   2     1    51         -0.00000   0.00000  -0.00635  -0.00852  -0.00000
   3     1    51         -0.01245  -0.00000   0.00000  -0.00000  -0.00000
   1     2     1         -0.00000   0.71763   0.00002   0.00000  -0.00665
   2     2     1          0.29194   0.00001  -0.20940   0.68774   0.00002
   3     2     1          0.49805   0.00001  -0.32832  -0.43999  -0.00002
   1     3     1          0.25283   0.02234   0.40142  -0.30070   0.51413
   2     3     1         -0.14597   0.40141   0.48588   0.16696  -0.30067
   3     3     1          0.49805  -0.28434   0.16415   0.22001  -0.38104
   1     4     1         -0.25283   0.02237  -0.40142   0.30066   0.51415
   2     4     1         -0.14597  -0.40143   0.48586   0.16694   0.30068
   3     4     1          0.49805   0.28433   0.16417   0.21998   0.38105
                           6
                          A1
       Frequencies ---  1938.4418
    Reduced masses ---     1.0140
   Force constants ---     2.2448
    IR Intensities ---   129.4194
 Coord Atom Element:
   1     1    51          0.00000
   2     1    51         -0.00000
   3     1    51          0.00717
   1     2     1          0.00000
   2     2     1          0.50117
   3     2     1         -0.28661
   1     3     1          0.43403
   2     3     1         -0.25059
   3     3     1         -0.28660
   1     4     1         -0.43403
   2     4     1         -0.25059
   3     4     1         -0.28660
 Harmonic frequencies (cm**-1), IR intensities (KM/Mole), Raman scattering
 activities (A**4/AMU), depolarization ratios for plane and unpolarized
 incident light, reduced masses (AMU), force constants (mDyne/A),
 and normal coordinates:
                      1                      2                      3
                     A1                      E                      E
 Frequencies --    819.1607               832.9185               832.9185
 Red. masses --      1.0264                 1.0127                 1.0127
 Frc consts  --      0.4058                 0.4139                 0.4139
 IR Inten    --    130.6529                40.7381                40.7381
  Atom  AN      X      Y      Z        X      Y      Z        X      Y      Z
     1  51     0.00  -0.00  -0.01    -0.01   0.00  -0.00    -0.00  -0.01   0.00
     2   1    -0.00   0.29   0.50     0.72   0.00   0.00     0.00  -0.21  -0.33
     3   1     0.25  -0.15   0.50     0.02   0.40  -0.28     0.40   0.49   0.16
     4   1    -0.25  -0.15   0.50     0.02  -0.40   0.28    -0.40   0.49   0.16
                      4                      5                      6
                      E                      E                     A1
 Frequencies --   1929.8925              1929.8925              1938.4418
 Red. masses --      1.0165                 1.0165                 1.0140
 Frc consts  --      2.2307                 2.2307                 2.2448
 IR Inten    --    223.5278               223.5278               129.4194
  Atom  AN      X      Y      Z        X      Y      Z        X      Y      Z
     1  51     0.00  -0.01  -0.00    -0.01  -0.00  -0.00     0.00  -0.00   0.01
     2   1     0.00   0.69  -0.44    -0.01   0.00  -0.00     0.00   0.50  -0.29
     3   1    -0.30   0.17   0.22     0.51  -0.30  -0.38     0.43  -0.25  -0.29
     4   1     0.30   0.17   0.22     0.51   0.30   0.38    -0.43  -0.25  -0.29

 -------------------
 - Thermochemistry -
 -------------------
 Temperature   298.150 Kelvin.  Pressure   1.00000 Atm.
 Atom     1 has atomic number 51 and mass 120.90380
 Atom     2 has atomic number  1 and mass   1.00783
 Atom     3 has atomic number  1 and mass   1.00783
 Atom     4 has atomic number  1 and mass   1.00783
 Molecular mass:   123.92728 amu.
 Principal axes and moments of inertia in atomic units:
                           1         2         3
     Eigenvalues --    20.95796  20.95796  23.10309
           X           -0.01029   0.99995  -0.00000
           Y            0.99995   0.01029  -0.00000
           Z            0.00000   0.00000   1.00000
 This molecule is an oblate symmetric top.
 Rotational symmetry number  3.
 Rotational temperatures (Kelvin)      4.13275     4.13275     3.74902
 Rotational constants (GHZ):          86.11245    86.11245    78.11687
 Zero-point vibrational energy      49544.7 (Joules/Mol)
                                   11.84146 (Kcal/Mol)
 Vibrational temperatures:   1178.59  1198.38  1198.38  2776.68  2776.68
          (Kelvin)           2788.99
 
 Zero-point correction=                           0.018871 (Hartree/Particle)
 Thermal correction to Energy=                    0.021917
 Thermal correction to Enthalpy=                  0.022862
 Thermal correction to Gibbs Free Energy=        -0.003606
 Sum of electronic and zero-point Energies=          -6287.852872
 Sum of electronic and thermal Energies=             -6287.849825
 Sum of electronic and thermal Enthalpies=           -6287.848881
 Sum of electronic and thermal Free Energies=        -6287.875348
 
                     E (Thermal)             CV                S
                      KCal/Mol        Cal/Mol-Kelvin    Cal/Mol-Kelvin
 Total                   13.753              7.823             55.705
 Electronic               0.000              0.000              0.000
 Translational            0.889              2.981             40.357
 Rotational               0.889              2.981             14.786
 Vibrational             11.976              1.862              0.562
                       Q            Log10(Q)             Ln(Q)
 Total Bot       0.455552D+02          1.658538          3.818925
 Total V=0       0.217967D+11         10.338392         23.805027
 Vib (Bot)       0.221017D-08         -8.655575        -19.930197
 Vib (V=0)       0.105750D+01          0.024279          0.055905
 Electronic      0.100000D+01          0.000000          0.000000
 Translational   0.542256D+08          7.734204         17.808663
 Rotational      0.380109D+03          2.579908          5.940459
 ***** Axes restored to original set *****
 -------------------------------------------------------------------
 Center     Atomic                   Forces (Hartrees/Bohr)
 Number     Number              X              Y              Z
 -------------------------------------------------------------------
      1       51           0.000000000   -0.000000000    0.000042908
      2        1           0.000000003    0.000008640   -0.000014303
      3        1           0.000007481   -0.000004323   -0.000014303
      4        1          -0.000007485   -0.000004317   -0.000014303
 -------------------------------------------------------------------
 Cartesian Forces:  Max     0.000042908 RMS     0.000014941
 FormGI is forming the generalized inverse of G from B-inverse, IUseBI=4.

 GradGradGradGradGradGradGradGradGradGradGradGradGradGradGradGradGradGrad
 Berny optimization.
 Internal  Forces:  Max     0.000016988 RMS     0.000014195
 Search for a local minimum.
 Step number   1 out of a maximum of    2
 All quantities printed in internal units (Hartrees-Bohrs-Radians)
 Second derivative matrix not updated -- analytic derivatives used.
 The second derivative matrix:
                          R1        R2        R3        A1        A2
           R1           0.14123
           R2           0.00042   0.14123
           R3           0.00042   0.00042   0.14123
           A1           0.00282   0.00282   0.00132   0.03544
           A2           0.00602   0.00319   0.00610  -0.00517   0.14073
           A3           0.00319   0.00602   0.00610  -0.00517   0.00233
           D1           0.00340   0.00340   0.00208   0.03493   0.00371
                          A3        D1
           A3           0.14073
           D1           0.00371   0.03552
 ITU=  0
     Eigenvalues ---    0.06970   0.13064   0.13653   0.14093   0.14268
     Eigenvalues ---    0.15562
 Angle between quadratic step and forces=  16.09 degrees.
 Linear search not attempted -- first point.
 Iteration  1 RMS(Cart)=  0.00011862 RMS(Int)=  0.00000001
 Iteration  2 RMS(Cart)=  0.00000001 RMS(Int)=  0.00000001
 ClnCor:  largest displacement from symmetrization is 4.91D-10 for atom     4.
 Variable       Old X    -DE/DX   Delta X   Delta X   Delta X     New X
                                 (Linear)    (Quad)   (Total)
    R1        3.29092   0.00002   0.00000   0.00012   0.00012   3.29104
    R2        3.29092   0.00002   0.00000   0.00012   0.00012   3.29104
    R3        3.29092   0.00002   0.00000   0.00012   0.00012   3.29104
    A1        1.62916  -0.00001   0.00000  -0.00013  -0.00013   1.62902
    A2        1.62916  -0.00002   0.00000  -0.00013  -0.00013   1.62902
    A3        1.62916  -0.00002   0.00000  -0.00013  -0.00013   1.62902
    D1        1.63278  -0.00001   0.00000  -0.00015  -0.00015   1.63263
         Item               Value     Threshold  Converged?
 Maximum Force            0.000017     0.000450     YES
 RMS     Force            0.000014     0.000300     YES
 Maximum Displacement     0.000250     0.001800     YES
 RMS     Displacement     0.000119     0.001200     YES
 Predicted change in Energy=-6.214644D-09
 Optimization completed.
    -- Stationary point found.
                           ----------------------------
                           !   Optimized Parameters   !
                           ! (Angstroms and Degrees)  !
 --------------------------                            --------------------------
 ! Name  Definition              Value          Derivative Info.                !
 --------------------------------------------------------------------------------
 ! R1    R(1,2)                  1.7415         -DE/DX =    0.0                 !
 ! R2    R(1,3)                  1.7415         -DE/DX =    0.0                 !
 ! R3    R(1,4)                  1.7415         -DE/DX =    0.0                 !
 ! A1    A(2,1,3)               93.3438         -DE/DX =    0.0                 !
 ! A2    A(2,1,4)               93.3438         -DE/DX =    0.0                 !
 ! A3    A(3,1,4)               93.3438         -DE/DX =    0.0                 !
 ! D1    D(2,1,4,3)             93.5512         -DE/DX =    0.0                 !
 --------------------------------------------------------------------------------
 GradGradGradGradGradGradGradGradGradGradGradGradGradGradGradGradGradGrad


 ----------------------------------------------------------------------

 Electric dipole moment (input orientation):
 (Debye = 10**-18 statcoulomb cm , SI units = C m)
                  (au)            (Debye)         (10**-30 SI)
   Tot        0.570540D-01      0.145017D+00      0.483724D+00
   x          0.000000D+00      0.000000D+00      0.000000D+00
   y          0.000000D+00      0.000000D+00      0.000000D+00
   z         -0.570540D-01     -0.145017D+00     -0.483724D+00

 Dipole polarizability, Alpha (input orientation).
 (esu units = cm**3 , SI units = C**2 m**2 J**-1)
 Alpha(0;0):
               (au)            (10**-24 esu)      (10**-40 SI)
   iso        0.310551D+02      0.460190D+01      0.512030D+01
   aniso      0.783519D+01      0.116105D+01      0.129185D+01
   xx         0.336669D+02      0.498892D+01      0.555092D+01
   yx         0.000000D+00      0.000000D+00      0.000000D+00
   yy         0.336669D+02      0.498892D+01      0.555092D+01
   zx         0.000000D+00      0.000000D+00      0.000000D+00
   zy         0.000000D+00      0.000000D+00      0.000000D+00
   zz         0.258317D+02      0.382786D+01      0.425907D+01

 ----------------------------------------------------------------------

 Dipole orientation:
    51          0.00000000         -0.00000003         -0.16137081
     1          0.00110732         -2.76427863          1.62438600
     1          2.39338183          1.38309823          1.62438600
     1         -2.39448914          1.38118030          1.62438600

 Electric dipole moment (dipole orientation):
 (Debye = 10**-18 statcoulomb cm , SI units = C m)
                  (au)            (Debye)         (10**-30 SI)
   Tot        0.570540D-01      0.145017D+00      0.483724D+00
   x          0.000000D+00      0.000000D+00      0.000000D+00
   y          0.000000D+00      0.000000D+00      0.000000D+00
   z          0.570540D-01      0.145017D+00      0.483724D+00

 Dipole polarizability, Alpha (dipole orientation).
 (esu units = cm**3 , SI units = C**2 m**2 J**-1)
 Alpha(0;0):
               (au)            (10**-24 esu)      (10**-40 SI)
   iso        0.310551D+02      0.460190D+01      0.512030D+01
   aniso      0.783519D+01      0.116105D+01      0.129185D+01
   xx         0.336669D+02      0.498892D+01      0.555092D+01
   yx         0.000000D+00      0.000000D+00      0.000000D+00
   yy         0.336669D+02      0.498892D+01      0.555092D+01
   zx         0.000000D+00      0.000000D+00      0.000000D+00
   zy         0.000000D+00      0.000000D+00      0.000000D+00
   zz         0.258317D+02      0.382786D+01      0.425907D+01

 ----------------------------------------------------------------------
 Unable to Open any file for archive entry.
 1\1\GINC-BS001\Freq\RMP2-FC\3-21G\H3Sb1\PNATT\10-Aug-2026\0\\#N Geom=A
 llCheck Guess=TCheck SCRF=Check GenChk RMP2(FC)/3-21G Freq\\Title Card
  Required\\0,1\Sb,0.,0.0000000185,0.0853937578\H,0.0005859666,1.462793
 2549,-0.8595880505\H,1.2665231199,-0.7319040616,-0.8595880505\H,-1.267
 1090865,-0.7308891378,-0.8595880505\\Version=ES64L-G16RevC.01\State=1-
 A1\HF=-6287.8130559\MP2=-6287.8717424\RMSD=2.971e-10\RMSF=1.494e-05\Ze
 roPoint=0.0188706\Thermal=0.0219174\ETot=-6287.849825\HTot=-6287.84888
 08\GTot=-6287.8753482\Dipole=0.,0.,-0.057054\DipoleDeriv=0.630736,0.,0
 .,0.,0.630736,0.,0.,0.0000002,0.8576686,-0.1389568,-0.0000571,0.000030
 6,-0.0000571,-0.2815339,0.0764435,0.0001143,0.2854017,-0.2858895,-0.24
 58402,0.0617663,0.0661867,0.0617663,-0.1746505,-0.0382483,0.247108,-0.
 1428,-0.2858895,-0.2459391,-0.0617091,-0.0662173,-0.0617092,-0.1745516
 ,-0.0381952,-0.2472224,-0.1426019,-0.2858895\Polar=33.6668708,0.,33.66
 68706,0.,0.,25.8316834\PG=C03V [C3(Sb1),3SGV(H1)]\NImag=0\\0.16228379,
 0.,0.16228379,0.,0.,0.16140363,-0.01344480,-0.00003257,0.00002020,0.01
 356495,-0.00003257,-0.09474439,0.05041890,0.00003690,0.10568498,0.0000
 2800,0.06990185,-0.05380122,-0.00002308,-0.05761375,0.04803661,-0.0743
 9129,0.03522004,0.04365394,-0.00005632,0.00150041,0.00060422,0.0826230
 2,0.03522004,-0.03379791,-0.02522694,0.00786604,-0.00547405,-0.0061442
 9,-0.03990760,0.03662692,0.06052278,-0.03497518,-0.05380121,-0.0050161
 2,0.00359944,0.00288231,-0.04988343,0.02882686,0.04803660,-0.07444770,
 -0.03518747,-0.04367414,-0.00006383,-0.00150475,-0.00060914,-0.0081754
 1,-0.00317848,-0.00562322,0.08268693,-0.03518747,-0.03374150,-0.025191
 96,-0.00787037,-0.00546654,-0.00614381,0.00318715,0.00264504,0.0025488
 8,0.03987069,0.03656300,-0.06055078,-0.03492668,-0.05380121,0.00501900
 ,0.00359542,0.00288231,0.00562527,0.00254437,0.00288230,0.04990651,0.0
 2878689,0.04803660\\0.,0.,-0.00004291,0.,-0.00000864,0.00001430,-0.000
 00748,0.00000432,0.00001430,0.00000748,0.00000432,0.00001430\\\@
 The archive entry for this job was punched.


 THESE ARE THE TIMES THAT TRY MENS SOULS.
 THE SUMMER SOLDIER AND THE SUNSHINE PATRIOT WILL IN THIS CRISIS,
 SHRINK FROM THE SERVICE OF HIS COUNTRY.  BUT HE THAT STANDS NOW,
 DESERVES THE LOVE AND THANKS OF MAN AND WOMAN.
 TYRANNY, LIKE HELL, IS NOT EASILY CONQUERED,
 YET WE HAVE THIS CONSOLATION WITH US,
 THAT THE HARDER THE CONFLICT, THE MORE GLORIOUS THE TRIUMPH.
 WHAT WE OBTAIN TOO CHEAP, WE ESTEEM TOO LIGHTLY, 
 'TIS DEARNESS ONLY THAT GIVES EVERYTHING ITS VALUE.

                                              -- TOM PAINE
 Job cpu time:       0 days  0 hours  0 minutes  7.4 seconds.
 Elapsed time:       0 days  0 hours  0 minutes  7.2 seconds.
 File lengths (MBytes):  RWF=     53 Int=      0 D2E=      0 Chk=      1 Scr=      1
 Normal termination of Gaussian 16 at Mon Aug 10 16:33:49 2026.
