 Entering Gaussian System, Link 0=g16
 Input=SCl4.com
 Output=SCl4.log
 Initial command:
 /opt/g16/g16/l1.exe "/home/pnatt/scratch/Gau-1492891.inp" -scrdir="/home/pnatt/scratch/"
 Entering Link 1 = /opt/g16/g16/l1.exe PID=   1492893.
  
 Copyright (c) 1988-2019, Gaussian, Inc.  All Rights Reserved.
  
 This is part of the Gaussian(R) 16 program.  It is based on
 the Gaussian(R) 09 system (copyright 2009, Gaussian, Inc.),
 the Gaussian(R) 03 system (copyright 2003, Gaussian, Inc.),
 the Gaussian(R) 98 system (copyright 1998, Gaussian, Inc.),
 the Gaussian(R) 94 system (copyright 1995, Gaussian, Inc.),
 the Gaussian 92(TM) system (copyright 1992, Gaussian, Inc.),
 the Gaussian 90(TM) system (copyright 1990, Gaussian, Inc.),
 the Gaussian 88(TM) system (copyright 1988, Gaussian, Inc.),
 the Gaussian 86(TM) system (copyright 1986, Carnegie Mellon
 University), and the Gaussian 82(TM) system (copyright 1983,
 Carnegie Mellon University). Gaussian is a federally registered
 trademark of Gaussian, Inc.
  
 This software contains proprietary and confidential information,
 including trade secrets, belonging to Gaussian, Inc.
  
 This software is provided under written license and may be
 used, copied, transmitted, or stored only in accord with that
 written license.
  
 The following legend is applicable only to US Government
 contracts under FAR:
  
                    RESTRICTED RIGHTS LEGEND
  
 Use, reproduction and disclosure by the US Government is
 subject to restrictions as set forth in subparagraphs (a)
 and (c) of the Commercial Computer Software - Restricted
 Rights clause in FAR 52.227-19.
  
 Gaussian, Inc.
 340 Quinnipiac St., Bldg. 40, Wallingford CT 06492
  
  
 ---------------------------------------------------------------
 Warning -- This program may not be used in any manner that
 competes with the business of Gaussian, Inc. or will provide
 assistance to any competitor of Gaussian, Inc.  The licensee
 of this program is prohibited from giving any competitor of
 Gaussian, Inc. access to this program.  By using this program,
 the user acknowledges that Gaussian, Inc. is engaged in the
 business of creating and licensing software in the field of
 computational chemistry and represents and warrants to the
 licensee that it is not a competitor of Gaussian, Inc. and that
 it will not use this program in any manner prohibited above.
 ---------------------------------------------------------------
  

 Cite this work as:
 Gaussian 16, Revision C.01,
 M. J. Frisch, G. W. Trucks, H. B. Schlegel, G. E. Scuseria, 
 M. A. Robb, J. R. Cheeseman, G. Scalmani, V. Barone, 
 G. A. Petersson, H. Nakatsuji, X. Li, M. Caricato, A. V. Marenich, 
 J. Bloino, B. G. Janesko, R. Gomperts, B. Mennucci, H. P. Hratchian, 
 J. V. Ortiz, A. F. Izmaylov, J. L. Sonnenberg, D. Williams-Young, 
 F. Ding, F. Lipparini, F. Egidi, J. Goings, B. Peng, A. Petrone, 
 T. Henderson, D. Ranasinghe, V. G. Zakrzewski, J. Gao, N. Rega, 
 G. Zheng, W. Liang, M. Hada, M. Ehara, K. Toyota, R. Fukuda, 
 J. Hasegawa, M. Ishida, T. Nakajima, Y. Honda, O. Kitao, H. Nakai, 
 T. Vreven, K. Throssell, J. A. Montgomery, Jr., J. E. Peralta, 
 F. Ogliaro, M. J. Bearpark, J. J. Heyd, E. N. Brothers, K. N. Kudin, 
 V. N. Staroverov, T. A. Keith, R. Kobayashi, J. Normand, 
 K. Raghavachari, A. P. Rendell, J. C. Burant, S. S. Iyengar, 
 J. Tomasi, M. Cossi, J. M. Millam, M. Klene, C. Adamo, R. Cammi, 
 J. W. Ochterski, R. L. Martin, K. Morokuma, O. Farkas, 
 J. B. Foresman, and D. J. Fox, Gaussian, Inc., Wallingford CT, 2019.
 
 ******************************************
 Gaussian 16:  ES64L-G16RevC.01  3-Jul-2019
                10-Aug-2026 
 ******************************************
 %chk=SCl4_MP2_cc-pVDZ.chk
 ------------------------------------------------
 # opt freq=hpmodes mp2/cc-pvdz geom=connectivity
 ------------------------------------------------
 1/18=20,19=15,38=1,57=2/1,3;
 2/9=110,12=2,17=6,18=5,40=1/2;
 3/5=16,11=9,25=1,30=1,71=1/1,2,3;
 4//1;
 5/5=2,38=5/2;
 8/6=4,10=1/1;
 9/15=2,16=-3/6;
 10/5=1/2;
 6/7=2,8=2,9=2,10=2/1;
 7/12=2/1,2,3,16;
 1/18=20,19=15/3(2);
 2/9=110/2;
 99//99;
 2/9=110/2;
 3/5=16,11=9,25=1,30=1,71=1/1,2,3;
 4/5=5,16=3,69=1/1;
 5/5=2,38=5/2;
 8/6=4,10=1/1;
 9/15=2,16=-3/6;
 10/5=1/2;
 7/12=2/1,2,3,16;
 1/18=20,19=15/3(-8);
 2/9=110/2;
 6/7=2,8=2,9=2,10=2/1;
 99/9=10/99;
 -------------------
 Title Card Required
 -------------------
 Symbolic Z-matrix:
 Charge =  0 Multiplicity = 1
 S                     0.        0.        0.5594 
 Cl                    0.        2.3482    0.5277 
 Cl                    1.66957   0.       -0.79094 
 Cl                   -1.66957   0.       -0.79094 
 Cl                    0.       -2.3482    0.5277 
 

 GradGradGradGradGradGradGradGradGradGradGradGradGradGradGradGradGradGrad
 Berny optimization.
 Initialization pass.
                           ----------------------------
                           !    Initial Parameters    !
                           ! (Angstroms and Degrees)  !
 --------------------------                            --------------------------
 ! Name  Definition              Value          Derivative Info.                !
 --------------------------------------------------------------------------------
 ! R1    R(1,2)                  2.3484         estimate D2E/DX2                !
 ! R2    R(1,3)                  2.1473         estimate D2E/DX2                !
 ! R3    R(1,4)                  2.1473         estimate D2E/DX2                !
 ! R4    R(1,5)                  2.3484         estimate D2E/DX2                !
 ! A1    A(2,1,3)               89.5136         estimate D2E/DX2                !
 ! A2    A(2,1,4)               89.5136         estimate D2E/DX2                !
 ! A3    A(3,1,4)              102.0686         estimate D2E/DX2                !
 ! A4    A(3,1,5)               89.5136         estimate D2E/DX2                !
 ! A5    A(4,1,5)               89.5136         estimate D2E/DX2                !
 ! A6    L(2,1,5,3,-1)         179.0272         estimate D2E/DX2                !
 ! A7    L(2,1,5,3,-2)         181.2029         estimate D2E/DX2                !
 ! D1    D(2,1,4,3)             89.3986         estimate D2E/DX2                !
 ! D2    D(3,1,5,4)           -102.0737         estimate D2E/DX2                !
 --------------------------------------------------------------------------------
 Trust Radius=3.00D-01 FncErr=1.00D-07 GrdErr=1.00D-07 EigMax=2.50D+02 EigMin=1.00D-04
 Number of steps in this run=     23 maximum allowed number of steps=    100.
 GradGradGradGradGradGradGradGradGradGradGradGradGradGradGradGradGradGrad

                          Input orientation:                          
 ---------------------------------------------------------------------
 Center     Atomic      Atomic             Coordinates (Angstroms)
 Number     Number       Type             X           Y           Z
 ---------------------------------------------------------------------
      1         16           0        0.000000    0.000000    0.559398
      2         17           0        0.000000    2.348203    0.527695
      3         17           0        1.669572    0.000000   -0.790941
      4         17           0       -1.669572    0.000000   -0.790941
      5         17           0        0.000000   -2.348203    0.527695
 ---------------------------------------------------------------------
                    Distance matrix (angstroms):
                    1          2          3          4          5
     1  S    0.000000
     2  Cl   2.348417   0.000000
     3  Cl   2.147297   3.168648   0.000000
     4  Cl   2.147297   3.168648   3.339144   0.000000
     5  Cl   2.348417   4.696406   3.168648   3.168648   0.000000
 Stoichiometry    Cl4S
 Framework group  C2V[C2(S),SGV(Cl2),SGV'(Cl2)]
 Deg. of freedom     4
 Full point group                 C2V     NOp   4
 Largest Abelian subgroup         C2V     NOp   4
 Largest concise Abelian subgroup C2V     NOp   4
                         Standard orientation:                         
 ---------------------------------------------------------------------
 Center     Atomic      Atomic             Coordinates (Angstroms)
 Number     Number       Type             X           Y           Z
 ---------------------------------------------------------------------
      1         16           0        0.000000    0.000000    0.559398
      2         17           0        0.000000    2.348203    0.527695
      3         17           0        1.669572   -0.000000   -0.790941
      4         17           0       -1.669572    0.000000   -0.790941
      5         17           0       -0.000000   -2.348203    0.527695
 ---------------------------------------------------------------------
 Rotational constants (GHZ):           1.8844786           1.1013532           0.8704579
 Standard basis: CC-pVDZ (5D, 7F)
 There are    38 symmetry adapted cartesian basis functions of A1  symmetry.
 There are    11 symmetry adapted cartesian basis functions of A2  symmetry.
 There are    23 symmetry adapted cartesian basis functions of B1  symmetry.
 There are    23 symmetry adapted cartesian basis functions of B2  symmetry.
 There are    35 symmetry adapted basis functions of A1  symmetry.
 There are    11 symmetry adapted basis functions of A2  symmetry.
 There are    22 symmetry adapted basis functions of B1  symmetry.
 There are    22 symmetry adapted basis functions of B2  symmetry.
    90 basis functions,   355 primitive gaussians,    95 cartesian basis functions
    42 alpha electrons       42 beta electrons
       nuclear repulsion energy       528.0643776677 Hartrees.
 NAtoms=    5 NActive=    5 NUniq=    3 SFac= 2.78D+00 NAtFMM=   60 NAOKFM=F Big=F
 Integral buffers will be    131072 words long.
 Raffenetti 1 integral format.
 Two-electron integral symmetry is turned on.
 One-electron integrals computed using PRISM.
 NBasis=    90 RedAO= T EigKep=  1.95D-02  NBF=    35    11    22    22
 NBsUse=    90 1.00D-06 EigRej= -1.00D+00 NBFU=    35    11    22    22
 ExpMin= 1.41D-01 ExpMax= 1.28D+05 ExpMxC= 1.24D+03 IAcc=3 IRadAn=         5 AccDes= 0.00D+00
 Harris functional with IExCor=  205 and IRadAn=       5 diagonalized for initial guess.
 HarFok:  IExCor=  205 AccDes= 0.00D+00 IRadAn=         5 IDoV= 1 UseB2=F ITyADJ=14
 ICtDFT=  3500011 ScaDFX=  1.000000  1.000000  1.000000  1.000000
 FoFCou: FMM=F IPFlag=           0 FMFlag=      100000 FMFlg1=           0
         NFxFlg=           0 DoJE=T BraDBF=F KetDBF=T FulRan=T
         wScrn=  0.000000 ICntrl=       500 IOpCl=  0 I1Cent=   200000004 NGrid=           0
         NMat0=    1 NMatS0=      1 NMatT0=    0 NMatD0=    1 NMtDS0=    0 NMtDT0=    0
 Petite list used in FoFCou.
 Initial guess orbital symmetries:
       Occupied  (B1) (A1) (B2) (A1) (A1) (B1) (A1) (B2) (A1) (A1)
                 (B1) (A1) (B1) (A1) (A2) (B2) (A1) (B2) (A1) (B2)
                 (A2) (B1) (B1) (A1) (B2) (A1) (B1) (B2) (A1) (A1)
                 (B2) (B1) (A1) (A2) (B2) (A1) (B1) (A1) (B1) (B2)
                 (A2) (A1)
       Virtual   (A1) (B1) (B2) (B1) (A2) (A1) (B2) (A1) (A1) (B1)
                 (B2) (A1) (A1) (B2) (B1) (A1) (A2) (B2) (A1) (B1)
                 (A1) (A2) (B2) (B1) (A1) (B1) (A2) (B2) (A1) (A2)
                 (B2) (B1) (A1) (B2) (B1) (B1) (A1) (B2) (A2) (A1)
                 (A2) (B1) (A1) (B2) (B2) (A1) (B1) (A1)
 The electronic state of the initial guess is 1-A1.
 Keep R1 ints in memory in symmetry-blocked form, NReq=10524366.
 Requested convergence on RMS density matrix=1.00D-08 within 128 cycles.
 Requested convergence on MAX density matrix=1.00D-06.
 Requested convergence on             energy=1.00D-06.
 No special actions if energy rises.
 SCF Done:  E(RHF) =  -2235.39724949     A.U. after   14 cycles
            NFock= 14  Conv=0.46D-08     -V/T= 2.0002
 ExpMin= 1.41D-01 ExpMax= 1.28D+05 ExpMxC= 1.24D+03 IAcc=3 IRadAn=         5 AccDes= 0.00D+00
 HarFok:  IExCor=  205 AccDes= 0.00D+00 IRadAn=         5 IDoV=-2 UseB2=F ITyADJ=14
 ICtDFT= 12500011 ScaDFX=  1.000000  1.000000  1.000000  1.000000
 GSVD:  LWork=        -825 too small for GESVD, short by        3500 words or        3500 for optimal perf.
 Range of M.O.s used for correlation:    26    90
 NBasis=    90 NAE=    42 NBE=    42 NFC=    25 NFV=     0
 NROrb=     65 NOA=    17 NOB=    17 NVA=    48 NVB=    48
 Fully direct method using O(ONN) memory.
 JobTyp=1 Pass  1:  I=  26 to  42 NPSUse=  1 ParTrn=F ParDer=F DoDerP=T.
 Spin components of T(2) and E(2):
     alpha-alpha T2 =       0.4066220254D-01 E2=     -0.9642656362D-01
     alpha-beta  T2 =       0.2250684312D+00 E2=     -0.5200791730D+00
     beta-beta   T2 =       0.4066220254D-01 E2=     -0.9642656362D-01
 ANorm=    0.1142975431D+01
 E2 =    -0.7129323002D+00 EUMP2 =    -0.22361101817949D+04
          IDoAtm=11111
          Differentiating once with respect to electric field.
                with respect to dipole field.
          Differentiating once with respect to nuclear coordinates.
 Keep R1 ints in memory in symmetry-blocked form, NReq=10525250.
          There are     1 degrees of freedom in the 1st order CPHF.  IDoFFX=0 NUNeed=     1.
 LinEq1:  Iter=  0 NonCon=     1 RMS=6.17D-03 Max=1.28D-01 NDo=     1
 AX will form     1 AO Fock derivatives at one time.
 LinEq1:  Iter=  1 NonCon=     1 RMS=2.04D-03 Max=3.47D-02 NDo=     1
 LinEq1:  Iter=  2 NonCon=     1 RMS=8.01D-04 Max=9.24D-03 NDo=     1
 LinEq1:  Iter=  3 NonCon=     1 RMS=2.52D-04 Max=3.72D-03 NDo=     1
 LinEq1:  Iter=  4 NonCon=     1 RMS=5.95D-05 Max=1.23D-03 NDo=     1
 LinEq1:  Iter=  5 NonCon=     1 RMS=1.75D-05 Max=2.41D-04 NDo=     1
 LinEq1:  Iter=  6 NonCon=     1 RMS=4.02D-06 Max=8.35D-05 NDo=     1
 LinEq1:  Iter=  7 NonCon=     1 RMS=8.31D-07 Max=1.33D-05 NDo=     1
 LinEq1:  Iter=  8 NonCon=     1 RMS=2.61D-07 Max=4.44D-06 NDo=     1
 LinEq1:  Iter=  9 NonCon=     1 RMS=5.08D-08 Max=5.41D-07 NDo=     1
 LinEq1:  Iter= 10 NonCon=     1 RMS=1.23D-08 Max=1.83D-07 NDo=     1
 LinEq1:  Iter= 11 NonCon=     1 RMS=3.60D-09 Max=7.09D-08 NDo=     1
 LinEq1:  Iter= 12 NonCon=     1 RMS=8.15D-10 Max=8.29D-09 NDo=     1
 LinEq1:  Iter= 13 NonCon=     1 RMS=1.32D-10 Max=2.41D-09 NDo=     1
 LinEq1:  Iter= 14 NonCon=     0 RMS=2.26D-11 Max=4.17D-10 NDo=     1
 Linear equations converged to 1.000D-10 1.000D-09 after    14 iterations.
 End of Minotr F.D. properties file   721 does not exist.
 End of Minotr F.D. properties file   722 does not exist.
 End of Minotr F.D. properties file   788 does not exist.

 **********************************************************************

            Population analysis using the SCF Density.

 **********************************************************************

 Orbital symmetries:
       Occupied  (B1) (A1) (B2) (A1) (A1) (B1) (A1) (B2) (A1) (A1)
                 (B1) (A1) (B1) (A1) (A2) (B2) (A1) (B2) (B1) (A2)
                 (A1) (B2) (B1) (B2) (A1) (A1) (B1) (A1) (B2) (A1)
                 (B1) (B2) (A1) (A2) (A1) (B1) (B2) (B1) (A1) (B2)
                 (A2) (A1)
       Virtual   (A1) (B1) (B2) (B1) (A1) (A2) (A1) (B2) (A1) (B1)
                 (A1) (A1) (B2) (B2) (A1) (B1) (A2) (B1) (B2) (A1)
                 (A1) (B2) (A2) (B1) (A1) (B1) (A2) (B2) (A1) (B1)
                 (B1) (B2) (A2) (A1) (B2) (A1) (B1) (A2) (A1) (B2)
                 (A2) (A1) (B1) (B2) (B1) (B2) (A1) (A1)
 The electronic state is 1-A1.
 Alpha  occ. eigenvalues -- -104.93305-104.93305-104.82598-104.82598 -92.25646
 Alpha  occ. eigenvalues --  -10.65697 -10.65695 -10.55083 -10.55082  -9.23498
 Alpha  occ. eigenvalues --   -8.12456  -8.12456  -8.11974  -8.11974  -8.11952
 Alpha  occ. eigenvalues --   -8.11952  -8.01790  -8.01790  -8.01478  -8.01478
 Alpha  occ. eigenvalues --   -8.01472  -8.01472  -6.91321  -6.91314  -6.91144
 Alpha  occ. eigenvalues --   -1.24967  -1.16006  -1.07659  -1.07114  -0.96553
 Alpha  occ. eigenvalues --   -0.65747  -0.63719  -0.63711  -0.55378  -0.53677
 Alpha  occ. eigenvalues --   -0.52363  -0.51942  -0.45281  -0.44992  -0.44948
 Alpha  occ. eigenvalues --   -0.44663  -0.39962
 Alpha virt. eigenvalues --   -0.05251  -0.03582  -0.01152   0.47405   0.51756
 Alpha virt. eigenvalues --    0.52987   0.53811   0.54583   0.59358   0.62514
 Alpha virt. eigenvalues --    0.66079   0.66682   0.67146   0.69013   0.71344
 Alpha virt. eigenvalues --    0.72174   0.72294   0.76839   0.79070   0.80268
 Alpha virt. eigenvalues --    0.81180   0.81521   0.82459   0.83818   0.88068
 Alpha virt. eigenvalues --    0.90568   0.90944   0.91270   0.91890   0.92682
 Alpha virt. eigenvalues --    0.95729   0.96557   0.96927   0.99303   0.99395
 Alpha virt. eigenvalues --    0.99757   1.01588   1.04709   1.04821   1.06155
 Alpha virt. eigenvalues --    1.07527   1.14609   1.14796   1.17187   1.45218
 Alpha virt. eigenvalues --    1.45613   1.48040   1.57112
          Condensed to atoms (all electrons):
               1          2          3          4          5
     1  S   14.899108   0.087898   0.178801   0.178801   0.087898
     2  Cl   0.087898  17.341197  -0.046992  -0.046992   0.004563
     3  Cl   0.178801  -0.046992  16.883799  -0.024544  -0.046992
     4  Cl   0.178801  -0.046992  -0.024544  16.883799  -0.046992
     5  Cl   0.087898   0.004563  -0.046992  -0.046992  17.341197
 Mulliken charges:
               1
     1  S    0.567494
     2  Cl  -0.339675
     3  Cl   0.055928
     4  Cl   0.055928
     5  Cl  -0.339675
 Sum of Mulliken charges =   0.00000
 Mulliken charges with hydrogens summed into heavy atoms:
               1
     1  S    0.567494
     2  Cl  -0.339675
     3  Cl   0.055928
     4  Cl   0.055928
     5  Cl  -0.339675
 Electronic spatial extent (au):  <R**2>=           1283.9951
 Charge=             -0.0000 electrons
 Dipole moment (field-independent basis, Debye):
    X=             -0.0000    Y=              0.0000    Z=             -0.7945  Tot=              0.7945
 Quadrupole moment (field-independent basis, Debye-Ang):
   XX=            -59.1995   YY=            -78.3711   ZZ=            -62.0447
   XY=             -0.0000   XZ=              0.0000   YZ=             -0.0000
 Traceless Quadrupole moment (field-independent basis, Debye-Ang):
   XX=              7.3389   YY=            -11.8327   ZZ=              4.4937
   XY=             -0.0000   XZ=              0.0000   YZ=             -0.0000
 Octapole moment (field-independent basis, Debye-Ang**2):
  XXX=             -0.0000  YYY=              0.0000  ZZZ=             -6.4231  XYY=              0.0000
  XXY=             -0.0000  XXZ=             -9.8671  XZZ=              0.0000  YZZ=             -0.0000
  YYZ=             -8.5085  XYZ=             -0.0000
 Hexadecapole moment (field-independent basis, Debye-Ang**3):
 XXXX=           -442.5255 YYYY=           -972.2037 ZZZZ=           -224.2819 XXXY=             -0.0000
 XXXZ=              0.0000 YYYX=             -0.0000 YYYZ=             -0.0000 ZZZX=              0.0000
 ZZZY=              0.0000 XXYY=           -243.2942 XXZZ=           -101.1681 YYZZ=           -204.4967
 XXYZ=              0.0000 YYXZ=              0.0000 ZZXY=             -0.0000
 N-N= 5.280643776677D+02 E-N=-6.376440270774D+03  KE= 2.235061256509D+03
 Symmetry A1   KE= 1.150931487482D+03
 Symmetry A2   KE= 9.171598440081D+01
 Symmetry B1   KE= 4.965286182271D+02
 Symmetry B2   KE= 4.958851663997D+02
 Calling FoFJK, ICntrl=  10002127 FMM=F ISym2X=1 I1Cent= 0 IOpClX= 0 NMat=1 NMatS=1 NMatT=0.
 ***** Axes restored to original set *****
 -------------------------------------------------------------------
 Center     Atomic                   Forces (Hartrees/Bohr)
 Number     Number              X              Y              Z
 -------------------------------------------------------------------
      1       16          -0.000000000   -0.000000000   -0.043646219
      2       17          -0.000000000   -0.011340096    0.003820764
      3       17          -0.020131142    0.000000000    0.018002345
      4       17           0.020131142    0.000000000    0.018002345
      5       17           0.000000000    0.011340096    0.003820764
 -------------------------------------------------------------------
 Cartesian Forces:  Max     0.043646219 RMS     0.015599314

 GradGradGradGradGradGradGradGradGradGradGradGradGradGradGradGradGradGrad
 Berny optimization.
 FormGI is forming the generalized inverse of G from B-inverse, IUseBI=4.
 Internal  Forces:  Max     0.026973283 RMS     0.012112788
 Search for a local minimum.
 Step number   1 out of a maximum of   23
 All quantities printed in internal units (Hartrees-Bohrs-Radians)
 Mixed Optimization -- RFO/linear search
 Second derivative matrix not updated -- first step.
 The second derivative matrix:
                          R1        R2        R3        R4        A1
           R1           0.13028
           R2           0.00000   0.22010
           R3           0.00000   0.00000   0.22010
           R4           0.00000   0.00000   0.00000   0.13028
           A1           0.00000   0.00000   0.00000   0.00000   0.25000
           A2           0.00000   0.00000   0.00000   0.00000   0.00000
           A3           0.00000   0.00000   0.00000   0.00000   0.00000
           A4           0.00000   0.00000   0.00000   0.00000   0.00000
           A5           0.00000   0.00000   0.00000   0.00000   0.00000
           A6           0.00000   0.00000   0.00000   0.00000   0.00000
           A7           0.00000   0.00000   0.00000   0.00000   0.00000
           D1           0.00000   0.00000   0.00000   0.00000   0.00000
           D2           0.00000   0.00000   0.00000   0.00000   0.00000
                          A2        A3        A4        A5        A6
           A2           0.25000
           A3           0.00000   0.25000
           A4           0.00000   0.00000   0.25000
           A5           0.00000   0.00000   0.00000   0.25000
           A6           0.00000   0.00000   0.00000   0.00000   0.00230
           A7           0.00000   0.00000   0.00000   0.00000   0.00000
           D1           0.00000   0.00000   0.00000   0.00000   0.00000
           D2           0.00000   0.00000   0.00000   0.00000   0.00000
                          A7        D1        D2
           A7           0.00230
           D1           0.00000   0.00230
           D2           0.00000   0.00000   0.00230
 ITU=  0
     Eigenvalues ---    0.06315   0.09109   0.12619   0.13028   0.13028
     Eigenvalues ---    0.17726   0.22010   0.22010   0.25000
 RFO step:  Lambda=-1.05031990D-02 EMin= 6.31488275D-02
 Linear search not attempted -- first point.
 Iteration  1 RMS(Cart)=  0.08592864 RMS(Int)=  0.00438760
 Iteration  2 RMS(Cart)=  0.00440168 RMS(Int)=  0.00059878
 Iteration  3 RMS(Cart)=  0.00000471 RMS(Int)=  0.00059878
 Iteration  4 RMS(Cart)=  0.00000000 RMS(Int)=  0.00059878
 ClnCor:  largest displacement from symmetrization is 3.41D-03 for atom     3.
 Variable       Old X    -DE/DX   Delta X   Delta X   Delta X     New X
                                 (Linear)    (Quad)   (Total)
    R1        4.43786  -0.01139   0.00000  -0.08091  -0.08215   4.35572
    R2        4.05780  -0.02697   0.00000  -0.11697  -0.11739   3.94042
    R3        4.05780  -0.02697   0.00000  -0.11697  -0.11739   3.94042
    R4        4.43786  -0.01139   0.00000  -0.08091  -0.08215   4.35572
    A1        1.56231   0.00189   0.00000   0.04171   0.04296   1.60526
    A2        1.56231   0.00337   0.00000   0.04371   0.04296   1.60526
    A3        1.78143   0.00273   0.00000   0.01904   0.01776   1.79919
    A4        1.56231   0.00460   0.00000   0.04432   0.04296   1.60526
    A5        1.56231   0.00395   0.00000   0.04426   0.04296   1.60526
    A6        3.12461   0.00649   0.00000   0.08603   0.08591   3.21053
    A7        3.16259  -0.00881   0.00000  -0.10795  -0.10785   3.05474
    D1        1.56030   0.00262   0.00000   0.05180   0.05393   1.61422
    D2       -1.78152  -0.00264   0.00000  -0.01812  -0.01917  -1.80069
         Item               Value     Threshold  Converged?
 Maximum Force            0.026973     0.000450     NO 
 RMS     Force            0.012113     0.000300     NO 
 Maximum Displacement     0.161277     0.001800     NO 
 RMS     Displacement     0.086693     0.001200     NO 
 Predicted change in Energy=-5.645782D-03
 GradGradGradGradGradGradGradGradGradGradGradGradGradGradGradGradGradGrad

                          Input orientation:                          
 ---------------------------------------------------------------------
 Center     Atomic      Atomic             Coordinates (Angstroms)
 Number     Number       Type             X           Y           Z
 ---------------------------------------------------------------------
      1         16           0        0.000000   -0.000000    0.474054
      2         17           0        0.000000    2.301405    0.601767
      3         17           0        1.632853   -0.000000   -0.822772
      4         17           0       -1.632853    0.000000   -0.822772
      5         17           0       -0.000000   -2.301405    0.601767
 ---------------------------------------------------------------------
                    Distance matrix (angstroms):
                    1          2          3          4          5
     1  S    0.000000
     2  Cl   2.304946   0.000000
     3  Cl   2.085178   3.161010   0.000000
     4  Cl   2.085178   3.161010   3.265707   0.000000
     5  Cl   2.304946   4.602810   3.161010   3.161010   0.000000
 Stoichiometry    Cl4S
 Framework group  C2V[C2(S),SGV(Cl2),SGV'(Cl2)]
 Deg. of freedom     4
 Full point group                 C2V     NOp   4
 Largest Abelian subgroup         C2V     NOp   4
 Largest concise Abelian subgroup C2V     NOp   4
                         Standard orientation:                         
 ---------------------------------------------------------------------
 Center     Atomic      Atomic             Coordinates (Angstroms)
 Number     Number       Type             X           Y           Z
 ---------------------------------------------------------------------
      1         16           0        0.000000    0.000000    0.473212
      2         17           0        0.000000    2.301405    0.600925
      3         17           0        1.632853   -0.000000   -0.823614
      4         17           0       -1.632853    0.000000   -0.823614
      5         17           0       -0.000000   -2.301405    0.600925
 ---------------------------------------------------------------------
 Rotational constants (GHZ):           1.8976115           1.1223718           0.9075005
 Standard basis: CC-pVDZ (5D, 7F)
 There are    38 symmetry adapted cartesian basis functions of A1  symmetry.
 There are    11 symmetry adapted cartesian basis functions of A2  symmetry.
 There are    23 symmetry adapted cartesian basis functions of B1  symmetry.
 There are    23 symmetry adapted cartesian basis functions of B2  symmetry.
 There are    35 symmetry adapted basis functions of A1  symmetry.
 There are    11 symmetry adapted basis functions of A2  symmetry.
 There are    22 symmetry adapted basis functions of B1  symmetry.
 There are    22 symmetry adapted basis functions of B2  symmetry.
    90 basis functions,   355 primitive gaussians,    95 cartesian basis functions
    42 alpha electrons       42 beta electrons
       nuclear repulsion energy       536.5286652628 Hartrees.
 NAtoms=    5 NActive=    5 NUniq=    3 SFac= 2.78D+00 NAtFMM=   60 NAOKFM=F Big=F
 Integral buffers will be    131072 words long.
 Raffenetti 1 integral format.
 Two-electron integral symmetry is turned on.
 One-electron integrals computed using PRISM.
 NBasis=    90 RedAO= T EigKep=  1.72D-02  NBF=    35    11    22    22
 NBsUse=    90 1.00D-06 EigRej= -1.00D+00 NBFU=    35    11    22    22
 Initial guess from the checkpoint file:  "SCl4_MP2_cc-pVDZ.chk"
 B after Tr=     0.000000    0.000000    0.000000
         Rot=    1.000000   -0.000000   -0.000000    0.000000 Ang=   0.00 deg.
 Initial guess orbital symmetries:
       Occupied  (B1) (A1) (B2) (A1) (A1) (B1) (A1) (B2) (A1) (A1)
                 (B1) (A1) (B1) (A1) (A2) (B2) (A1) (B2) (B1) (A2)
                 (A1) (B2) (B1) (B2) (A1) (A1) (B1) (A1) (B2) (A1)
                 (B1) (B2) (A1) (A2) (A1) (B1) (B2) (B1) (A1) (B2)
                 (A2) (A1)
       Virtual   (A1) (B1) (B2) (B1) (A1) (A2) (A1) (B2) (A1) (B1)
                 (A1) (A1) (B2) (B2) (A1) (B1) (A2) (B1) (B2) (A1)
                 (A1) (B2) (A2) (B1) (A1) (B1) (A2) (B2) (A1) (B1)
                 (B1) (B2) (A2) (A1) (B2) (A1) (B1) (A2) (A1) (B2)
                 (A2) (A1) (B1) (B2) (B1) (B2) (A1) (A1)
 ExpMin= 1.41D-01 ExpMax= 1.28D+05 ExpMxC= 1.24D+03 IAcc=3 IRadAn=         5 AccDes= 0.00D+00
 Harris functional with IExCor=  205 and IRadAn=       5 diagonalized for initial guess.
 HarFok:  IExCor=  205 AccDes= 0.00D+00 IRadAn=         5 IDoV= 1 UseB2=F ITyADJ=14
 ICtDFT=  3500011 ScaDFX=  1.000000  1.000000  1.000000  1.000000
 FoFCou: FMM=F IPFlag=           0 FMFlag=      100000 FMFlg1=           0
         NFxFlg=           0 DoJE=T BraDBF=F KetDBF=T FulRan=T
         wScrn=  0.000000 ICntrl=       500 IOpCl=  0 I1Cent=   200000004 NGrid=           0
         NMat0=    1 NMatS0=      1 NMatT0=    0 NMatD0=    1 NMtDS0=    0 NMtDT0=    0
 Petite list used in FoFCou.
 Keep R1 ints in memory in symmetry-blocked form, NReq=10524366.
 Requested convergence on RMS density matrix=1.00D-08 within 128 cycles.
 Requested convergence on MAX density matrix=1.00D-06.
 Requested convergence on             energy=1.00D-06.
 No special actions if energy rises.
 SCF Done:  E(RHF) =  -2235.40753930     A.U. after   13 cycles
            NFock= 13  Conv=0.36D-08     -V/T= 2.0000
 ExpMin= 1.41D-01 ExpMax= 1.28D+05 ExpMxC= 1.24D+03 IAcc=3 IRadAn=         5 AccDes= 0.00D+00
 HarFok:  IExCor=  205 AccDes= 0.00D+00 IRadAn=         5 IDoV=-2 UseB2=F ITyADJ=14
 ICtDFT= 12500011 ScaDFX=  1.000000  1.000000  1.000000  1.000000
 GSVD:  LWork=        -825 too small for GESVD, short by        3500 words or        3500 for optimal perf.
 Range of M.O.s used for correlation:    26    90
 NBasis=    90 NAE=    42 NBE=    42 NFC=    25 NFV=     0
 NROrb=     65 NOA=    17 NOB=    17 NVA=    48 NVB=    48
 Fully direct method using O(ONN) memory.
 JobTyp=1 Pass  1:  I=  26 to  42 NPSUse=  1 ParTrn=F ParDer=F DoDerP=T.
 Spin components of T(2) and E(2):
     alpha-alpha T2 =       0.4045166980D-01 E2=     -0.9683213523D-01
     alpha-beta  T2 =       0.2186730819D+00 E2=     -0.5162543495D+00
     beta-beta   T2 =       0.4045166980D-01 E2=     -0.9683213523D-01
 ANorm=    0.1139989658D+01
 E2 =    -0.7099186199D+00 EUMP2 =    -0.22361174579174D+04
          IDoAtm=11111
          Differentiating once with respect to electric field.
                with respect to dipole field.
          Differentiating once with respect to nuclear coordinates.
 Keep R1 ints in memory in symmetry-blocked form, NReq=10525250.
          There are     1 degrees of freedom in the 1st order CPHF.  IDoFFX=0 NUNeed=     1.
 LinEq1:  Iter=  0 NonCon=     1 RMS=6.02D-03 Max=1.26D-01 NDo=     1
 AX will form     1 AO Fock derivatives at one time.
 LinEq1:  Iter=  1 NonCon=     1 RMS=1.98D-03 Max=3.32D-02 NDo=     1
 LinEq1:  Iter=  2 NonCon=     1 RMS=7.61D-04 Max=1.15D-02 NDo=     1
 LinEq1:  Iter=  3 NonCon=     1 RMS=2.33D-04 Max=3.58D-03 NDo=     1
 LinEq1:  Iter=  4 NonCon=     1 RMS=5.62D-05 Max=1.15D-03 NDo=     1
 LinEq1:  Iter=  5 NonCon=     1 RMS=1.65D-05 Max=2.42D-04 NDo=     1
 LinEq1:  Iter=  6 NonCon=     1 RMS=4.12D-06 Max=6.36D-05 NDo=     1
 LinEq1:  Iter=  7 NonCon=     1 RMS=8.06D-07 Max=1.55D-05 NDo=     1
 LinEq1:  Iter=  8 NonCon=     1 RMS=2.32D-07 Max=4.14D-06 NDo=     1
 LinEq1:  Iter=  9 NonCon=     1 RMS=4.43D-08 Max=5.41D-07 NDo=     1
 LinEq1:  Iter= 10 NonCon=     1 RMS=1.07D-08 Max=1.59D-07 NDo=     1
 LinEq1:  Iter= 11 NonCon=     1 RMS=2.90D-09 Max=5.28D-08 NDo=     1
 LinEq1:  Iter= 12 NonCon=     1 RMS=6.42D-10 Max=6.17D-09 NDo=     1
 LinEq1:  Iter= 13 NonCon=     1 RMS=1.03D-10 Max=1.87D-09 NDo=     1
 LinEq1:  Iter= 14 NonCon=     0 RMS=1.75D-11 Max=3.06D-10 NDo=     1
 Linear equations converged to 1.000D-10 1.000D-09 after    14 iterations.
 End of Minotr F.D. properties file   721 does not exist.
 End of Minotr F.D. properties file   722 does not exist.
 End of Minotr F.D. properties file   788 does not exist.
 Calling FoFJK, ICntrl=  10002127 FMM=F ISym2X=1 I1Cent= 0 IOpClX= 0 NMat=1 NMatS=1 NMatT=0.
 ***** Axes restored to original set *****
 -------------------------------------------------------------------
 Center     Atomic                   Forces (Hartrees/Bohr)
 Number     Number              X              Y              Z
 -------------------------------------------------------------------
      1       16          -0.000000000    0.000000000   -0.015909439
      2       17           0.000000000   -0.003267362   -0.000095240
      3       17          -0.010516091    0.000000000    0.008049960
      4       17           0.010516091    0.000000000    0.008049960
      5       17           0.000000000    0.003267362   -0.000095240
 -------------------------------------------------------------------
 Cartesian Forces:  Max     0.015909439 RMS     0.006456313

 GradGradGradGradGradGradGradGradGradGradGradGradGradGradGradGradGradGrad
 Berny optimization.
 Using GEDIIS/GDIIS optimizer.
 FormGI is forming the generalized inverse of G from B-inverse, IUseBI=4.
 Internal  Forces:  Max     0.013241378 RMS     0.005353318
 Search for a local minimum.
 Step number   2 out of a maximum of   23
 All quantities printed in internal units (Hartrees-Bohrs-Radians)
 Mixed Optimization -- RFO/linear search
 Update second derivatives using D2CorX and points    1    2
 DE= -7.28D-03 DEPred=-5.65D-03 R= 1.29D+00
 TightC=F SS=  1.41D+00  RLast= 2.67D-01 DXNew= 5.0454D-01 7.9961D-01
 Trust test= 1.29D+00 RLast= 2.67D-01 DXMaxT set to 5.05D-01
 The second derivative matrix:
                          R1        R2        R3        R4        A1
           R1           0.12821
           R2          -0.01197   0.17945
           R3          -0.01197  -0.04065   0.17945
           R4          -0.00207  -0.01197  -0.01197   0.12821
           A1           0.00955   0.02463   0.02463   0.00955   0.23873
           A2           0.00784   0.02175   0.02175   0.00784  -0.01089
           A3           0.00106   0.00531   0.00531   0.00106  -0.00401
           A4           0.00642   0.01934   0.01934   0.00642  -0.01057
           A5           0.00718   0.02063   0.02063   0.00718  -0.01074
           A6          -0.00727  -0.01213  -0.01213  -0.00727   0.00148
           A7           0.00992   0.01658   0.01658   0.00992  -0.00204
           D1          -0.00291  -0.00483  -0.00483  -0.00291   0.00056
           D2           0.00362   0.00609   0.00609   0.00362  -0.00078
                          A2        A3        A4        A5        A6
           A2           0.23980
           A3          -0.00334   0.24948
           A4          -0.00962  -0.00278   0.24116
           A5          -0.00993  -0.00308  -0.00926   0.24038
           A6           0.00281   0.00286   0.00392   0.00332   0.00813
           A7          -0.00385  -0.00390  -0.00535  -0.00455  -0.00793
           D1           0.00110   0.00114   0.00155   0.00130   0.00237
           D2          -0.00143  -0.00142  -0.00198  -0.00169  -0.00286
                          A7        D1        D2
           A7           0.01310
           D1          -0.00323   0.00326
           D2           0.00389  -0.00116   0.00370
 ITU=  1  0
 Use linear search instead of GDIIS.
     Eigenvalues ---    0.07123   0.09307   0.10686   0.12928   0.13028
     Eigenvalues ---    0.15758   0.17744   0.22010   0.25000
 RFO step:  Lambda=-1.16859340D-03 EMin= 7.12306767D-02
 Quartic linear search produced a step of  0.44195.
 Iteration  1 RMS(Cart)=  0.04043542 RMS(Int)=  0.00027809
 Iteration  2 RMS(Cart)=  0.00011206 RMS(Int)=  0.00026465
 Iteration  3 RMS(Cart)=  0.00000003 RMS(Int)=  0.00026465
 ClnCor:  largest displacement from symmetrization is 1.66D-03 for atom     3.
 Variable       Old X    -DE/DX   Delta X   Delta X   Delta X     New X
                                 (Linear)    (Quad)   (Total)
    R1        4.35572  -0.00327  -0.03631  -0.00203  -0.03889   4.31682
    R2        3.94042  -0.01324  -0.05188  -0.04214  -0.09459   3.84583
    R3        3.94042  -0.01324  -0.05188  -0.04214  -0.09459   3.84583
    R4        4.35572  -0.00327  -0.03631  -0.00203  -0.03889   4.31682
    A1        1.60526   0.00005   0.01898  -0.02226  -0.00247   1.60279
    A2        1.60526   0.00008   0.01898  -0.02089  -0.00247   1.60279
    A3        1.79919  -0.00047   0.00785  -0.01544  -0.00810   1.79109
    A4        1.60526   0.00011   0.01898  -0.02095  -0.00247   1.60279
    A5        1.60526   0.00012   0.01898  -0.02071  -0.00247   1.60279
    A6        3.21053   0.00016   0.03797  -0.04321  -0.00495   3.20558
    A7        3.05474  -0.00020  -0.04766   0.05424   0.00691   3.06165
    D1        1.61422   0.00005   0.02383  -0.02845  -0.00345   1.61077
    D2       -1.80069   0.00046  -0.00847   0.01728   0.00832  -1.79237
         Item               Value     Threshold  Converged?
 Maximum Force            0.013241     0.000450     NO 
 RMS     Force            0.005353     0.000300     NO 
 Maximum Displacement     0.083783     0.001800     NO 
 RMS     Displacement     0.040709     0.001200     NO 
 Predicted change in Energy=-1.495905D-03
 GradGradGradGradGradGradGradGradGradGradGradGradGradGradGradGradGradGrad

                          Input orientation:                          
 ---------------------------------------------------------------------
 Center     Atomic      Atomic             Coordinates (Angstroms)
 Number     Number       Type             X           Y           Z
 ---------------------------------------------------------------------
      1         16           0       -0.000000    0.000000    0.468486
      2         17           0        0.000000    2.281371    0.585382
      3         17           0        1.588517   -0.000000   -0.803656
      4         17           0       -1.588517    0.000000   -0.803656
      5         17           0       -0.000000   -2.281371    0.585382
 ---------------------------------------------------------------------
                    Distance matrix (angstroms):
                    1          2          3          4          5
     1  S    0.000000
     2  Cl   2.284364   0.000000
     3  Cl   2.035124   3.107647   0.000000
     4  Cl   2.035124   3.107647   3.177034   0.000000
     5  Cl   2.284364   4.562742   3.107647   3.107647   0.000000
 Stoichiometry    Cl4S
 Framework group  C2V[C2(S),SGV(Cl2),SGV'(Cl2)]
 Deg. of freedom     4
 Full point group                 C2V     NOp   4
 Largest Abelian subgroup         C2V     NOp   4
 Largest concise Abelian subgroup C2V     NOp   4
                         Standard orientation:                         
 ---------------------------------------------------------------------
 Center     Atomic      Atomic             Coordinates (Angstroms)
 Number     Number       Type             X           Y           Z
 ---------------------------------------------------------------------
      1         16           0        0.000000    0.000000    0.467599
      2         17           0        0.000000    2.281371    0.584496
      3         17           0        1.588517   -0.000000   -0.804542
      4         17           0       -1.588517    0.000000   -0.804542
      5         17           0       -0.000000   -2.281371    0.584496
 ---------------------------------------------------------------------
 Rotational constants (GHZ):           2.0004514           1.1481865           0.9350534
 Standard basis: CC-pVDZ (5D, 7F)
 There are    38 symmetry adapted cartesian basis functions of A1  symmetry.
 There are    11 symmetry adapted cartesian basis functions of A2  symmetry.
 There are    23 symmetry adapted cartesian basis functions of B1  symmetry.
 There are    23 symmetry adapted cartesian basis functions of B2  symmetry.
 There are    35 symmetry adapted basis functions of A1  symmetry.
 There are    11 symmetry adapted basis functions of A2  symmetry.
 There are    22 symmetry adapted basis functions of B1  symmetry.
 There are    22 symmetry adapted basis functions of B2  symmetry.
    90 basis functions,   355 primitive gaussians,    95 cartesian basis functions
    42 alpha electrons       42 beta electrons
       nuclear repulsion energy       545.9713556391 Hartrees.
 NAtoms=    5 NActive=    5 NUniq=    3 SFac= 2.78D+00 NAtFMM=   60 NAOKFM=F Big=F
 Integral buffers will be    131072 words long.
 Raffenetti 1 integral format.
 Two-electron integral symmetry is turned on.
 One-electron integrals computed using PRISM.
 NBasis=    90 RedAO= T EigKep=  1.53D-02  NBF=    35    11    22    22
 NBsUse=    90 1.00D-06 EigRej= -1.00D+00 NBFU=    35    11    22    22
 Initial guess from the checkpoint file:  "SCl4_MP2_cc-pVDZ.chk"
 B after Tr=     0.000000    0.000000   -0.000000
         Rot=    1.000000    0.000000    0.000000    0.000000 Ang=   0.00 deg.
 Initial guess orbital symmetries:
       Occupied  (B1) (A1) (B2) (A1) (A1) (B1) (A1) (B2) (A1) (A1)
                 (B1) (A1) (B1) (A1) (A2) (B2) (A1) (B2) (B1) (A2)
                 (A1) (B2) (B2) (B1) (A1) (A1) (B1) (A1) (B2) (A1)
                 (B1) (A1) (B2) (A2) (A1) (B1) (B2) (B1) (A1) (B2)
                 (A2) (A1)
       Virtual   (A1) (B1) (B2) (B1) (A1) (A2) (A1) (B2) (A1) (B1)
                 (A1) (A1) (B2) (B2) (A1) (A2) (B1) (B1) (B2) (A1)
                 (A1) (B2) (A2) (B1) (A1) (A2) (B1) (B2) (B1) (A1)
                 (B1) (B2) (A2) (B2) (A1) (A1) (B1) (A2) (A1) (B2)
                 (A2) (B1) (A1) (B2) (B1) (B2) (A1) (A1)
 ExpMin= 1.41D-01 ExpMax= 1.28D+05 ExpMxC= 1.24D+03 IAcc=3 IRadAn=         5 AccDes= 0.00D+00
 Harris functional with IExCor=  205 and IRadAn=       5 diagonalized for initial guess.
 HarFok:  IExCor=  205 AccDes= 0.00D+00 IRadAn=         5 IDoV= 1 UseB2=F ITyADJ=14
 ICtDFT=  3500011 ScaDFX=  1.000000  1.000000  1.000000  1.000000
 FoFCou: FMM=F IPFlag=           0 FMFlag=      100000 FMFlg1=           0
         NFxFlg=           0 DoJE=T BraDBF=F KetDBF=T FulRan=T
         wScrn=  0.000000 ICntrl=       500 IOpCl=  0 I1Cent=   200000004 NGrid=           0
         NMat0=    1 NMatS0=      1 NMatT0=    0 NMatD0=    1 NMtDS0=    0 NMtDT0=    0
 Petite list used in FoFCou.
 Keep R1 ints in memory in symmetry-blocked form, NReq=10524366.
 Requested convergence on RMS density matrix=1.00D-08 within 128 cycles.
 Requested convergence on MAX density matrix=1.00D-06.
 Requested convergence on             energy=1.00D-06.
 No special actions if energy rises.
 SCF Done:  E(RHF) =  -2235.41128151     A.U. after   12 cycles
            NFock= 12  Conv=0.46D-08     -V/T= 1.9999
 ExpMin= 1.41D-01 ExpMax= 1.28D+05 ExpMxC= 1.24D+03 IAcc=3 IRadAn=         5 AccDes= 0.00D+00
 HarFok:  IExCor=  205 AccDes= 0.00D+00 IRadAn=         5 IDoV=-2 UseB2=F ITyADJ=14
 ICtDFT= 12500011 ScaDFX=  1.000000  1.000000  1.000000  1.000000
 GSVD:  LWork=        -825 too small for GESVD, short by        3500 words or        3500 for optimal perf.
 Range of M.O.s used for correlation:    26    90
 NBasis=    90 NAE=    42 NBE=    42 NFC=    25 NFV=     0
 NROrb=     65 NOA=    17 NOB=    17 NVA=    48 NVB=    48
 Fully direct method using O(ONN) memory.
 JobTyp=1 Pass  1:  I=  26 to  42 NPSUse=  1 ParTrn=F ParDer=F DoDerP=T.
 Spin components of T(2) and E(2):
     alpha-alpha T2 =       0.4012803990D-01 E2=     -0.9697714390D-01
     alpha-beta  T2 =       0.2139329469D+00 E2=     -0.5132458409D+00
     beta-beta   T2 =       0.4012803990D-01 E2=     -0.9697714390D-01
 ANorm=    0.1137624291D+01
 E2 =    -0.7072001287D+00 EUMP2 =    -0.22361184816376D+04
          IDoAtm=11111
          Differentiating once with respect to electric field.
                with respect to dipole field.
          Differentiating once with respect to nuclear coordinates.
 Keep R1 ints in memory in symmetry-blocked form, NReq=10525250.
          There are     1 degrees of freedom in the 1st order CPHF.  IDoFFX=0 NUNeed=     1.
 LinEq1:  Iter=  0 NonCon=     1 RMS=5.73D-03 Max=1.21D-01 NDo=     1
 AX will form     1 AO Fock derivatives at one time.
 LinEq1:  Iter=  1 NonCon=     1 RMS=1.85D-03 Max=3.04D-02 NDo=     1
 LinEq1:  Iter=  2 NonCon=     1 RMS=6.99D-04 Max=1.01D-02 NDo=     1
 LinEq1:  Iter=  3 NonCon=     1 RMS=2.01D-04 Max=2.96D-03 NDo=     1
 LinEq1:  Iter=  4 NonCon=     1 RMS=4.39D-05 Max=8.12D-04 NDo=     1
 LinEq1:  Iter=  5 NonCon=     1 RMS=1.27D-05 Max=1.78D-04 NDo=     1
 LinEq1:  Iter=  6 NonCon=     1 RMS=3.22D-06 Max=5.54D-05 NDo=     1
 LinEq1:  Iter=  7 NonCon=     1 RMS=6.28D-07 Max=1.12D-05 NDo=     1
 LinEq1:  Iter=  8 NonCon=     1 RMS=1.79D-07 Max=3.34D-06 NDo=     1
 LinEq1:  Iter=  9 NonCon=     1 RMS=3.41D-08 Max=4.06D-07 NDo=     1
 LinEq1:  Iter= 10 NonCon=     1 RMS=8.08D-09 Max=1.33D-07 NDo=     1
 LinEq1:  Iter= 11 NonCon=     1 RMS=2.14D-09 Max=3.63D-08 NDo=     1
 LinEq1:  Iter= 12 NonCon=     1 RMS=4.74D-10 Max=5.42D-09 NDo=     1
 LinEq1:  Iter= 13 NonCon=     1 RMS=7.01D-11 Max=1.41D-09 NDo=     1
 LinEq1:  Iter= 14 NonCon=     0 RMS=1.28D-11 Max=1.78D-10 NDo=     1
 Linear equations converged to 1.000D-10 1.000D-09 after    14 iterations.
 End of Minotr F.D. properties file   721 does not exist.
 End of Minotr F.D. properties file   722 does not exist.
 End of Minotr F.D. properties file   788 does not exist.
 Calling FoFJK, ICntrl=  10002127 FMM=F ISym2X=1 I1Cent= 0 IOpClX= 0 NMat=1 NMatS=1 NMatT=0.
 ***** Axes restored to original set *****
 -------------------------------------------------------------------
 Center     Atomic                   Forces (Hartrees/Bohr)
 Number     Number              X              Y              Z
 -------------------------------------------------------------------
      1       16           0.000000000   -0.000000000    0.000118078
      2       17           0.000000000    0.002004159    0.001038267
      3       17           0.003409175   -0.000000000   -0.001097306
      4       17          -0.003409175   -0.000000000   -0.001097306
      5       17           0.000000000   -0.002004159    0.001038267
 -------------------------------------------------------------------
 Cartesian Forces:  Max     0.003409175 RMS     0.001546099

 GradGradGradGradGradGradGradGradGradGradGradGradGradGradGradGradGradGrad
 Berny optimization.
 Using GEDIIS/GDIIS optimizer.
 FormGI is forming the generalized inverse of G from B-inverse, IUseBI=4.
 Internal  Forces:  Max     0.003346951 RMS     0.002031107
 Search for a local minimum.
 Step number   3 out of a maximum of   23
 All quantities printed in internal units (Hartrees-Bohrs-Radians)
 Mixed Optimization -- RFO/linear search
 Update second derivatives using D2CorX and points    1    2    3
 DE= -1.02D-03 DEPred=-1.50D-03 R= 6.84D-01
 TightC=F SS=  1.41D+00  RLast= 1.45D-01 DXNew= 8.4853D-01 4.3642D-01
 Trust test= 6.84D-01 RLast= 1.45D-01 DXMaxT set to 5.05D-01
 The second derivative matrix:
                          R1        R2        R3        R4        A1
           R1           0.13408
           R2          -0.00039   0.19650
           R3          -0.00039  -0.02359   0.19650
           R4           0.00380  -0.00039  -0.00039   0.13408
           A1           0.00135  -0.00118  -0.00118   0.00135   0.23282
           A2           0.00107   0.00036   0.00036   0.00107  -0.01572
           A3           0.00133   0.00385   0.00385   0.00133  -0.00755
           A4           0.00087   0.00176   0.00176   0.00087  -0.01450
           A5           0.00081   0.00058   0.00058   0.00081  -0.01511
           A6          -0.00116   0.00689   0.00689  -0.00116   0.00607
           A7           0.00133  -0.01005  -0.01005   0.00133  -0.00824
           D1          -0.00025   0.00335   0.00335  -0.00025   0.00234
           D2          -0.00343  -0.01367  -0.01367  -0.00343  -0.00200
                          A2        A3        A4        A5        A6
           A2           0.23584
           A3          -0.00631   0.24875
           A4          -0.01287  -0.00526   0.23848
           A5          -0.01353  -0.00586  -0.01221   0.23712
           A6           0.00649   0.00531   0.00684   0.00663   0.00423
           A7          -0.00881  -0.00730  -0.00929  -0.00900  -0.00266
           D1           0.00252   0.00217   0.00267   0.00258   0.00084
           D2          -0.00234  -0.00356  -0.00264  -0.00240  -0.00153
                          A7        D1        D2
           A7           0.00597
           D1          -0.00116   0.00267
           D2           0.00220  -0.00073   0.00485
 ITU=  1  1  0
 Use linear search instead of GDIIS.
     Eigenvalues ---    0.06862   0.09198   0.12349   0.13028   0.13940
     Eigenvalues ---    0.17486   0.18409   0.22010   0.25001
 RFO step:  Lambda=-1.60117511D-04 EMin= 6.86172249D-02
 Quartic linear search produced a step of -0.21734.
 Iteration  1 RMS(Cart)=  0.02142241 RMS(Int)=  0.00022543
 Iteration  2 RMS(Cart)=  0.00026475 RMS(Int)=  0.00007343
 Iteration  3 RMS(Cart)=  0.00000003 RMS(Int)=  0.00007343
 ClnCor:  largest displacement from symmetrization is 2.41D-04 for atom     5.
 Variable       Old X    -DE/DX   Delta X   Delta X   Delta X     New X
                                 (Linear)    (Quad)   (Total)
    R1        4.31682   0.00205   0.00845   0.00505   0.01343   4.33025
    R2        3.84583   0.00335   0.02056  -0.00732   0.01328   3.85911
    R3        3.84583   0.00335   0.02056  -0.00732   0.01328   3.85911
    R4        4.31682   0.00205   0.00845   0.00505   0.01343   4.33025
    A1        1.60279   0.00044   0.00054   0.00874   0.00927   1.61206
    A2        1.60279   0.00079   0.00054   0.00885   0.00927   1.61206
    A3        1.79109   0.00243   0.00176   0.01416   0.01585   1.80694
    A4        1.60279   0.00109   0.00054   0.00885   0.00927   1.61206
    A5        1.60279   0.00085   0.00054   0.00885   0.00927   1.61206
    A6        3.20558   0.00154   0.00108   0.01759   0.01855   3.22413
    A7        3.06165  -0.00222  -0.00150  -0.02328  -0.02491   3.03674
    D1        1.61077   0.00073   0.00075   0.01154   0.01246   1.62323
    D2       -1.79237  -0.00251  -0.00181  -0.01489  -0.01673  -1.80910
         Item               Value     Threshold  Converged?
 Maximum Force            0.003347     0.000450     NO 
 RMS     Force            0.002031     0.000300     NO 
 Maximum Displacement     0.034355     0.001800     NO 
 RMS     Displacement     0.021506     0.001200     NO 
 Predicted change in Energy=-1.822789D-04
 GradGradGradGradGradGradGradGradGradGradGradGradGradGradGradGradGradGrad

                          Input orientation:                          
 ---------------------------------------------------------------------
 Center     Atomic      Atomic             Coordinates (Angstroms)
 Number     Number       Type             X           Y           Z
 ---------------------------------------------------------------------
      1         16           0       -0.000000    0.000000    0.450812
      2         17           0        0.000000    2.286373    0.603562
      3         17           0        1.604069   -0.000000   -0.813052
      4         17           0       -1.604069    0.000000   -0.813052
      5         17           0       -0.000000   -2.286373    0.603562
 ---------------------------------------------------------------------
                    Distance matrix (angstroms):
                    1          2          3          4          5
     1  S    0.000000
     2  Cl   2.291470   0.000000
     3  Cl   2.042153   3.131666   0.000000
     4  Cl   2.042153   3.131666   3.208138   0.000000
     5  Cl   2.291470   4.572746   3.131666   3.131666   0.000000
 Stoichiometry    Cl4S
 Framework group  C2V[C2(S),SGV(Cl2),SGV'(Cl2)]
 Deg. of freedom     4
 Full point group                 C2V     NOp   4
 Largest Abelian subgroup         C2V     NOp   4
 Largest concise Abelian subgroup C2V     NOp   4
                         Standard orientation:                         
 ---------------------------------------------------------------------
 Center     Atomic      Atomic             Coordinates (Angstroms)
 Number     Number       Type             X           Y           Z
 ---------------------------------------------------------------------
      1         16           0        0.000000    0.000000    0.449737
      2         17           0        0.000000    2.286373    0.602486
      3         17           0        1.604069   -0.000000   -0.814127
      4         17           0       -1.604069    0.000000   -0.814127
      5         17           0       -0.000000   -2.286373    0.602486
 ---------------------------------------------------------------------
 Rotational constants (GHZ):           1.9576220           1.1387364           0.9263629
 Standard basis: CC-pVDZ (5D, 7F)
 There are    38 symmetry adapted cartesian basis functions of A1  symmetry.
 There are    11 symmetry adapted cartesian basis functions of A2  symmetry.
 There are    23 symmetry adapted cartesian basis functions of B1  symmetry.
 There are    23 symmetry adapted cartesian basis functions of B2  symmetry.
 There are    35 symmetry adapted basis functions of A1  symmetry.
 There are    11 symmetry adapted basis functions of A2  symmetry.
 There are    22 symmetry adapted basis functions of B1  symmetry.
 There are    22 symmetry adapted basis functions of B2  symmetry.
    90 basis functions,   355 primitive gaussians,    95 cartesian basis functions
    42 alpha electrons       42 beta electrons
       nuclear repulsion energy       543.0438870119 Hartrees.
 NAtoms=    5 NActive=    5 NUniq=    3 SFac= 2.78D+00 NAtFMM=   60 NAOKFM=F Big=F
 Integral buffers will be    131072 words long.
 Raffenetti 1 integral format.
 Two-electron integral symmetry is turned on.
 One-electron integrals computed using PRISM.
 NBasis=    90 RedAO= T EigKep=  1.57D-02  NBF=    35    11    22    22
 NBsUse=    90 1.00D-06 EigRej= -1.00D+00 NBFU=    35    11    22    22
 Initial guess from the checkpoint file:  "SCl4_MP2_cc-pVDZ.chk"
 B after Tr=    -0.000000    0.000000    0.000000
         Rot=    1.000000    0.000000    0.000000   -0.000000 Ang=   0.00 deg.
 Initial guess orbital symmetries:
       Occupied  (B1) (A1) (B2) (A1) (A1) (B1) (A1) (B2) (A1) (A1)
                 (B1) (A1) (B1) (A1) (A2) (B2) (A1) (B2) (B1) (A2)
                 (A1) (B2) (B1) (B2) (A1) (A1) (B1) (A1) (B2) (A1)
                 (B1) (A1) (B2) (A2) (A1) (B1) (B2) (B1) (A1) (B2)
                 (A2) (A1)
       Virtual   (A1) (B1) (B2) (B1) (A1) (A2) (A1) (B2) (A1) (B1)
                 (A1) (A1) (B2) (B2) (A1) (A2) (B1) (B1) (B2) (A1)
                 (B2) (A2) (A1) (B1) (A1) (A2) (B1) (B2) (B1) (A1)
                 (B1) (A2) (B2) (B2) (A1) (B1) (A1) (A2) (A1) (B2)
                 (A2) (B1) (A1) (B2) (B2) (B1) (A1) (A1)
 ExpMin= 1.41D-01 ExpMax= 1.28D+05 ExpMxC= 1.24D+03 IAcc=3 IRadAn=         5 AccDes= 0.00D+00
 Harris functional with IExCor=  205 and IRadAn=       5 diagonalized for initial guess.
 HarFok:  IExCor=  205 AccDes= 0.00D+00 IRadAn=         5 IDoV= 1 UseB2=F ITyADJ=14
 ICtDFT=  3500011 ScaDFX=  1.000000  1.000000  1.000000  1.000000
 FoFCou: FMM=F IPFlag=           0 FMFlag=      100000 FMFlg1=           0
         NFxFlg=           0 DoJE=T BraDBF=F KetDBF=T FulRan=T
         wScrn=  0.000000 ICntrl=       500 IOpCl=  0 I1Cent=   200000004 NGrid=           0
         NMat0=    1 NMatS0=      1 NMatT0=    0 NMatD0=    1 NMtDS0=    0 NMtDT0=    0
 Petite list used in FoFCou.
 Keep R1 ints in memory in symmetry-blocked form, NReq=10524366.
 Requested convergence on RMS density matrix=1.00D-08 within 128 cycles.
 Requested convergence on MAX density matrix=1.00D-06.
 Requested convergence on             energy=1.00D-06.
 No special actions if energy rises.
 SCF Done:  E(RHF) =  -2235.41071702     A.U. after   11 cycles
            NFock= 11  Conv=0.43D-08     -V/T= 1.9999
 ExpMin= 1.41D-01 ExpMax= 1.28D+05 ExpMxC= 1.24D+03 IAcc=3 IRadAn=         5 AccDes= 0.00D+00
 HarFok:  IExCor=  205 AccDes= 0.00D+00 IRadAn=         5 IDoV=-2 UseB2=F ITyADJ=14
 ICtDFT= 12500011 ScaDFX=  1.000000  1.000000  1.000000  1.000000
 GSVD:  LWork=        -825 too small for GESVD, short by        3500 words or        3500 for optimal perf.
 Range of M.O.s used for correlation:    26    90
 NBasis=    90 NAE=    42 NBE=    42 NFC=    25 NFV=     0
 NROrb=     65 NOA=    17 NOB=    17 NVA=    48 NVB=    48
 Fully direct method using O(ONN) memory.
 JobTyp=1 Pass  1:  I=  26 to  42 NPSUse=  1 ParTrn=F ParDer=F DoDerP=T.
 Spin components of T(2) and E(2):
     alpha-alpha T2 =       0.4023994761D-01 E2=     -0.9698835324D-01
     alpha-beta  T2 =       0.2150923354D+00 E2=     -0.5139379306D+00
     beta-beta   T2 =       0.4023994761D-01 E2=     -0.9698835324D-01
 ANorm=    0.1138232064D+01
 E2 =    -0.7079146371D+00 EUMP2 =    -0.22361186316612D+04
          IDoAtm=11111
          Differentiating once with respect to electric field.
                with respect to dipole field.
          Differentiating once with respect to nuclear coordinates.
 Keep R1 ints in memory in symmetry-blocked form, NReq=10525250.
          There are     1 degrees of freedom in the 1st order CPHF.  IDoFFX=0 NUNeed=     1.
 LinEq1:  Iter=  0 NonCon=     1 RMS=5.83D-03 Max=1.23D-01 NDo=     1
 AX will form     1 AO Fock derivatives at one time.
 LinEq1:  Iter=  1 NonCon=     1 RMS=1.90D-03 Max=3.21D-02 NDo=     1
 LinEq1:  Iter=  2 NonCon=     1 RMS=7.22D-04 Max=1.09D-02 NDo=     1
 LinEq1:  Iter=  3 NonCon=     1 RMS=2.12D-04 Max=3.28D-03 NDo=     1
 LinEq1:  Iter=  4 NonCon=     1 RMS=4.77D-05 Max=9.02D-04 NDo=     1
 LinEq1:  Iter=  5 NonCon=     1 RMS=1.39D-05 Max=1.96D-04 NDo=     1
 LinEq1:  Iter=  6 NonCon=     1 RMS=3.57D-06 Max=5.58D-05 NDo=     1
 LinEq1:  Iter=  7 NonCon=     1 RMS=6.92D-07 Max=1.31D-05 NDo=     1
 LinEq1:  Iter=  8 NonCon=     1 RMS=1.96D-07 Max=3.58D-06 NDo=     1
 LinEq1:  Iter=  9 NonCon=     1 RMS=3.73D-08 Max=4.87D-07 NDo=     1
 LinEq1:  Iter= 10 NonCon=     1 RMS=9.03D-09 Max=1.53D-07 NDo=     1
 LinEq1:  Iter= 11 NonCon=     1 RMS=2.36D-09 Max=3.85D-08 NDo=     1
 LinEq1:  Iter= 12 NonCon=     1 RMS=5.17D-10 Max=5.82D-09 NDo=     1
 LinEq1:  Iter= 13 NonCon=     1 RMS=7.83D-11 Max=1.63D-09 NDo=     1
 LinEq1:  Iter= 14 NonCon=     0 RMS=1.42D-11 Max=1.88D-10 NDo=     1
 Linear equations converged to 1.000D-10 1.000D-09 after    14 iterations.
 End of Minotr F.D. properties file   721 does not exist.
 End of Minotr F.D. properties file   722 does not exist.
 End of Minotr F.D. properties file   788 does not exist.
 Calling FoFJK, ICntrl=  10002127 FMM=F ISym2X=1 I1Cent= 0 IOpClX= 0 NMat=1 NMatS=1 NMatT=0.
 ***** Axes restored to original set *****
 -------------------------------------------------------------------
 Center     Atomic                   Forces (Hartrees/Bohr)
 Number     Number              X              Y              Z
 -------------------------------------------------------------------
      1       16          -0.000000000    0.000000000    0.000775227
      2       17           0.000000000    0.000707053   -0.000272633
      3       17          -0.000224143    0.000000000   -0.000114980
      4       17           0.000224143   -0.000000000   -0.000114980
      5       17          -0.000000000   -0.000707053   -0.000272633
 -------------------------------------------------------------------
 Cartesian Forces:  Max     0.000775227 RMS     0.000353686

 GradGradGradGradGradGradGradGradGradGradGradGradGradGradGradGradGradGrad
 Berny optimization.
 Using GEDIIS/GDIIS optimizer.
 FormGI is forming the generalized inverse of G from B-inverse, IUseBI=4.
 Internal  Forces:  Max     0.000766248 RMS     0.000450108
 Search for a local minimum.
 Step number   4 out of a maximum of   23
 All quantities printed in internal units (Hartrees-Bohrs-Radians)
 Mixed Optimization -- En-DIIS/RFO-DIIS
 Update second derivatives using D2CorX and points    1    2    3    4
 DE= -1.50D-04 DEPred=-1.82D-04 R= 8.23D-01
 TightC=F SS=  1.41D+00  RLast= 5.20D-02 DXNew= 8.4853D-01 1.5613D-01
 Trust test= 8.23D-01 RLast= 5.20D-02 DXMaxT set to 5.05D-01
 The second derivative matrix:
                          R1        R2        R3        R4        A1
           R1           0.12941
           R2          -0.00099   0.20021
           R3          -0.00099  -0.01989   0.20021
           R4          -0.00087  -0.00099  -0.00099   0.12941
           A1          -0.00354  -0.00799  -0.00799  -0.00354   0.21047
           A2          -0.00398  -0.00483  -0.00483  -0.00398  -0.03769
           A3          -0.01119  -0.00052  -0.00052  -0.01119  -0.03621
           A4          -0.00426  -0.00196  -0.00196  -0.00426  -0.03608
           A5          -0.00439  -0.00431  -0.00431  -0.00439  -0.03711
           A6          -0.00187   0.01398   0.01398  -0.00187   0.00741
           A7           0.00205  -0.02045  -0.02045   0.00205  -0.01050
           D1          -0.00039   0.00675   0.00675  -0.00039   0.00309
           D2          -0.00511  -0.02484  -0.02484  -0.00511  -0.00683
                          A2        A3        A4        A5        A6
           A2           0.21483
           A3          -0.03315   0.20695
           A4          -0.03296  -0.03035   0.21978
           A5          -0.03443  -0.03254  -0.03208   0.21635
           A6           0.01044   0.01300   0.01314   0.01118   0.01589
           A7          -0.01484  -0.01909  -0.01871  -0.01590  -0.01948
           D1           0.00449   0.00612   0.00575   0.00483   0.00629
           D2          -0.01066  -0.01993  -0.01410  -0.01153  -0.01719
                          A7        D1        D2
           A7           0.03023
           D1          -0.00902   0.00521
           D2           0.02479  -0.00806   0.02590
 ITU=  1  1  1  0
 Use linear search instead of GDIIS.
     Eigenvalues ---    0.07879   0.09628   0.12383   0.13028   0.13278
     Eigenvalues ---    0.17498   0.20427   0.22010   0.25004
 RFO step:  Lambda=-1.59959154D-05 EMin= 7.87910899D-02
 Quartic linear search produced a step of -0.11055.
 Iteration  1 RMS(Cart)=  0.00555741 RMS(Int)=  0.00001690
 Iteration  2 RMS(Cart)=  0.00001860 RMS(Int)=  0.00000490
 Iteration  3 RMS(Cart)=  0.00000000 RMS(Int)=  0.00000490
 ClnCor:  largest displacement from symmetrization is 5.47D-05 for atom     5.
 Variable       Old X    -DE/DX   Delta X   Delta X   Delta X     New X
                                 (Linear)    (Quad)   (Total)
    R1        4.33025   0.00069  -0.00148   0.00614   0.00464   4.33489
    R2        3.85911  -0.00010  -0.00147   0.00231   0.00085   3.85996
    R3        3.85911  -0.00010  -0.00147   0.00231   0.00085   3.85996
    R4        4.33025   0.00069  -0.00148   0.00614   0.00464   4.33489
    A1        1.61206  -0.00015  -0.00103  -0.00167  -0.00268   1.60938
    A2        1.61206  -0.00027  -0.00103  -0.00168  -0.00268   1.60938
    A3        1.80694  -0.00043  -0.00175  -0.00058  -0.00233   1.80461
    A4        1.61206  -0.00038  -0.00103  -0.00163  -0.00268   1.60938
    A5        1.61206  -0.00030  -0.00103  -0.00166  -0.00268   1.60938
    A6        3.22413  -0.00053  -0.00205  -0.00330  -0.00537   3.21876
    A7        3.03674   0.00077   0.00275   0.00431   0.00707   3.04380
    D1        1.62323  -0.00024  -0.00138  -0.00216  -0.00353   1.61969
    D2       -1.80910   0.00047   0.00185   0.00076   0.00261  -1.80650
         Item               Value     Threshold  Converged?
 Maximum Force            0.000766     0.000450     NO 
 RMS     Force            0.000450     0.000300     NO 
 Maximum Displacement     0.009709     0.001800     NO 
 RMS     Displacement     0.005563     0.001200     NO 
 Predicted change in Energy=-1.015761D-05
 GradGradGradGradGradGradGradGradGradGradGradGradGradGradGradGradGradGrad

                          Input orientation:                          
 ---------------------------------------------------------------------
 Center     Atomic      Atomic             Coordinates (Angstroms)
 Number     Number       Type             X           Y           Z
 ---------------------------------------------------------------------
      1         16           0       -0.000000    0.000000    0.455661
      2         17           0        0.000000    2.289477    0.598424
      3         17           0        1.602949   -0.000000   -0.810352
      4         17           0       -1.602949    0.000000   -0.810352
      5         17           0       -0.000000   -2.289477    0.598424
 ---------------------------------------------------------------------
                    Distance matrix (angstroms):
                    1          2          3          4          5
     1  S    0.000000
     2  Cl   2.293924   0.000000
     3  Cl   2.042605   3.129824   0.000000
     4  Cl   2.042605   3.129824   3.205897   0.000000
     5  Cl   2.293924   4.578955   3.129824   3.129824   0.000000
 Stoichiometry    Cl4S
 Framework group  C2V[C2(S),SGV(Cl2),SGV'(Cl2)]
 Deg. of freedom     4
 Full point group                 C2V     NOp   4
 Largest Abelian subgroup         C2V     NOp   4
 Largest concise Abelian subgroup C2V     NOp   4
                         Standard orientation:                         
 ---------------------------------------------------------------------
 Center     Atomic      Atomic             Coordinates (Angstroms)
 Number     Number       Type             X           Y           Z
 ---------------------------------------------------------------------
      1         16           0        0.000000    0.000000    0.454649
      2         17           0        0.000000    2.289477    0.597412
      3         17           0        1.602949   -0.000000   -0.811364
      4         17           0       -1.602949    0.000000   -0.811364
      5         17           0       -0.000000   -2.289477    0.597412
 ---------------------------------------------------------------------
 Rotational constants (GHZ):           1.9640825           1.1377225           0.9251045
 Standard basis: CC-pVDZ (5D, 7F)
 There are    38 symmetry adapted cartesian basis functions of A1  symmetry.
 There are    11 symmetry adapted cartesian basis functions of A2  symmetry.
 There are    23 symmetry adapted cartesian basis functions of B1  symmetry.
 There are    23 symmetry adapted cartesian basis functions of B2  symmetry.
 There are    35 symmetry adapted basis functions of A1  symmetry.
 There are    11 symmetry adapted basis functions of A2  symmetry.
 There are    22 symmetry adapted basis functions of B1  symmetry.
 There are    22 symmetry adapted basis functions of B2  symmetry.
    90 basis functions,   355 primitive gaussians,    95 cartesian basis functions
    42 alpha electrons       42 beta electrons
       nuclear repulsion energy       542.9812250735 Hartrees.
 NAtoms=    5 NActive=    5 NUniq=    3 SFac= 2.78D+00 NAtFMM=   60 NAOKFM=F Big=F
 Integral buffers will be    131072 words long.
 Raffenetti 1 integral format.
 Two-electron integral symmetry is turned on.
 One-electron integrals computed using PRISM.
 NBasis=    90 RedAO= T EigKep=  1.57D-02  NBF=    35    11    22    22
 NBsUse=    90 1.00D-06 EigRej= -1.00D+00 NBFU=    35    11    22    22
 Initial guess from the checkpoint file:  "SCl4_MP2_cc-pVDZ.chk"
 B after Tr=    -0.000000    0.000000   -0.000000
         Rot=    1.000000    0.000000   -0.000000    0.000000 Ang=   0.00 deg.
 Initial guess orbital symmetries:
       Occupied  (B1) (A1) (B2) (A1) (A1) (B1) (A1) (B2) (A1) (A1)
                 (B1) (A1) (B1) (A1) (A2) (B2) (A1) (B2) (B1) (A2)
                 (A1) (B2) (B1) (B2) (A1) (A1) (B1) (A1) (B2) (A1)
                 (B1) (A1) (B2) (A2) (A1) (B1) (B2) (B1) (A1) (B2)
                 (A2) (A1)
       Virtual   (A1) (B1) (B2) (B1) (A1) (A2) (A1) (B2) (A1) (B1)
                 (A1) (A1) (B2) (B2) (A1) (A2) (B1) (B1) (B2) (A1)
                 (A2) (B2) (A1) (B1) (A1) (A2) (B2) (B1) (B1) (A1)
                 (B1) (A2) (B2) (B2) (A1) (A1) (B1) (A2) (A1) (B2)
                 (A2) (B1) (A1) (B2) (B1) (B2) (A1) (A1)
 Keep R1 ints in memory in symmetry-blocked form, NReq=10524366.
 Requested convergence on RMS density matrix=1.00D-08 within 128 cycles.
 Requested convergence on MAX density matrix=1.00D-06.
 Requested convergence on             energy=1.00D-06.
 No special actions if energy rises.
 SCF Done:  E(RHF) =  -2235.41074632     A.U. after   10 cycles
            NFock= 10  Conv=0.48D-08     -V/T= 1.9999
 ExpMin= 1.41D-01 ExpMax= 1.28D+05 ExpMxC= 1.24D+03 IAcc=3 IRadAn=         5 AccDes= 0.00D+00
 HarFok:  IExCor=  205 AccDes= 0.00D+00 IRadAn=         5 IDoV=-2 UseB2=F ITyADJ=14
 ICtDFT= 12500011 ScaDFX=  1.000000  1.000000  1.000000  1.000000
 GSVD:  LWork=        -825 too small for GESVD, short by        3500 words or        3500 for optimal perf.
 Range of M.O.s used for correlation:    26    90
 NBasis=    90 NAE=    42 NBE=    42 NFC=    25 NFV=     0
 NROrb=     65 NOA=    17 NOB=    17 NVA=    48 NVB=    48
 Fully direct method using O(ONN) memory.
 JobTyp=1 Pass  1:  I=  26 to  42 NPSUse=  1 ParTrn=F ParDer=F DoDerP=T.
 Spin components of T(2) and E(2):
     alpha-alpha T2 =       0.4022953972D-01 E2=     -0.9696298276D-01
     alpha-beta  T2 =       0.2151830996D+00 E2=     -0.5139705366D+00
     beta-beta   T2 =       0.4022953972D-01 E2=     -0.9696298276D-01
 ANorm=    0.1138262790D+01
 E2 =    -0.7078965021D+00 EUMP2 =    -0.22361186428243D+04
          IDoAtm=11111
          Differentiating once with respect to electric field.
                with respect to dipole field.
          Differentiating once with respect to nuclear coordinates.
 Keep R1 ints in memory in symmetry-blocked form, NReq=10525250.
          There are     1 degrees of freedom in the 1st order CPHF.  IDoFFX=0 NUNeed=     1.
 LinEq1:  Iter=  0 NonCon=     1 RMS=5.82D-03 Max=1.23D-01 NDo=     1
 AX will form     1 AO Fock derivatives at one time.
 LinEq1:  Iter=  1 NonCon=     1 RMS=1.89D-03 Max=3.18D-02 NDo=     1
 LinEq1:  Iter=  2 NonCon=     1 RMS=7.20D-04 Max=1.07D-02 NDo=     1
 LinEq1:  Iter=  3 NonCon=     1 RMS=2.11D-04 Max=3.21D-03 NDo=     1
 LinEq1:  Iter=  4 NonCon=     1 RMS=4.71D-05 Max=8.87D-04 NDo=     1
 LinEq1:  Iter=  5 NonCon=     1 RMS=1.37D-05 Max=1.93D-04 NDo=     1
 LinEq1:  Iter=  6 NonCon=     1 RMS=3.52D-06 Max=5.65D-05 NDo=     1
 LinEq1:  Iter=  7 NonCon=     1 RMS=6.84D-07 Max=1.28D-05 NDo=     1
 LinEq1:  Iter=  8 NonCon=     1 RMS=1.94D-07 Max=3.55D-06 NDo=     1
 LinEq1:  Iter=  9 NonCon=     1 RMS=3.71D-08 Max=4.79D-07 NDo=     1
 LinEq1:  Iter= 10 NonCon=     1 RMS=8.96D-09 Max=1.52D-07 NDo=     1
 LinEq1:  Iter= 11 NonCon=     1 RMS=2.35D-09 Max=3.85D-08 NDo=     1
 LinEq1:  Iter= 12 NonCon=     1 RMS=5.15D-10 Max=5.81D-09 NDo=     1
 LinEq1:  Iter= 13 NonCon=     1 RMS=7.78D-11 Max=1.62D-09 NDo=     1
 LinEq1:  Iter= 14 NonCon=     0 RMS=1.42D-11 Max=1.91D-10 NDo=     1
 Linear equations converged to 1.000D-10 1.000D-09 after    14 iterations.
 End of Minotr F.D. properties file   721 does not exist.
 End of Minotr F.D. properties file   722 does not exist.
 End of Minotr F.D. properties file   788 does not exist.
 Calling FoFJK, ICntrl=  10002127 FMM=F ISym2X=1 I1Cent= 0 IOpClX= 0 NMat=1 NMatS=1 NMatT=0.
 ***** Axes restored to original set *****
 -------------------------------------------------------------------
 Center     Atomic                   Forces (Hartrees/Bohr)
 Number     Number              X              Y              Z
 -------------------------------------------------------------------
      1       16          -0.000000000    0.000000000   -0.000287786
      2       17           0.000000000    0.000214915    0.000004828
      3       17          -0.000151751   -0.000000000    0.000139065
      4       17           0.000151751   -0.000000000    0.000139065
      5       17          -0.000000000   -0.000214915    0.000004828
 -------------------------------------------------------------------
 Cartesian Forces:  Max     0.000287786 RMS     0.000131651

 GradGradGradGradGradGradGradGradGradGradGradGradGradGradGradGradGradGrad
 Berny optimization.
 Using GEDIIS/GDIIS optimizer.
 FormGI is forming the generalized inverse of G from B-inverse, IUseBI=4.
 Internal  Forces:  Max     0.000214799 RMS     0.000117408
 Search for a local minimum.
 Step number   5 out of a maximum of   23
 All quantities printed in internal units (Hartrees-Bohrs-Radians)
 Mixed Optimization -- En-DIIS/RFO-DIIS
 Swapping is turned off.
 Update second derivatives using D2CorX and points    1    2    3    4    5
 DE= -1.12D-05 DEPred=-1.02D-05 R= 1.10D+00
 TightC=F SS=  1.41D+00  RLast= 1.33D-02 DXNew= 8.4853D-01 3.9886D-02
 Trust test= 1.10D+00 RLast= 1.33D-02 DXMaxT set to 5.05D-01
 The second derivative matrix:
                          R1        R2        R3        R4        A1
           R1           0.11567
           R2           0.00772   0.20226
           R3           0.00772  -0.01784   0.20226
           R4          -0.01461   0.00772   0.00772   0.11567
           A1           0.00496  -0.00038  -0.00038   0.00496   0.20314
           A2           0.00450   0.00060   0.00060   0.00450  -0.04548
           A3          -0.01083   0.00698   0.00698  -0.01083  -0.04107
           A4           0.00406   0.00143   0.00143   0.00406  -0.04425
           A5           0.00407   0.00064   0.00064   0.00407  -0.04509
           A6          -0.00189   0.00434   0.00434  -0.00189   0.00523
           A7           0.00263  -0.00624  -0.00624   0.00263  -0.00762
           D1          -0.00061   0.00212   0.00212  -0.00061   0.00222
           D2          -0.00699  -0.01202  -0.01202  -0.00699  -0.00560
                          A2        A3        A4        A5        A6
           A2           0.20677
           A3          -0.03775   0.20112
           A4          -0.04119  -0.03460   0.21159
           A5          -0.04262  -0.03715  -0.04037   0.20806
           A6           0.00917   0.01416   0.01278   0.01017   0.01994
           A7          -0.01335  -0.02126  -0.01861  -0.01481  -0.02566
           D1           0.00407   0.00692   0.00577   0.00454   0.00830
           D2          -0.01009  -0.02249  -0.01421  -0.01115  -0.02012
                          A7        D1        D2
           A7           0.03962
           D1          -0.01207   0.00620
           D2           0.02932  -0.00954   0.02776
 ITU=  1  1  1  1  0
     Eigenvalues ---    0.07968   0.09600   0.09953   0.13028   0.13786
     Eigenvalues ---    0.17762   0.19733   0.22010   0.25004
 En-DIIS/RFO-DIIS/Sim-DIIS IScMMF=       -3 using points:     5    4
 RFO step:  Lambda=-1.60430934D-06.
 DidBck=F Rises=F RFO-DIIS coefs:    1.11705   -0.11705
 Iteration  1 RMS(Cart)=  0.00111068 RMS(Int)=  0.00000042
 Iteration  2 RMS(Cart)=  0.00000014 RMS(Int)=  0.00000041
 ClnCor:  largest displacement from symmetrization is 3.13D-07 for atom     5.
 Variable       Old X    -DE/DX   Delta X   Delta X   Delta X     New X
                                 (Linear)    (Quad)   (Total)
    R1        4.33489   0.00021   0.00054   0.00181   0.00236   4.33725
    R2        3.85996  -0.00021   0.00010  -0.00145  -0.00135   3.85862
    R3        3.85996  -0.00021   0.00010  -0.00145  -0.00135   3.85862
    R4        4.33489   0.00021   0.00054   0.00181   0.00236   4.33725
    A1        1.60938  -0.00000  -0.00031   0.00022  -0.00009   1.60929
    A2        1.60938  -0.00001  -0.00031   0.00022  -0.00009   1.60929
    A3        1.80461   0.00003  -0.00027   0.00076   0.00049   1.80510
    A4        1.60938  -0.00001  -0.00031   0.00022  -0.00009   1.60929
    A5        1.60938  -0.00001  -0.00031   0.00022  -0.00009   1.60929
    A6        3.21876  -0.00002  -0.00063   0.00045  -0.00018   3.21858
    A7        3.04380   0.00002   0.00083  -0.00065   0.00018   3.04398
    D1        1.61969  -0.00001  -0.00041   0.00032  -0.00009   1.61960
    D2       -1.80650  -0.00003   0.00031  -0.00079  -0.00048  -1.80698
         Item               Value     Threshold  Converged?
 Maximum Force            0.000215     0.000450     YES
 RMS     Force            0.000117     0.000300     YES
 Maximum Displacement     0.002387     0.001800     NO 
 RMS     Displacement     0.001111     0.001200     YES
 Predicted change in Energy=-8.021544D-07
 GradGradGradGradGradGradGradGradGradGradGradGradGradGradGradGradGradGrad

                          Input orientation:                          
 ---------------------------------------------------------------------
 Center     Atomic      Atomic             Coordinates (Angstroms)
 Number     Number       Type             X           Y           Z
 ---------------------------------------------------------------------
      1         16           0       -0.000000    0.000000    0.455412
      2         17           0        0.000000    2.290741    0.597963
      3         17           0        1.602699   -0.000000   -0.809766
      4         17           0       -1.602699    0.000000   -0.809766
      5         17           0       -0.000000   -2.290741    0.597963
 ---------------------------------------------------------------------
                    Distance matrix (angstroms):
                    1          2          3          4          5
     1  S    0.000000
     2  Cl   2.295172   0.000000
     3  Cl   2.041892   3.130150   0.000000
     4  Cl   2.041892   3.130150   3.205399   0.000000
     5  Cl   2.295172   4.581481   3.130150   3.130150   0.000000
 Stoichiometry    Cl4S
 Framework group  C2V[C2(S),SGV(Cl2),SGV'(Cl2)]
 Deg. of freedom     4
 Full point group                 C2V     NOp   4
 Largest Abelian subgroup         C2V     NOp   4
 Largest concise Abelian subgroup C2V     NOp   4
                         Standard orientation:                         
 ---------------------------------------------------------------------
 Center     Atomic      Atomic             Coordinates (Angstroms)
 Number     Number       Type             X           Y           Z
 ---------------------------------------------------------------------
      1         16           0        0.000000    0.000000    0.454397
      2         17           0        0.000000    2.290741    0.596947
      3         17           0        1.602699   -0.000000   -0.810781
      4         17           0       -1.602699    0.000000   -0.810781
      5         17           0       -0.000000   -2.290741    0.596947
 ---------------------------------------------------------------------
 Rotational constants (GHZ):           1.9653670           1.1369741           0.9245143
 Standard basis: CC-pVDZ (5D, 7F)
 There are    38 symmetry adapted cartesian basis functions of A1  symmetry.
 There are    11 symmetry adapted cartesian basis functions of A2  symmetry.
 There are    23 symmetry adapted cartesian basis functions of B1  symmetry.
 There are    23 symmetry adapted cartesian basis functions of B2  symmetry.
 There are    35 symmetry adapted basis functions of A1  symmetry.
 There are    11 symmetry adapted basis functions of A2  symmetry.
 There are    22 symmetry adapted basis functions of B1  symmetry.
 There are    22 symmetry adapted basis functions of B2  symmetry.
    90 basis functions,   355 primitive gaussians,    95 cartesian basis functions
    42 alpha electrons       42 beta electrons
       nuclear repulsion energy       542.9309270248 Hartrees.
 NAtoms=    5 NActive=    5 NUniq=    3 SFac= 2.78D+00 NAtFMM=   60 NAOKFM=F Big=F
 Integral buffers will be    131072 words long.
 Raffenetti 1 integral format.
 Two-electron integral symmetry is turned on.
 One-electron integrals computed using PRISM.
 NBasis=    90 RedAO= T EigKep=  1.57D-02  NBF=    35    11    22    22
 NBsUse=    90 1.00D-06 EigRej= -1.00D+00 NBFU=    35    11    22    22
 Initial guess from the checkpoint file:  "SCl4_MP2_cc-pVDZ.chk"
 B after Tr=    -0.000000    0.000000    0.000000
         Rot=    1.000000    0.000000    0.000000   -0.000000 Ang=   0.00 deg.
 Initial guess orbital symmetries:
       Occupied  (B1) (A1) (B2) (A1) (A1) (B1) (A1) (B2) (A1) (A1)
                 (B1) (A1) (B1) (A1) (A2) (B2) (A1) (B2) (B1) (A2)
                 (A1) (B2) (B1) (B2) (A1) (A1) (B1) (A1) (B2) (A1)
                 (B1) (A1) (B2) (A2) (A1) (B1) (B2) (B1) (A1) (B2)
                 (A2) (A1)
       Virtual   (A1) (B1) (B2) (B1) (A1) (A2) (A1) (B2) (A1) (B1)
                 (A1) (A1) (B2) (B2) (A1) (A2) (B1) (B1) (B2) (A1)
                 (A2) (B2) (A1) (B1) (A1) (A2) (B2) (B1) (B1) (A1)
                 (B1) (A2) (B2) (B2) (A1) (A1) (B1) (A2) (A1) (B2)
                 (A2) (B1) (A1) (B2) (B1) (B2) (A1) (A1)
 Keep R1 ints in memory in symmetry-blocked form, NReq=10524366.
 Requested convergence on RMS density matrix=1.00D-08 within 128 cycles.
 Requested convergence on MAX density matrix=1.00D-06.
 Requested convergence on             energy=1.00D-06.
 No special actions if energy rises.
 SCF Done:  E(RHF) =  -2235.41075635     A.U. after    9 cycles
            NFock=  9  Conv=0.37D-08     -V/T= 1.9999
 ExpMin= 1.41D-01 ExpMax= 1.28D+05 ExpMxC= 1.24D+03 IAcc=3 IRadAn=         5 AccDes= 0.00D+00
 HarFok:  IExCor=  205 AccDes= 0.00D+00 IRadAn=         5 IDoV=-2 UseB2=F ITyADJ=14
 ICtDFT= 12500011 ScaDFX=  1.000000  1.000000  1.000000  1.000000
 GSVD:  LWork=        -825 too small for GESVD, short by        3500 words or        3500 for optimal perf.
 Range of M.O.s used for correlation:    26    90
 NBasis=    90 NAE=    42 NBE=    42 NFC=    25 NFV=     0
 NROrb=     65 NOA=    17 NOB=    17 NVA=    48 NVB=    48
 Fully direct method using O(ONN) memory.
 JobTyp=1 Pass  1:  I=  26 to  42 NPSUse=  1 ParTrn=F ParDer=F DoDerP=T.
 Spin components of T(2) and E(2):
     alpha-alpha T2 =       0.4022817161D-01 E2=     -0.9695939213D-01
     alpha-beta  T2 =       0.2152067588D+00 E2=     -0.5139686086D+00
     beta-beta   T2 =       0.4022817161D-01 E2=     -0.9695939213D-01
 ANorm=    0.1138271981D+01
 E2 =    -0.7078873929D+00 EUMP2 =    -0.22361186437430D+04
          IDoAtm=11111
          Differentiating once with respect to electric field.
                with respect to dipole field.
          Differentiating once with respect to nuclear coordinates.
 Keep R1 ints in memory in symmetry-blocked form, NReq=10525250.
          There are     1 degrees of freedom in the 1st order CPHF.  IDoFFX=0 NUNeed=     1.
 LinEq1:  Iter=  0 NonCon=     1 RMS=5.82D-03 Max=1.24D-01 NDo=     1
 AX will form     1 AO Fock derivatives at one time.
 LinEq1:  Iter=  1 NonCon=     1 RMS=1.89D-03 Max=3.17D-02 NDo=     1
 LinEq1:  Iter=  2 NonCon=     1 RMS=7.20D-04 Max=1.07D-02 NDo=     1
 LinEq1:  Iter=  3 NonCon=     1 RMS=2.11D-04 Max=3.19D-03 NDo=     1
 LinEq1:  Iter=  4 NonCon=     1 RMS=4.69D-05 Max=8.80D-04 NDo=     1
 LinEq1:  Iter=  5 NonCon=     1 RMS=1.37D-05 Max=1.92D-04 NDo=     1
 LinEq1:  Iter=  6 NonCon=     1 RMS=3.50D-06 Max=5.64D-05 NDo=     1
 LinEq1:  Iter=  7 NonCon=     1 RMS=6.83D-07 Max=1.28D-05 NDo=     1
 LinEq1:  Iter=  8 NonCon=     1 RMS=1.94D-07 Max=3.54D-06 NDo=     1
 LinEq1:  Iter=  9 NonCon=     1 RMS=3.71D-08 Max=4.82D-07 NDo=     1
 LinEq1:  Iter= 10 NonCon=     1 RMS=8.97D-09 Max=1.53D-07 NDo=     1
 LinEq1:  Iter= 11 NonCon=     1 RMS=2.35D-09 Max=3.81D-08 NDo=     1
 LinEq1:  Iter= 12 NonCon=     1 RMS=5.14D-10 Max=5.83D-09 NDo=     1
 LinEq1:  Iter= 13 NonCon=     1 RMS=7.76D-11 Max=1.62D-09 NDo=     1
 LinEq1:  Iter= 14 NonCon=     0 RMS=1.42D-11 Max=1.94D-10 NDo=     1
 Linear equations converged to 1.000D-10 1.000D-09 after    14 iterations.
 End of Minotr F.D. properties file   721 does not exist.
 End of Minotr F.D. properties file   722 does not exist.
 End of Minotr F.D. properties file   788 does not exist.
 Calling FoFJK, ICntrl=  10002127 FMM=F ISym2X=1 I1Cent= 0 IOpClX= 0 NMat=1 NMatS=1 NMatT=0.
 ***** Axes restored to original set *****
 -------------------------------------------------------------------
 Center     Atomic                   Forces (Hartrees/Bohr)
 Number     Number              X              Y              Z
 -------------------------------------------------------------------
      1       16          -0.000000000    0.000000000   -0.000047997
      2       17          -0.000000000    0.000035972    0.000008615
      3       17          -0.000013815    0.000000000    0.000015383
      4       17           0.000013815    0.000000000    0.000015383
      5       17           0.000000000   -0.000035972    0.000008615
 -------------------------------------------------------------------
 Cartesian Forces:  Max     0.000047997 RMS     0.000019824

 GradGradGradGradGradGradGradGradGradGradGradGradGradGradGradGradGradGrad
 Berny optimization.
 Using GEDIIS/GDIIS optimizer.
 FormGI is forming the generalized inverse of G from B-inverse, IUseBI=4.
 Internal  Forces:  Max     0.000036438 RMS     0.000017734
 Search for a local minimum.
 Step number   6 out of a maximum of   23
 All quantities printed in internal units (Hartrees-Bohrs-Radians)
 Mixed Optimization -- En-DIIS/RFO-DIIS
 Swapping is turned off.
 Update second derivatives using D2CorX and points    1    2    3    4    5
                                                      6
 DE= -9.19D-07 DEPred=-8.02D-07 R= 1.15D+00
 Trust test= 1.15D+00 RLast= 3.92D-03 DXMaxT set to 5.05D-01
 The second derivative matrix:
                          R1        R2        R3        R4        A1
           R1           0.10979
           R2           0.01099   0.20043
           R3           0.01099  -0.01966   0.20043
           R4          -0.02049   0.01099   0.01099   0.10979
           A1           0.00469   0.00138   0.00138   0.00469   0.20323
           A2           0.00391   0.00258   0.00258   0.00391  -0.04530
           A3          -0.01337   0.01076   0.01076  -0.01337  -0.04043
           A4           0.00321   0.00357   0.00357   0.00321  -0.04399
           A5           0.00331   0.00277   0.00277   0.00331  -0.04487
           A6          -0.00324   0.00531   0.00531  -0.00324   0.00566
           A7           0.00446  -0.00740  -0.00740   0.00446  -0.00817
           D1          -0.00112   0.00241   0.00241  -0.00112   0.00237
           D2          -0.00805  -0.01053  -0.01053  -0.00805  -0.00602
                          A2        A3        A4        A5        A6
           A2           0.20705
           A3          -0.03741   0.19725
           A4          -0.04086  -0.03454   0.21196
           A5          -0.04230  -0.03694  -0.04000   0.20841
           A6           0.00956   0.01284   0.01310   0.01057   0.01974
           A7          -0.01380  -0.01936  -0.01893  -0.01526  -0.02522
           D1           0.00419   0.00635   0.00584   0.00465   0.00812
           D2          -0.01040  -0.02232  -0.01439  -0.01140  -0.01966
                          A7        D1        D2
           A7           0.03877
           D1          -0.01175   0.00609
           D2           0.02855  -0.00930   0.02846
 ITU=  0  1  1  1  1  0
     Eigenvalues ---    0.07985   0.08246   0.09849   0.13028   0.13505
     Eigenvalues ---    0.17693   0.19844   0.22010   0.25004
 En-DIIS/RFO-DIIS/Sim-DIIS IScMMF=       -3 using points:     6    5    4
 RFO step:  Lambda=-4.85725095D-08.
 DidBck=F Rises=F RFO-DIIS coefs:    1.20286   -0.22231    0.01945
 Iteration  1 RMS(Cart)=  0.00020881 RMS(Int)=  0.00000006
 Iteration  2 RMS(Cart)=  0.00000002 RMS(Int)=  0.00000006
 ClnCor:  largest displacement from symmetrization is 9.64D-07 for atom     4.
 Variable       Old X    -DE/DX   Delta X   Delta X   Delta X     New X
                                 (Linear)    (Quad)   (Total)
    R1        4.33725   0.00004   0.00039   0.00008   0.00047   4.33771
    R2        3.85862  -0.00002  -0.00029   0.00010  -0.00019   3.85842
    R3        3.85862  -0.00002  -0.00029   0.00010  -0.00019   3.85842
    R4        4.33725   0.00004   0.00039   0.00008   0.00047   4.33771
    A1        1.60929   0.00000   0.00003   0.00003   0.00007   1.60935
    A2        1.60929   0.00001   0.00003   0.00003   0.00007   1.60935
    A3        1.80510   0.00001   0.00014  -0.00007   0.00007   1.80517
    A4        1.60929   0.00001   0.00003   0.00003   0.00007   1.60935
    A5        1.60929   0.00001   0.00003   0.00003   0.00007   1.60935
    A6        3.21858   0.00001   0.00007   0.00006   0.00013   3.21871
    A7        3.04398  -0.00002  -0.00010  -0.00007  -0.00017   3.04381
    D1        1.61960   0.00000   0.00005   0.00004   0.00009   1.61969
    D2       -1.80698  -0.00001  -0.00015   0.00007  -0.00008  -1.80706
         Item               Value     Threshold  Converged?
 Maximum Force            0.000036     0.000450     YES
 RMS     Force            0.000018     0.000300     YES
 Maximum Displacement     0.000436     0.001800     YES
 RMS     Displacement     0.000209     0.001200     YES
 Predicted change in Energy=-2.428392D-08
 Optimization completed.
    -- Stationary point found.
                           ----------------------------
                           !   Optimized Parameters   !
                           ! (Angstroms and Degrees)  !
 --------------------------                            --------------------------
 ! Name  Definition              Value          Derivative Info.                !
 --------------------------------------------------------------------------------
 ! R1    R(1,2)                  2.2952         -DE/DX =    0.0                 !
 ! R2    R(1,3)                  2.0419         -DE/DX =    0.0                 !
 ! R3    R(1,4)                  2.0419         -DE/DX =    0.0                 !
 ! R4    R(1,5)                  2.2952         -DE/DX =    0.0                 !
 ! A1    A(2,1,3)               92.2055         -DE/DX =    0.0                 !
 ! A2    A(2,1,4)               92.2055         -DE/DX =    0.0                 !
 ! A3    A(3,1,4)              103.4245         -DE/DX =    0.0                 !
 ! A4    A(3,1,5)               92.2055         -DE/DX =    0.0                 !
 ! A5    A(4,1,5)               92.2055         -DE/DX =    0.0                 !
 ! A6    L(2,1,5,3,-1)         184.411          -DE/DX =    0.0                 !
 ! A7    L(2,1,5,3,-2)         174.4073         -DE/DX =    0.0                 !
 ! D1    D(2,1,4,3)             92.7963         -DE/DX =    0.0                 !
 ! D2    D(3,1,5,4)           -103.5322         -DE/DX =    0.0                 !
 --------------------------------------------------------------------------------
 GradGradGradGradGradGradGradGradGradGradGradGradGradGradGradGradGradGrad

                          Input orientation:                          
 ---------------------------------------------------------------------
 Center     Atomic      Atomic             Coordinates (Angstroms)
 Number     Number       Type             X           Y           Z
 ---------------------------------------------------------------------
      1         16           0       -0.000000    0.000000    0.455412
      2         17           0        0.000000    2.290741    0.597963
      3         17           0        1.602699   -0.000000   -0.809766
      4         17           0       -1.602699    0.000000   -0.809766
      5         17           0       -0.000000   -2.290741    0.597963
 ---------------------------------------------------------------------
                    Distance matrix (angstroms):
                    1          2          3          4          5
     1  S    0.000000
     2  Cl   2.295172   0.000000
     3  Cl   2.041892   3.130150   0.000000
     4  Cl   2.041892   3.130150   3.205399   0.000000
     5  Cl   2.295172   4.581481   3.130150   3.130150   0.000000
 Stoichiometry    Cl4S
 Framework group  C2V[C2(S),SGV(Cl2),SGV'(Cl2)]
 Deg. of freedom     4
 Full point group                 C2V     NOp   4
 Largest Abelian subgroup         C2V     NOp   4
 Largest concise Abelian subgroup C2V     NOp   4
                         Standard orientation:                         
 ---------------------------------------------------------------------
 Center     Atomic      Atomic             Coordinates (Angstroms)
 Number     Number       Type             X           Y           Z
 ---------------------------------------------------------------------
      1         16           0        0.000000    0.000000    0.454397
      2         17           0        0.000000    2.290741    0.596947
      3         17           0        1.602699   -0.000000   -0.810781
      4         17           0       -1.602699    0.000000   -0.810781
      5         17           0       -0.000000   -2.290741    0.596947
 ---------------------------------------------------------------------
 Rotational constants (GHZ):           1.9653670           1.1369741           0.9245143

 **********************************************************************

            Population analysis using the SCF Density.

 **********************************************************************

 Orbital symmetries:
       Occupied  (B1) (A1) (B2) (A1) (A1) (B1) (A1) (B2) (A1) (A1)
                 (B1) (A1) (B1) (A1) (A2) (B2) (A1) (B2) (B1) (A2)
                 (A1) (B2) (B1) (B2) (A1) (A1) (B1) (A1) (B2) (A1)
                 (B1) (A1) (B2) (A2) (A1) (B1) (B2) (B1) (A1) (B2)
                 (A2) (A1)
       Virtual   (A1) (B1) (B2) (B1) (A1) (A2) (A1) (B2) (A1) (B1)
                 (A1) (A1) (B2) (B2) (A1) (A2) (B1) (B1) (B2) (A1)
                 (A2) (B2) (A1) (B1) (A1) (A2) (B2) (B1) (B1) (A1)
                 (B1) (A2) (B2) (B2) (A1) (A1) (B1) (A2) (A1) (B2)
                 (A2) (B1) (A1) (B2) (B1) (B2) (A1) (A1)
 The electronic state is 1-A1.
 Alpha  occ. eigenvalues -- -104.93240-104.93240-104.82075-104.82075 -92.24830
 Alpha  occ. eigenvalues --  -10.65890 -10.65888 -10.54679 -10.54678  -9.22978
 Alpha  occ. eigenvalues --   -8.12651  -8.12651  -8.12167  -8.12167  -8.12145
 Alpha  occ. eigenvalues --   -8.12145  -8.01381  -8.01381  -8.01074  -8.01074
 Alpha  occ. eigenvalues --   -8.01066  -8.01066  -6.90792  -6.90779  -6.90582
 Alpha  occ. eigenvalues --   -1.28701  -1.17972  -1.07918  -1.07562  -0.95601
 Alpha  occ. eigenvalues --   -0.68344  -0.65836  -0.65477  -0.56191  -0.54449
 Alpha  occ. eigenvalues --   -0.52873  -0.51981  -0.45327  -0.45228  -0.44862
 Alpha  occ. eigenvalues --   -0.44605  -0.39128
 Alpha virt. eigenvalues --   -0.02049  -0.00132   0.00704   0.45728   0.50374
 Alpha virt. eigenvalues --    0.51805   0.52735   0.53983   0.60057   0.61997
 Alpha virt. eigenvalues --    0.64959   0.67095   0.67182   0.67829   0.70014
 Alpha virt. eigenvalues --    0.70746   0.71853   0.76392   0.78810   0.80222
 Alpha virt. eigenvalues --    0.81963   0.81985   0.82171   0.86287   0.87784
 Alpha virt. eigenvalues --    0.90330   0.90480   0.90589   0.93800   0.95194
 Alpha virt. eigenvalues --    0.96617   0.97392   0.97398   0.99448   0.99763
 Alpha virt. eigenvalues --    1.02791   1.03097   1.06285   1.07228   1.08162
 Alpha virt. eigenvalues --    1.09749   1.17802   1.18854   1.19896   1.49928
 Alpha virt. eigenvalues --    1.50511   1.51697   1.57694
          Condensed to atoms (all electrons):
               1          2          3          4          5
     1  S   14.937700   0.069665   0.178095   0.178095   0.069665
     2  Cl   0.069665  17.371442  -0.050082  -0.050082   0.006030
     3  Cl   0.178095  -0.050082  16.892471  -0.033988  -0.050082
     4  Cl   0.178095  -0.050082  -0.033988  16.892471  -0.050082
     5  Cl   0.069665   0.006030  -0.050082  -0.050082  17.371442
 Mulliken charges:
               1
     1  S    0.566779
     2  Cl  -0.346974
     3  Cl   0.063584
     4  Cl   0.063584
     5  Cl  -0.346974
 Sum of Mulliken charges =  -0.00000
 Mulliken charges with hydrogens summed into heavy atoms:
               1
     1  S    0.566779
     2  Cl  -0.346974
     3  Cl   0.063584
     4  Cl   0.063584
     5  Cl  -0.346974
 Electronic spatial extent (au):  <R**2>=           1232.1330
 Charge=             -0.0000 electrons
 Dipole moment (field-independent basis, Debye):
    X=             -0.0000    Y=              0.0000    Z=             -1.4195  Tot=              1.4195
 Quadrupole moment (field-independent basis, Debye-Ang):
   XX=            -58.8963   YY=            -78.0341   ZZ=            -62.4692
   XY=             -0.0000   XZ=              0.0000   YZ=              0.0000
 Traceless Quadrupole moment (field-independent basis, Debye-Ang):
   XX=              7.5702   YY=            -11.5676   ZZ=              3.9973
   XY=             -0.0000   XZ=              0.0000   YZ=              0.0000
 Octapole moment (field-independent basis, Debye-Ang**2):
  XXX=              0.0000  YYY=             -0.0000  ZZZ=             -7.5083  XYY=              0.0000
  XXY=             -0.0000  XXZ=             -9.4442  XZZ=              0.0000  YZZ=             -0.0000
  YYZ=             -8.3433  XYZ=             -0.0000
 Hexadecapole moment (field-independent basis, Debye-Ang**3):
 XXXX=           -410.1885 YYYY=           -933.0530 ZZZZ=           -234.3118 XXXY=             -0.0000
 XXXZ=              0.0000 YYYX=             -0.0000 YYYZ=             -0.0000 ZZZX=              0.0000
 ZZZY=              0.0000 XXYY=           -229.8722 XXZZ=            -98.3712 YYZZ=           -197.9256
 XXYZ=              0.0000 YYXZ=              0.0000 ZZXY=             -0.0000
 N-N= 5.429309270248D+02 E-N=-6.406516510795D+03  KE= 2.235528218986D+03
 Symmetry A1   KE= 1.151157789359D+03
 Symmetry A2   KE= 9.170590053826D+01
 Symmetry B1   KE= 4.967352531049D+02
 Symmetry B2   KE= 4.959292759833D+02
 Unable to Open any file for archive entry.
 1\1\GINC-BS001\FOpt\RMP2-FC\CC-pVDZ\Cl4S1\PNATT\10-Aug-2026\0\\# opt f
 req=hpmodes mp2/cc-pvdz geom=connectivity\\Title Card Required\\0,1\S,
 0.,0.,0.455412161\Cl,0.,2.2907405609,0.5979626658\Cl,1.6026993453,0.,-
 0.809766165\Cl,-1.6026993453,0.,-0.809766165\Cl,0.,-2.2907405609,0.597
 9626658\\Version=ES64L-G16RevC.01\State=1-A1\HF=-2235.4107564\MP2=-223
 6.1186437\RMSD=3.675e-09\RMSF=1.982e-05\Dipole=0.,0.,-0.4355896\PG=C02
 V [C2(S1),SGV(Cl2),SGV'(Cl2)]\\@
 The archive entry for this job was punched.


 TERRY FORSTER, PORTLY ATLANTA BRAVES RELIEVER,
 ANNOUNCING THAT HE WAS GOING TO A FAT FARM:
 "A WAIST IS A TERRIBLE THING TO MIND."
 Job cpu time:       0 days  0 hours  0 minutes 53.1 seconds.
 Elapsed time:       0 days  0 hours  0 minutes 52.4 seconds.
 File lengths (MBytes):  RWF=     10 Int=      0 D2E=      0 Chk=      2 Scr=      1
 Normal termination of Gaussian 16 at Mon Aug 10 16:50:00 2026.
 Link1:  Proceeding to internal job step number  2.
 ---------------------------------------------------------------------
 #N Geom=AllCheck Guess=TCheck SCRF=Check GenChk RMP2(FC)/CC-pVDZ Freq
 ---------------------------------------------------------------------
 1/10=4,29=7,30=1,38=1,40=1/1,3;
 2/12=2,40=1/2;
 3/5=16,11=1,14=-4,25=1,30=1,70=2,71=2,116=1,140=1/1,2,3;
 4/5=101/1;
 5/5=2,38=6,98=1/2;
 8/6=3,8=1,10=1,19=11,30=-1/1;
 9/15=3,16=-3/6;
 11/6=1,8=1,15=11,17=12,24=-1,27=1,28=-2,29=300,32=6,42=3/1,2,10;
 10/6=2,21=1/2;
 8/6=4,8=1,10=1,19=11,30=-1/11,4;
 10/5=1,20=4/2;
 11/12=2,14=11,16=1,17=2,28=-2,42=3,76=2/2,10,12;
 6/7=2,8=2,9=2,10=2/1;
 7/8=11,10=1,12=2,25=1,44=2/1,2,3,16;
 1/10=4,30=1/3;
 99//99;
 Structure from the checkpoint file:  "SCl4_MP2_cc-pVDZ.chk"
 -------------------
 Title Card Required
 -------------------
 Charge =  0 Multiplicity = 1
 Redundant internal coordinates found in file.  (old form).
 S,0,0.,0.,0.455412161
 Cl,0,0.,2.2907405609,0.5979626658
 Cl,0,1.6026993453,0.,-0.809766165
 Cl,0,-1.6026993453,0.,-0.809766165
 Cl,0,0.,-2.2907405609,0.5979626658
 Recover connectivity data from disk.

 GradGradGradGradGradGradGradGradGradGradGradGradGradGradGradGradGradGrad
 Berny optimization.
 Initialization pass.
                           ----------------------------
                           !    Initial Parameters    !
                           ! (Angstroms and Degrees)  !
 --------------------------                            --------------------------
 ! Name  Definition              Value          Derivative Info.                !
 --------------------------------------------------------------------------------
 ! R1    R(1,2)                  2.2952         calculate D2E/DX2 analytically  !
 ! R2    R(1,3)                  2.0419         calculate D2E/DX2 analytically  !
 ! R3    R(1,4)                  2.0419         calculate D2E/DX2 analytically  !
 ! R4    R(1,5)                  2.2952         calculate D2E/DX2 analytically  !
 ! A1    A(2,1,3)               92.2055         calculate D2E/DX2 analytically  !
 ! A2    A(2,1,4)               92.2055         calculate D2E/DX2 analytically  !
 ! A3    A(3,1,4)              103.4245         calculate D2E/DX2 analytically  !
 ! A4    A(3,1,5)               92.2055         calculate D2E/DX2 analytically  !
 ! A5    A(4,1,5)               92.2055         calculate D2E/DX2 analytically  !
 ! A6    L(2,1,5,3,-1)         184.411          calculate D2E/DX2 analytically  !
 ! A7    L(2,1,5,3,-2)         174.4073         calculate D2E/DX2 analytically  !
 ! D1    D(2,1,4,3)             92.7963         calculate D2E/DX2 analytically  !
 ! D2    D(3,1,5,4)           -103.5322         calculate D2E/DX2 analytically  !
 --------------------------------------------------------------------------------
 Trust Radius=3.00D-01 FncErr=1.00D-07 GrdErr=1.00D-07 EigMax=2.50D+02 EigMin=1.00D-04
 Number of steps in this run=      2 maximum allowed number of steps=      2.
 GradGradGradGradGradGradGradGradGradGradGradGradGradGradGradGradGradGrad

                          Input orientation:                          
 ---------------------------------------------------------------------
 Center     Atomic      Atomic             Coordinates (Angstroms)
 Number     Number       Type             X           Y           Z
 ---------------------------------------------------------------------
      1         16           0       -0.000000    0.000000    0.455412
      2         17           0        0.000000    2.290741    0.597963
      3         17           0        1.602699   -0.000000   -0.809766
      4         17           0       -1.602699    0.000000   -0.809766
      5         17           0       -0.000000   -2.290741    0.597963
 ---------------------------------------------------------------------
                    Distance matrix (angstroms):
                    1          2          3          4          5
     1  S    0.000000
     2  Cl   2.295172   0.000000
     3  Cl   2.041892   3.130150   0.000000
     4  Cl   2.041892   3.130150   3.205399   0.000000
     5  Cl   2.295172   4.581481   3.130150   3.130150   0.000000
 Stoichiometry    Cl4S
 Framework group  C2V[C2(S),SGV(Cl2),SGV'(Cl2)]
 Deg. of freedom     4
 Full point group                 C2V     NOp   4
 Largest Abelian subgroup         C2V     NOp   4
 Largest concise Abelian subgroup C2V     NOp   4
                         Standard orientation:                         
 ---------------------------------------------------------------------
 Center     Atomic      Atomic             Coordinates (Angstroms)
 Number     Number       Type             X           Y           Z
 ---------------------------------------------------------------------
      1         16           0        0.000000    0.000000    0.454397
      2         17           0        0.000000    2.290741    0.596947
      3         17           0        1.602699   -0.000000   -0.810781
      4         17           0       -1.602699    0.000000   -0.810781
      5         17           0       -0.000000   -2.290741    0.596947
 ---------------------------------------------------------------------
 Rotational constants (GHZ):           1.9653670           1.1369741           0.9245143
 Standard basis: CC-pVDZ (5D, 7F)
 There are    38 symmetry adapted cartesian basis functions of A1  symmetry.
 There are    11 symmetry adapted cartesian basis functions of A2  symmetry.
 There are    23 symmetry adapted cartesian basis functions of B1  symmetry.
 There are    23 symmetry adapted cartesian basis functions of B2  symmetry.
 There are    35 symmetry adapted basis functions of A1  symmetry.
 There are    11 symmetry adapted basis functions of A2  symmetry.
 There are    22 symmetry adapted basis functions of B1  symmetry.
 There are    22 symmetry adapted basis functions of B2  symmetry.
    90 basis functions,   355 primitive gaussians,    95 cartesian basis functions
    42 alpha electrons       42 beta electrons
       nuclear repulsion energy       542.9309270248 Hartrees.
 NAtoms=    5 NActive=    5 NUniq=    3 SFac= 2.78D+00 NAtFMM=   60 NAOKFM=F Big=F
 Integral buffers will be    131072 words long.
 Raffenetti 1 integral format.
 Two-electron integral symmetry is turned on.
 One-electron integrals computed using PRISM.
 NBasis=    90 RedAO= T EigKep=  1.57D-02  NBF=    35    11    22    22
 NBsUse=    90 1.00D-06 EigRej= -1.00D+00 NBFU=    35    11    22    22
 Initial guess from the checkpoint file:  "SCl4_MP2_cc-pVDZ.chk"
 B after Tr=    -0.000000    0.000000   -0.000000
         Rot=    1.000000   -0.000000   -0.000000    0.000000 Ang=   0.00 deg.
 Initial guess orbital symmetries:
       Occupied  (B1) (A1) (B2) (A1) (A1) (B1) (A1) (B2) (A1) (A1)
                 (B1) (A1) (B1) (A1) (A2) (B2) (A1) (B2) (B1) (A2)
                 (A1) (B2) (B1) (B2) (A1) (A1) (B1) (A1) (B2) (A1)
                 (B1) (A1) (B2) (A2) (A1) (B1) (B2) (B1) (A1) (B2)
                 (A2) (A1)
       Virtual   (A1) (B1) (B2) (B1) (A1) (A2) (A1) (B2) (A1) (B1)
                 (A1) (A1) (B2) (B2) (A1) (A2) (B1) (B1) (B2) (A1)
                 (A2) (B2) (A1) (B1) (A1) (A2) (B2) (B1) (B1) (A1)
                 (B1) (A2) (B2) (B2) (A1) (A1) (B1) (A2) (A1) (B2)
                 (A2) (B1) (A1) (B2) (B1) (B2) (A1) (A1)
 Keep R1 ints in memory in symmetry-blocked form, NReq=10524366.
 Requested convergence on RMS density matrix=1.00D-08 within 128 cycles.
 Requested convergence on MAX density matrix=1.00D-06.
 Requested convergence on             energy=1.00D-06.
 No special actions if energy rises.
 SCF Done:  E(RHF) =  -2235.41075635     A.U. after    1 cycles
            NFock=  1  Conv=0.65D-09     -V/T= 1.9999
 ExpMin= 1.41D-01 ExpMax= 1.28D+05 ExpMxC= 1.24D+03 IAcc=3 IRadAn=         5 AccDes= 0.00D+00
 HarFok:  IExCor=  205 AccDes= 0.00D+00 IRadAn=         5 IDoV=-2 UseB2=F ITyADJ=14
 ICtDFT= 12500011 ScaDFX=  1.000000  1.000000  1.000000  1.000000
 GSVD:  LWork=        -825 too small for GESVD, short by        3500 words or        3500 for optimal perf.
 Range of M.O.s used for correlation:    26    90
 NBasis=    90 NAE=    42 NBE=    42 NFC=    25 NFV=     0
 NROrb=     65 NOA=    17 NOB=    17 NVA=    48 NVB=    48
 Disk-based method using ON**2 memory for 17 occupieds at a time.
 Permanent disk used for amplitudes=     5035464 words.
 Estimated scratch disk usage=    13289588 words.
 Actual    scratch disk usage=    12554356 words.
 JobTyp=1 Pass  1:  I=  26 to  42 NPSUse=  1 ParTrn=F ParDer=F DoDerP=T.
 (rs|ai) integrals will be sorted in core.
 Spin components of T(2) and E(2):
     alpha-alpha T2 =       0.4022817168D-01 E2=     -0.9695939218D-01
     alpha-beta  T2 =       0.2152067587D+00 E2=     -0.5139686085D+00
     beta-beta   T2 =       0.4022817168D-01 E2=     -0.9695939218D-01
 ANorm=    0.1138271981D+01
 E2 =    -0.7078873929D+00 EUMP2 =    -0.22361186437430D+04
 G2DrvN: will do     6 centers at a time, making    1 passes.
 Calling FoFCou, ICntrl=  3107 FMM=F I1Cent=   0 AccDes= 0.00D+00.
 End of G2Drv F.D. properties file   721 does not exist.
 End of G2Drv F.D. properties file   722 does not exist.
 End of G2Drv F.D. properties file   788 does not exist.
          IDoAtm=11111
          Differentiating once with respect to electric field.
                with respect to dipole field.
          Differentiating once with respect to nuclear coordinates.
 Keep R1 ints in memory in symmetry-blocked form, NReq=10525250.
          There are    18 degrees of freedom in the 1st order CPHF.  IDoFFX=6 NUNeed=    18.
     15 vectors produced by pass  0 Test12= 1.12D-14 5.56D-09 XBig12= 5.87D+01 6.75D+00.
 AX will form    15 AO Fock derivatives at one time.
     15 vectors produced by pass  1 Test12= 1.12D-14 5.56D-09 XBig12= 3.77D+00 5.77D-01.
     15 vectors produced by pass  2 Test12= 1.12D-14 5.56D-09 XBig12= 2.06D-01 1.30D-01.
     15 vectors produced by pass  3 Test12= 1.12D-14 5.56D-09 XBig12= 1.45D-02 5.13D-02.
     15 vectors produced by pass  4 Test12= 1.12D-14 5.56D-09 XBig12= 2.65D-04 5.12D-03.
     15 vectors produced by pass  5 Test12= 1.12D-14 5.56D-09 XBig12= 1.07D-06 2.82D-04.
     15 vectors produced by pass  6 Test12= 1.12D-14 5.56D-09 XBig12= 8.96D-09 2.38D-05.
     13 vectors produced by pass  7 Test12= 1.12D-14 5.56D-09 XBig12= 6.51D-11 1.85D-06.
      4 vectors produced by pass  8 Test12= 1.12D-14 5.56D-09 XBig12= 6.59D-13 1.98D-07.
      3 vectors produced by pass  9 Test12= 1.12D-14 5.56D-09 XBig12= 6.25D-15 1.53D-08.
 InvSVY:  IOpt=1 It=  1 EMax= 2.22D-15
 Solved reduced A of dimension   125 with    15 vectors.
 End of Minotr F.D. properties file   721 does not exist.
 End of Minotr F.D. properties file   722 does not exist.
 End of Minotr F.D. properties file   788 does not exist.
 MDV=   104857600.
 Form MO integral derivatives with frozen-active canonical formalism.
 Discarding MO integrals.
 Reordered first order wavefunction length =      8128512
 In DefCFB: NBatch=  1 ICI= 42 ICA= 48 LFMax= 24
            Large arrays: LIAPS=    68947200 LIARS=    25472160 words.
 Semi-Direct transformation.
 ModeAB=           4 MOrb=            42 LenV=     104439100
 LASXX=      9416379 LTotXX=     9416379 LenRXX=    19549236
 LTotAB=    10132857 MaxLAS=     7817040 LenRXY=           0
 NonZer=    28965615 LenScr=    44213760 LnRSAI=     7817040
 LnScr1=    12500992 LExtra=           0 Total=     84081028
 MaxDsk=          -1 SrtSym=           T ITran=            4
 JobTyp=0 Pass  1:  I=   1 to  42.
 (rs|ai) integrals will be sorted in core.
 Spin components of T(2) and E(2):
     alpha-alpha T2 =       0.4022817168D-01 E2=     -0.9695939218D-01
     alpha-beta  T2 =       0.2152067587D+00 E2=     -0.5139686085D+00
     beta-beta   T2 =       0.4022817168D-01 E2=     -0.9695939218D-01
 ANorm=    0.1609759673D+01
 E2 =    -0.7078873929D+00 EUMP2 =    -0.22361186437430D+04
          IDoAtm=11111
          Differentiating once with respect to electric field.
                with respect to dipole field.
          Differentiating once with respect to nuclear coordinates.
          There are     1 degrees of freedom in the 1st order CPHF.  IDoFFX=0 NUNeed=     1.
 LinEq1:  Iter=  0 NonCon=     1 RMS=5.82D-03 Max=1.24D-01 NDo=     1
 LinEq1:  Iter=  1 NonCon=     1 RMS=1.89D-03 Max=3.17D-02 NDo=     1
 LinEq1:  Iter=  2 NonCon=     1 RMS=7.20D-04 Max=1.07D-02 NDo=     1
 LinEq1:  Iter=  3 NonCon=     1 RMS=2.11D-04 Max=3.19D-03 NDo=     1
 LinEq1:  Iter=  4 NonCon=     1 RMS=4.69D-05 Max=8.80D-04 NDo=     1
 LinEq1:  Iter=  5 NonCon=     1 RMS=1.37D-05 Max=1.92D-04 NDo=     1
 LinEq1:  Iter=  6 NonCon=     1 RMS=3.50D-06 Max=5.64D-05 NDo=     1
 LinEq1:  Iter=  7 NonCon=     1 RMS=6.83D-07 Max=1.28D-05 NDo=     1
 LinEq1:  Iter=  8 NonCon=     1 RMS=1.94D-07 Max=3.54D-06 NDo=     1
 LinEq1:  Iter=  9 NonCon=     1 RMS=3.71D-08 Max=4.82D-07 NDo=     1
 LinEq1:  Iter= 10 NonCon=     1 RMS=8.97D-09 Max=1.53D-07 NDo=     1
 LinEq1:  Iter= 11 NonCon=     1 RMS=2.35D-09 Max=3.81D-08 NDo=     1
 LinEq1:  Iter= 12 NonCon=     1 RMS=5.14D-10 Max=5.83D-09 NDo=     1
 LinEq1:  Iter= 13 NonCon=     1 RMS=7.76D-11 Max=1.62D-09 NDo=     1
 LinEq1:  Iter= 14 NonCon=     0 RMS=1.42D-11 Max=1.94D-10 NDo=     1
 Linear equations converged to 1.000D-10 1.000D-09 after    14 iterations.
 End of Minotr F.D. properties file   721 does not exist.
 End of Minotr F.D. properties file   722 does not exist.
 End of Minotr F.D. properties file   788 does not exist.
 Symmetrizing basis deriv contribution to polar:
 IMax=3 JMax=2 DiffMx= 0.00D+00
 G2DrvN: will do     6 centers at a time, making    1 passes.
 Calling FoFCou, ICntrl=  3107 FMM=F I1Cent=   0 AccDes= 0.00D+00.
 End of G2Drv F.D. properties file   721 does not exist.
 End of G2Drv F.D. properties file   722 does not exist.
 End of G2Drv F.D. properties file   788 does not exist.
 R2 and R3 integrals will be kept in memory, NReq=    21618160.
 DD1Dir will call FoFMem   1 times, MxPair=      1806
 NAB=   903 NAA=     0 NBB=     0.
 Discarding MO integrals.

 **********************************************************************

            Population analysis using the SCF Density.

 **********************************************************************

 Orbital symmetries:
       Occupied  (B1) (A1) (B2) (A1) (A1) (B1) (A1) (B2) (A1) (A1)
                 (B1) (A1) (B1) (A1) (A2) (B2) (A1) (B2) (B1) (A2)
                 (A1) (B2) (B1) (B2) (A1) (A1) (B1) (A1) (B2) (A1)
                 (B1) (A1) (B2) (A2) (A1) (B1) (B2) (B1) (A1) (B2)
                 (A2) (A1)
       Virtual   (A1) (B1) (B2) (B1) (A1) (A2) (A1) (B2) (A1) (B1)
                 (A1) (A1) (B2) (B2) (A1) (A2) (B1) (B1) (B2) (A1)
                 (A2) (B2) (A1) (B1) (A1) (A2) (B2) (B1) (B1) (A1)
                 (B1) (A2) (B2) (B2) (A1) (A1) (B1) (A2) (A1) (B2)
                 (A2) (B1) (A1) (B2) (B1) (B2) (A1) (A1)
 The electronic state is 1-A1.
 Alpha  occ. eigenvalues -- -104.93240-104.93240-104.82075-104.82075 -92.24830
 Alpha  occ. eigenvalues --  -10.65890 -10.65888 -10.54679 -10.54678  -9.22978
 Alpha  occ. eigenvalues --   -8.12651  -8.12651  -8.12167  -8.12167  -8.12145
 Alpha  occ. eigenvalues --   -8.12145  -8.01381  -8.01381  -8.01074  -8.01074
 Alpha  occ. eigenvalues --   -8.01066  -8.01066  -6.90792  -6.90779  -6.90582
 Alpha  occ. eigenvalues --   -1.28701  -1.17972  -1.07918  -1.07562  -0.95601
 Alpha  occ. eigenvalues --   -0.68344  -0.65836  -0.65477  -0.56191  -0.54449
 Alpha  occ. eigenvalues --   -0.52873  -0.51981  -0.45327  -0.45228  -0.44862
 Alpha  occ. eigenvalues --   -0.44605  -0.39128
 Alpha virt. eigenvalues --   -0.02049  -0.00132   0.00704   0.45728   0.50374
 Alpha virt. eigenvalues --    0.51805   0.52735   0.53983   0.60057   0.61997
 Alpha virt. eigenvalues --    0.64959   0.67095   0.67182   0.67829   0.70014
 Alpha virt. eigenvalues --    0.70746   0.71853   0.76392   0.78810   0.80222
 Alpha virt. eigenvalues --    0.81963   0.81985   0.82171   0.86287   0.87784
 Alpha virt. eigenvalues --    0.90330   0.90480   0.90589   0.93800   0.95194
 Alpha virt. eigenvalues --    0.96617   0.97392   0.97398   0.99448   0.99763
 Alpha virt. eigenvalues --    1.02791   1.03097   1.06285   1.07228   1.08162
 Alpha virt. eigenvalues --    1.09749   1.17802   1.18854   1.19896   1.49928
 Alpha virt. eigenvalues --    1.50511   1.51697   1.57694
          Condensed to atoms (all electrons):
               1          2          3          4          5
     1  S   14.937700   0.069665   0.178095   0.178095   0.069665
     2  Cl   0.069665  17.371442  -0.050082  -0.050082   0.006030
     3  Cl   0.178095  -0.050082  16.892471  -0.033988  -0.050082
     4  Cl   0.178095  -0.050082  -0.033988  16.892471  -0.050082
     5  Cl   0.069665   0.006030  -0.050082  -0.050082  17.371442
 Mulliken charges:
               1
     1  S    0.566779
     2  Cl  -0.346974
     3  Cl   0.063584
     4  Cl   0.063584
     5  Cl  -0.346974
 Sum of Mulliken charges =   0.00000
 Mulliken charges with hydrogens summed into heavy atoms:
               1
     1  S    0.566779
     2  Cl  -0.346974
     3  Cl   0.063584
     4  Cl   0.063584
     5  Cl  -0.346974
 APT charges:
               1
     1  S    1.909689
     2  Cl  -0.679771
     3  Cl  -0.275074
     4  Cl  -0.275074
     5  Cl  -0.679771
 Sum of APT charges =   0.00000
 APT charges with hydrogens summed into heavy atoms:
               1
     1  S    1.909689
     2  Cl  -0.679771
     3  Cl  -0.275074
     4  Cl  -0.275074
     5  Cl  -0.679771
 Electronic spatial extent (au):  <R**2>=           1232.1330
 Charge=             -0.0000 electrons
 Dipole moment (field-independent basis, Debye):
    X=              0.0000    Y=              0.0000    Z=             -1.4195  Tot=              1.4195
 Quadrupole moment (field-independent basis, Debye-Ang):
   XX=            -58.8963   YY=            -78.0341   ZZ=            -62.4692
   XY=             -0.0000   XZ=             -0.0000   YZ=              0.0000
 Traceless Quadrupole moment (field-independent basis, Debye-Ang):
   XX=              7.5702   YY=            -11.5676   ZZ=              3.9973
   XY=             -0.0000   XZ=             -0.0000   YZ=              0.0000
 Octapole moment (field-independent basis, Debye-Ang**2):
  XXX=              0.0000  YYY=             -0.0000  ZZZ=             -7.5083  XYY=              0.0000
  XXY=             -0.0000  XXZ=             -9.4442  XZZ=              0.0000  YZZ=             -0.0000
  YYZ=             -8.3433  XYZ=             -0.0000
 Hexadecapole moment (field-independent basis, Debye-Ang**3):
 XXXX=           -410.1885 YYYY=           -933.0530 ZZZZ=           -234.3118 XXXY=             -0.0000
 XXXZ=             -0.0000 YYYX=             -0.0000 YYYZ=              0.0000 ZZZX=              0.0000
 ZZZY=              0.0000 XXYY=           -229.8722 XXZZ=            -98.3712 YYZZ=           -197.9256
 XXYZ=              0.0000 YYXZ=              0.0000 ZZXY=             -0.0000
 N-N= 5.429309270248D+02 E-N=-6.406516511159D+03  KE= 2.235528219114D+03
 Symmetry A1   KE= 1.151157789449D+03
 Symmetry A2   KE= 9.170590054355D+01
 Symmetry B1   KE= 4.967352531398D+02
 Symmetry B2   KE= 4.959292759818D+02
  Exact polarizability:      60.890       0.000     118.836      -0.000      -0.000      42.452
 Approx polarizability:      59.563       0.000     112.901      -0.000      -0.000      44.864
 Calling FoFJK, ICntrl=  10100127 FMM=F ISym2X=1 I1Cent= 0 IOpClX= 0 NMat=1 NMatS=1 NMatT=0.
 Full mass-weighted force constant matrix:
 Low frequencies ---   -2.0094   -1.7562   -0.0074   -0.0072   -0.0064    2.0960
 Low frequencies ---  106.1757  158.6912  195.1435
 Diagonal vibrational polarizability:
       13.7377513      68.5266088      12.3305937
 Harmonic frequencies (cm**-1), IR intensities (KM/Mole), Raman scattering
 activities (A**4/AMU), depolarization ratios for plane and unpolarized
 incident light, reduced masses (AMU), force constants (mDyne/A),
 and normal coordinates:
                           1         2         3         4         5
                          A1        B1        A2        B2        A1
       Frequencies ---   106.1757  158.6912  195.1435  232.8573  237.7936
    Reduced masses ---    34.8985   34.3817   34.9689   34.8183   34.4450
   Force constants ---     0.2318    0.5101    0.7846    1.1123    1.1476
    IR Intensities ---     2.8681    3.3790    0.0000    4.6596    0.7134
 Coord Atom Element:
   1     1    16          0.00000  -0.44263   0.00000  -0.00000   0.00000
   2     1    16          0.00000   0.00000   0.00000  -0.22415   0.00000
   3     1    16         -0.15323  -0.00000  -0.00000  -0.00000  -0.41810
   1     2    17         -0.00000   0.49291   0.40536   0.00000  -0.00000
   2     2    17         -0.02835   0.00000  -0.00000  -0.38645  -0.31625
   3     2    17          0.50366   0.00000   0.00000  -0.29408   0.16914
   1     3    17         -0.21394  -0.29057   0.00000   0.00000   0.53244
   2     3    17         -0.00000   0.00000   0.57938   0.48892  -0.00000
   3     3    17         -0.43361   0.27322  -0.00000  -0.00000   0.02199
   1     4    17          0.21394  -0.29057   0.00000  -0.00000  -0.53244
   2     4    17         -0.00000  -0.00000  -0.57938   0.48892  -0.00000
   3     4    17         -0.43361  -0.27322   0.00000  -0.00000   0.02199
   1     5    17         -0.00000   0.49291  -0.40536   0.00000  -0.00000
   2     5    17          0.02835   0.00000   0.00000  -0.38645   0.31625
   3     5    17          0.50366   0.00000   0.00000   0.29408   0.16914
                           6         7         8         9
                          A1        B2        A1        B1
       Frequencies ---   256.6992  425.5208  505.9736  511.3360
    Reduced masses ---    34.6829   32.6640   33.2776   33.0899
   Force constants ---     1.3465    3.4847    5.0195    5.0975
    IR Intensities ---     4.2415  445.5107   32.4607   98.3906
 Coord Atom Element:
   1     1    16         -0.00000  -0.00000   0.00000   0.79183
   2     1    16          0.00000   0.87698   0.00000   0.00000
   3     1    16         -0.30888  -0.00000   0.75125  -0.00000
   1     2    17          0.00000   0.00000  -0.00000  -0.02250
   2     2    17          0.62388  -0.33235   0.07056  -0.00000
   3     2    17          0.11199   0.01718  -0.02468   0.00000
   1     3    17          0.22289  -0.00000   0.33260  -0.33948
   2     3    17         -0.00000  -0.06856   0.00000   0.00000
   3     3    17          0.02922  -0.00000  -0.31875   0.26599
   1     4    17         -0.22289   0.00000  -0.33260  -0.33948
   2     4    17         -0.00000  -0.06856  -0.00000   0.00000
   3     4    17          0.02922  -0.00000  -0.31875  -0.26599
   1     5    17          0.00000   0.00000  -0.00000  -0.02250
   2     5    17         -0.62388  -0.33235  -0.07056   0.00000
   3     5    17          0.11199  -0.01718  -0.02468   0.00000
 Harmonic frequencies (cm**-1), IR intensities (KM/Mole), Raman scattering
 activities (A**4/AMU), depolarization ratios for plane and unpolarized
 incident light, reduced masses (AMU), force constants (mDyne/A),
 and normal coordinates:
                      1                      2                      3
                     A1                     B1                     A2
 Frequencies --    106.1757               158.6912               195.1435
 Red. masses --     34.8985                34.3817                34.9689
 Frc consts  --      0.2318                 0.5101                 0.7846
 IR Inten    --      2.8681                 3.3790                 0.0000
  Atom  AN      X      Y      Z        X      Y      Z        X      Y      Z
     1  16     0.00   0.00  -0.15    -0.44   0.00  -0.00     0.00   0.00  -0.00
     2  17    -0.00  -0.03   0.50     0.49   0.00   0.00     0.41  -0.00   0.00
     3  17    -0.21  -0.00  -0.43    -0.29   0.00   0.27     0.00   0.58  -0.00
     4  17     0.21  -0.00  -0.43    -0.29  -0.00  -0.27     0.00  -0.58   0.00
     5  17    -0.00   0.03   0.50     0.49   0.00   0.00    -0.41   0.00   0.00
                      4                      5                      6
                     B2                     A1                     A1
 Frequencies --    232.8573               237.7936               256.6992
 Red. masses --     34.8183                34.4450                34.6829
 Frc consts  --      1.1123                 1.1476                 1.3465
 IR Inten    --      4.6596                 0.7134                 4.2415
  Atom  AN      X      Y      Z        X      Y      Z        X      Y      Z
     1  16    -0.00  -0.22  -0.00     0.00   0.00  -0.42    -0.00   0.00  -0.31
     2  17     0.00  -0.39  -0.29    -0.00  -0.32   0.17     0.00   0.62   0.11
     3  17     0.00   0.49  -0.00     0.53  -0.00   0.02     0.22  -0.00   0.03
     4  17    -0.00   0.49  -0.00    -0.53  -0.00   0.02    -0.22  -0.00   0.03
     5  17     0.00  -0.39   0.29    -0.00   0.32   0.17     0.00  -0.62   0.11
                      7                      8                      9
                     B2                     A1                     B1
 Frequencies --    425.5208               505.9736               511.3360
 Red. masses --     32.6640                33.2776                33.0899
 Frc consts  --      3.4847                 5.0195                 5.0975
 IR Inten    --    445.5107                32.4607                98.3906
  Atom  AN      X      Y      Z        X      Y      Z        X      Y      Z
     1  16    -0.00   0.88  -0.00     0.00   0.00   0.75     0.79   0.00  -0.00
     2  17     0.00  -0.33   0.02    -0.00   0.07  -0.02    -0.02  -0.00   0.00
     3  17    -0.00  -0.07  -0.00     0.33   0.00  -0.32    -0.34   0.00   0.27
     4  17     0.00  -0.07  -0.00    -0.33  -0.00  -0.32    -0.34   0.00  -0.27
     5  17     0.00  -0.33  -0.02    -0.00  -0.07  -0.02    -0.02   0.00   0.00

 -------------------
 - Thermochemistry -
 -------------------
 Temperature   298.150 Kelvin.  Pressure   1.00000 Atm.
 Atom     1 has atomic number 16 and mass  31.97207
 Atom     2 has atomic number 17 and mass  34.96885
 Atom     3 has atomic number 17 and mass  34.96885
 Atom     4 has atomic number 17 and mass  34.96885
 Atom     5 has atomic number 17 and mass  34.96885
 Molecular mass:   171.84748 amu.
 Principal axes and moments of inertia in atomic units:
                           1         2         3
     Eigenvalues --   918.271871587.319521952.09660
           X           -0.00000   1.00000   0.00000
           Y            1.00000   0.00000   0.00000
           Z           -0.00000  -0.00000   1.00000
 This molecule is an asymmetric top.
 Rotational symmetry number  2.
 Warning -- assumption of classical behavior for rotation
           may cause significant error
 Rotational temperatures (Kelvin)      0.09432     0.05457     0.04437
 Rotational constants (GHZ):           1.96537     1.13697     0.92451
 Zero-point vibrational energy      15732.0 (Joules/Mol)
                                    3.76005 (Kcal/Mol)
 Warning -- explicit consideration of   9 degrees of freedom as
           vibrations may cause significant error
 Vibrational temperatures:    152.76   228.32   280.77   335.03   342.13
          (Kelvin)            369.33   612.23   727.98   735.70
 
 Zero-point correction=                           0.005992 (Hartree/Particle)
 Thermal correction to Energy=                    0.012957
 Thermal correction to Enthalpy=                  0.013901
 Thermal correction to Gibbs Free Energy=        -0.026473
 Sum of electronic and zero-point Energies=          -2236.112652
 Sum of electronic and thermal Energies=             -2236.105687
 Sum of electronic and thermal Enthalpies=           -2236.104742
 Sum of electronic and thermal Free Energies=        -2236.145117
 
                     E (Thermal)             CV                S
                      KCal/Mol        Cal/Mol-Kelvin    Cal/Mol-Kelvin
 Total                    8.131             20.847             84.976
 Electronic               0.000              0.000              0.000
 Translational            0.889              2.981             41.332
 Rotational               0.889              2.981             28.055
 Vibrational              6.353             14.885             15.589
 Vibration     1          0.605              1.944              3.338
 Vibration     2          0.621              1.893              2.565
 Vibration     3          0.636              1.847              2.178
 Vibration     4          0.654              1.791              1.857
 Vibration     5          0.656              1.783              1.819
 Vibration     6          0.666              1.751              1.684
 Vibration     7          0.787              1.415              0.873
 Vibration     8          0.861              1.237              0.643
 Vibration     9          0.866              1.225              0.630
                       Q            Log10(Q)             Ln(Q)
 Total Bot       0.150295D+13         12.176946         28.038454
 Total V=0       0.857194D+15         14.933079         34.384686
 Vib (Bot)       0.562203D-01         -1.250107         -2.878478
 Vib (Bot)    1  0.193053D+01          0.285676          0.657793
 Vib (Bot)    2  0.127446D+01          0.105328          0.242526
 Vib (Bot)    3  0.102366D+01          0.010157          0.023388
 Vib (Bot)    4  0.844769D+00         -0.073262         -0.168692
 Vib (Bot)    5  0.825409D+00         -0.083331         -0.191877
 Vib (Bot)    6  0.757872D+00         -0.120404         -0.277241
 Vib (Bot)    7  0.410898D+00         -0.386266         -0.889410
 Vib (Bot)    8  0.323099D+00         -0.490665         -1.129797
 Vib (Bot)    9  0.318171D+00         -0.497340         -1.145168
 Vib (V=0)       0.320647D+02          1.506027          3.467754
 Vib (V=0)    1  0.249423D+01          0.396936          0.913978
 Vib (V=0)    2  0.186904D+01          0.271618          0.625423
 Vib (V=0)    3  0.163925D+01          0.214645          0.494238
 Vib (V=0)    4  0.148165D+01          0.170745          0.393156
 Vib (V=0)    5  0.146504D+01          0.165849          0.381882
 Vib (V=0)    6  0.140795D+01          0.148587          0.342133
 Vib (V=0)    7  0.114718D+01          0.059630          0.137304
 Vib (V=0)    8  0.109531D+01          0.039537          0.091037
 Vib (V=0)    9  0.109265D+01          0.038481          0.088605
 Electronic      0.100000D+01          0.000000          0.000000
 Translational   0.885459D+08          7.947169         18.299032
 Rotational      0.301915D+06          5.479884         12.617899
 ***** Axes restored to original set *****
 -------------------------------------------------------------------
 Center     Atomic                   Forces (Hartrees/Bohr)
 Number     Number              X              Y              Z
 -------------------------------------------------------------------
      1       16          -0.000000000   -0.000000000   -0.000047998
      2       17          -0.000000000    0.000035971    0.000008617
      3       17          -0.000013815    0.000000000    0.000015382
      4       17           0.000013815    0.000000000    0.000015382
      5       17           0.000000000   -0.000035971    0.000008617
 -------------------------------------------------------------------
 Cartesian Forces:  Max     0.000047998 RMS     0.000019824
 FormGI is forming the generalized inverse of G from B-inverse, IUseBI=4.

 GradGradGradGradGradGradGradGradGradGradGradGradGradGradGradGradGradGrad
 Berny optimization.
 Internal  Forces:  Max     0.000036437 RMS     0.000017734
 Search for a local minimum.
 Step number   1 out of a maximum of    2
 All quantities printed in internal units (Hartrees-Bohrs-Radians)
 Second derivative matrix not updated -- analytic derivatives used.
 The second derivative matrix:
                          R1        R2        R3        R4        A1
           R1           0.08342
           R2           0.01056   0.16295
           R3           0.01056   0.01623   0.16295
           R4           0.00381   0.01056   0.01056   0.08342
           A1           0.00766   0.00354  -0.00096  -0.00864   0.05359
           A2           0.01376  -0.00118   0.00574  -0.01552  -0.01904
           A3          -0.00001   0.00972   0.00930  -0.00085   0.00281
           A4          -0.01327   0.00700  -0.00054   0.01081  -0.05046
           A5          -0.01599  -0.00074   0.00548   0.01393   0.01144
           A6          -0.00561   0.01054  -0.00150   0.00217   0.00313
           A7           0.00365  -0.00154  -0.01211   0.00121   0.00678
           D1           0.01120   0.00385   0.00086  -0.01268   0.05072
           D2           0.00144  -0.01005  -0.00956  -0.00035  -0.00091
                          A2        A3        A4        A5        A6
           A2           0.14265
           A3           0.00552   0.05727
           A4           0.00642   0.00552   0.10528
           A5          -0.11143  -0.00094  -0.01034   0.14370
           A6          -0.01262   0.00833   0.05482   0.00111   0.05796
           A7          -0.02965  -0.01247  -0.00972  -0.03339  -0.00295
           D1           0.01504   0.00710  -0.05011  -0.01510   0.00060
           D2          -0.00039  -0.05761  -0.01017  -0.00557  -0.01108
                          A7        D1        D2
           A7           0.06685
           D1          -0.00079   0.05618
           D2           0.01460  -0.00393   0.05849
 ITU=  0
     Eigenvalues ---    0.06417   0.07133   0.08206   0.09113   0.12384
     Eigenvalues ---    0.15013   0.18793   0.20009   0.26404
 Angle between quadratic step and forces=   9.22 degrees.
 Linear search not attempted -- first point.
 Iteration  1 RMS(Cart)=  0.00022888 RMS(Int)=  0.00000002
 Iteration  2 RMS(Cart)=  0.00000003 RMS(Int)=  0.00000000
 ClnCor:  largest displacement from symmetrization is 1.97D-09 for atom     4.
 Variable       Old X    -DE/DX   Delta X   Delta X   Delta X     New X
                                 (Linear)    (Quad)   (Total)
    R1        4.33725   0.00004   0.00000   0.00048   0.00048   4.33772
    R2        3.85862  -0.00002   0.00000  -0.00019  -0.00019   3.85842
    R3        3.85862  -0.00002   0.00000  -0.00019  -0.00019   3.85842
    R4        4.33725   0.00004   0.00000   0.00048   0.00048   4.33772
    A1        1.60929   0.00000   0.00000   0.00008   0.00008   1.60937
    A2        1.60929   0.00001   0.00000   0.00008   0.00008   1.60937
    A3        1.80510   0.00001   0.00000   0.00004   0.00004   1.80514
    A4        1.60929   0.00001   0.00000   0.00008   0.00008   1.60937
    A5        1.60929   0.00001   0.00000   0.00008   0.00008   1.60937
    A6        3.21858   0.00001   0.00000   0.00015   0.00015   3.21873
    A7        3.04398  -0.00002   0.00000  -0.00020  -0.00020   3.04378
    D1        1.61960   0.00000   0.00000   0.00010   0.00010   1.61970
    D2       -1.80698  -0.00001   0.00000  -0.00005  -0.00005  -1.80703
         Item               Value     Threshold  Converged?
 Maximum Force            0.000036     0.000450     YES
 RMS     Force            0.000018     0.000300     YES
 Maximum Displacement     0.000442     0.001800     YES
 RMS     Displacement     0.000229     0.001200     YES
 Predicted change in Energy=-2.505457D-08
 Optimization completed.
    -- Stationary point found.
                           ----------------------------
                           !   Optimized Parameters   !
                           ! (Angstroms and Degrees)  !
 --------------------------                            --------------------------
 ! Name  Definition              Value          Derivative Info.                !
 --------------------------------------------------------------------------------
 ! R1    R(1,2)                  2.2952         -DE/DX =    0.0                 !
 ! R2    R(1,3)                  2.0419         -DE/DX =    0.0                 !
 ! R3    R(1,4)                  2.0419         -DE/DX =    0.0                 !
 ! R4    R(1,5)                  2.2952         -DE/DX =    0.0                 !
 ! A1    A(2,1,3)               92.2055         -DE/DX =    0.0                 !
 ! A2    A(2,1,4)               92.2055         -DE/DX =    0.0                 !
 ! A3    A(3,1,4)              103.4245         -DE/DX =    0.0                 !
 ! A4    A(3,1,5)               92.2055         -DE/DX =    0.0                 !
 ! A5    A(4,1,5)               92.2055         -DE/DX =    0.0                 !
 ! A6    L(2,1,5,3,-1)         184.411          -DE/DX =    0.0                 !
 ! A7    L(2,1,5,3,-2)         174.4073         -DE/DX =    0.0                 !
 ! D1    D(2,1,4,3)             92.7963         -DE/DX =    0.0                 !
 ! D2    D(3,1,5,4)           -103.5322         -DE/DX =    0.0                 !
 --------------------------------------------------------------------------------
 GradGradGradGradGradGradGradGradGradGradGradGradGradGradGradGradGradGrad


 ----------------------------------------------------------------------

 Electric dipole moment (input orientation):
 (Debye = 10**-18 statcoulomb cm , SI units = C m)
                  (au)            (Debye)         (10**-30 SI)
   Tot        0.435590D+00      0.110716D+01      0.369308D+01
   x          0.000000D+00      0.000000D+00      0.000000D+00
   y          0.000000D+00      0.000000D+00      0.000000D+00
   z         -0.435590D+00     -0.110716D+01     -0.369308D+01

 Dipole polarizability, Alpha (input orientation).
 (esu units = cm**3 , SI units = C**2 m**2 J**-1)
 Alpha(0;0):
               (au)            (10**-24 esu)      (10**-40 SI)
   iso        0.740596D+02      0.109745D+02      0.122108D+02
   aniso      0.690371D+02      0.102302D+02      0.113827D+02
   xx         0.608900D+02      0.902297D+01      0.100394D+02
   yx         0.000000D+00      0.000000D+00      0.000000D+00
   yy         0.118836D+03      0.176097D+02      0.195935D+02
   zx         0.000000D+00      0.000000D+00      0.000000D+00
   zy         0.000000D+00      0.000000D+00      0.000000D+00
   zz         0.424524D+02      0.629080D+01      0.699946D+01

 ----------------------------------------------------------------------

 Dipole orientation:
    16         -0.00000000          0.00000000         -0.86060426
    17         -0.00000000         -4.32887228         -1.12998567
    17          3.02866282         -0.00000000          1.53023628
    17         -3.02866282         -0.00000000          1.53023628
    17         -0.00000000          4.32887228         -1.12998567

 Electric dipole moment (dipole orientation):
 (Debye = 10**-18 statcoulomb cm , SI units = C m)
                  (au)            (Debye)         (10**-30 SI)
   Tot        0.435590D+00      0.110716D+01      0.369308D+01
   x          0.000000D+00      0.000000D+00      0.000000D+00
   y          0.000000D+00      0.000000D+00      0.000000D+00
   z          0.435590D+00      0.110716D+01      0.369308D+01

 Dipole polarizability, Alpha (dipole orientation).
 (esu units = cm**3 , SI units = C**2 m**2 J**-1)
 Alpha(0;0):
               (au)            (10**-24 esu)      (10**-40 SI)
   iso        0.740596D+02      0.109745D+02      0.122108D+02
   aniso      0.690371D+02      0.102302D+02      0.113827D+02
   xx         0.608900D+02      0.902297D+01      0.100394D+02
   yx         0.000000D+00      0.000000D+00      0.000000D+00
   yy         0.118836D+03      0.176097D+02      0.195935D+02
   zx         0.000000D+00      0.000000D+00      0.000000D+00
   zy         0.000000D+00      0.000000D+00      0.000000D+00
   zz         0.424524D+02      0.629080D+01      0.699946D+01

 ----------------------------------------------------------------------
 Unable to Open any file for archive entry.
 1\1\GINC-BS001\Freq\RMP2-FC\CC-pVDZ\Cl4S1\PNATT\10-Aug-2026\0\\#N Geom
 =AllCheck Guess=TCheck SCRF=Check GenChk RMP2(FC)/CC-pVDZ Freq\\Title 
 Card Required\\0,1\S,0.,0.,0.455412161\Cl,0.,2.2907405609,0.5979626658
 \Cl,1.6026993453,0.,-0.809766165\Cl,-1.6026993453,0.,-0.809766165\Cl,0
 .,-2.2907405609,0.5979626658\\Version=ES64L-G16RevC.01\State=1-A1\HF=-
 2235.4107564\MP2=-2236.1186437\RMSD=6.487e-10\RMSF=1.982e-05\ZeroPoint
 =0.005992\Thermal=0.0129571\ETot=-2236.1056866\HTot=-2236.1047424\GTot
 =-2236.1451172\Dipole=0.,0.,-0.4355897\DipoleDeriv=1.5271469,0.,0.,0.,
 3.2249479,0.,0.,0.,0.976971,-0.2353063,0.,0.,0.,-1.5438729,-0.1062178,
 0.,-0.0078731,-0.2601329,-0.5282671,0.,0.2634771,0.,-0.0686011,0.,0.46
 79987,0.,-0.2283526,-0.5282671,0.,-0.2634771,0.,-0.0686011,0.,-0.46799
 87,0.,-0.2283526,-0.2353063,0.,0.,0.,-1.5438729,0.1062178,0.,0.0078732
 ,-0.2601329\Polar=60.8900081,0.0000001,118.8363599,0.,-0.0000002,42.45
 24117\PG=C02V [C2(S1),SGV(Cl2),SGV'(Cl2)]\NImag=0\\0.19720428,0.,0.167
 95234,0.,0.,0.18636546,-0.01271586,0.,0.,0.01669570,0.,-0.06265134,0.0
 1100758,0.,0.08269995,0.,0.00787345,-0.01478246,0.,0.00797196,0.013588
 54,-0.08588628,0.,0.06078198,-0.00206136,0.00788021,0.00450310,0.11097
 507,0.,-0.02132483,0.,0.01183542,-0.00777170,-0.01066303,0.,0.03535278
 ,0.06666010,0.,-0.07840027,0.00237752,-0.00674945,0.00010630,-0.070601
 66,0.,0.06749530,-0.08588628,0.,-0.06078198,-0.00206136,-0.00788021,-0
 .00450310,-0.02096607,0.,-0.00081348,0.11097507,0.,-0.02132483,0.,-0.0
 1183542,-0.00777170,-0.01066303,0.,0.00151544,0.,0.,0.03535278,-0.0666
 6010,0.,-0.07840027,-0.00237752,-0.00674945,0.00010631,0.00081349,0.,0
 .01069236,0.07060165,0.,0.06749530,-0.01271586,0.,0.,0.00014288,0.,0.,
 -0.00206136,-0.01183543,0.00237752,-0.00206136,0.01183542,-0.00237752,
 0.01669570,0.,-0.06265134,-0.01100758,0.,-0.00450521,0.00548065,-0.007
 88021,-0.00777170,0.00674945,0.00788021,-0.00777170,0.00674945,0.,0.08
 269995,0.,-0.00787345,-0.01478246,0.,-0.00548065,0.00098131,0.00450310
 ,0.01066303,0.00010631,-0.00450309,0.01066303,0.00010630,0.,-0.0079719
 6,0.01358855\\0.,0.,0.00004800,0.,-0.00003597,-0.00000862,0.00001381,0
 .,-0.00001538,-0.00001381,0.,-0.00001538,0.,0.00003597,-0.00000862\\\@
 The archive entry for this job was punched.


 ERWIN WITH HIS PSI CAN DO
 CALCULATIONS QUITE A FEW.
 BUT ONE THING HAS NOT BEEN SEEN
 JUST WHAT DOES PSI REALLY MEAN.
 -- WALTER HUCKEL, TRANS. BY FELIX BLOCH
 Job cpu time:       0 days  0 hours  1 minutes 56.0 seconds.
 Elapsed time:       0 days  0 hours  1 minutes 55.7 seconds.
 File lengths (MBytes):  RWF=    839 Int=      0 D2E=      0 Chk=      2 Scr=      1
 Normal termination of Gaussian 16 at Mon Aug 10 16:51:56 2026.
