 Entering Gaussian System, Link 0=g16
 Input=SnH4.com
 Output=SnH4.log
 Initial command:
 /opt/g16/g16/l1.exe "/home/pnatt/scratch/Gau-1501717.inp" -scrdir="/home/pnatt/scratch/"
 Entering Link 1 = /opt/g16/g16/l1.exe PID=   1501729.
  
 Copyright (c) 1988-2019, Gaussian, Inc.  All Rights Reserved.
  
 This is part of the Gaussian(R) 16 program.  It is based on
 the Gaussian(R) 09 system (copyright 2009, Gaussian, Inc.),
 the Gaussian(R) 03 system (copyright 2003, Gaussian, Inc.),
 the Gaussian(R) 98 system (copyright 1998, Gaussian, Inc.),
 the Gaussian(R) 94 system (copyright 1995, Gaussian, Inc.),
 the Gaussian 92(TM) system (copyright 1992, Gaussian, Inc.),
 the Gaussian 90(TM) system (copyright 1990, Gaussian, Inc.),
 the Gaussian 88(TM) system (copyright 1988, Gaussian, Inc.),
 the Gaussian 86(TM) system (copyright 1986, Carnegie Mellon
 University), and the Gaussian 82(TM) system (copyright 1983,
 Carnegie Mellon University). Gaussian is a federally registered
 trademark of Gaussian, Inc.
  
 This software contains proprietary and confidential information,
 including trade secrets, belonging to Gaussian, Inc.
  
 This software is provided under written license and may be
 used, copied, transmitted, or stored only in accord with that
 written license.
  
 The following legend is applicable only to US Government
 contracts under FAR:
  
                    RESTRICTED RIGHTS LEGEND
  
 Use, reproduction and disclosure by the US Government is
 subject to restrictions as set forth in subparagraphs (a)
 and (c) of the Commercial Computer Software - Restricted
 Rights clause in FAR 52.227-19.
  
 Gaussian, Inc.
 340 Quinnipiac St., Bldg. 40, Wallingford CT 06492
  
  
 ---------------------------------------------------------------
 Warning -- This program may not be used in any manner that
 competes with the business of Gaussian, Inc. or will provide
 assistance to any competitor of Gaussian, Inc.  The licensee
 of this program is prohibited from giving any competitor of
 Gaussian, Inc. access to this program.  By using this program,
 the user acknowledges that Gaussian, Inc. is engaged in the
 business of creating and licensing software in the field of
 computational chemistry and represents and warrants to the
 licensee that it is not a competitor of Gaussian, Inc. and that
 it will not use this program in any manner prohibited above.
 ---------------------------------------------------------------
  

 Cite this work as:
 Gaussian 16, Revision C.01,
 M. J. Frisch, G. W. Trucks, H. B. Schlegel, G. E. Scuseria, 
 M. A. Robb, J. R. Cheeseman, G. Scalmani, V. Barone, 
 G. A. Petersson, H. Nakatsuji, X. Li, M. Caricato, A. V. Marenich, 
 J. Bloino, B. G. Janesko, R. Gomperts, B. Mennucci, H. P. Hratchian, 
 J. V. Ortiz, A. F. Izmaylov, J. L. Sonnenberg, D. Williams-Young, 
 F. Ding, F. Lipparini, F. Egidi, J. Goings, B. Peng, A. Petrone, 
 T. Henderson, D. Ranasinghe, V. G. Zakrzewski, J. Gao, N. Rega, 
 G. Zheng, W. Liang, M. Hada, M. Ehara, K. Toyota, R. Fukuda, 
 J. Hasegawa, M. Ishida, T. Nakajima, Y. Honda, O. Kitao, H. Nakai, 
 T. Vreven, K. Throssell, J. A. Montgomery, Jr., J. E. Peralta, 
 F. Ogliaro, M. J. Bearpark, J. J. Heyd, E. N. Brothers, K. N. Kudin, 
 V. N. Staroverov, T. A. Keith, R. Kobayashi, J. Normand, 
 K. Raghavachari, A. P. Rendell, J. C. Burant, S. S. Iyengar, 
 J. Tomasi, M. Cossi, J. M. Millam, M. Klene, C. Adamo, R. Cammi, 
 J. W. Ochterski, R. L. Martin, K. Morokuma, O. Farkas, 
 J. B. Foresman, and D. J. Fox, Gaussian, Inc., Wallingford CT, 2019.
 
 ******************************************
 Gaussian 16:  ES64L-G16RevC.01  3-Jul-2019
                10-Aug-2026 
 ******************************************
 %chk=SnH4.chk
 ----------------------------------------------
 # opt freq=hpmodes mp2/3-21g geom=connectivity
 ----------------------------------------------
 1/18=20,19=15,38=1,57=2/1,3;
 2/9=110,12=2,17=6,18=5,40=1/2;
 3/5=5,11=9,25=1,30=1,71=1/1,2,3;
 4//1;
 5/5=2,38=5/2;
 8/6=4,10=1/1;
 9/15=2,16=-3/6;
 10/5=1/2;
 6/7=2,8=2,9=2,10=2/1;
 7/12=2/1,2,3,16;
 1/18=20,19=15/3(2);
 2/9=110/2;
 99//99;
 2/9=110/2;
 3/5=5,11=9,25=1,30=1,71=1/1,2,3;
 4/5=5,16=3,69=1/1;
 5/5=2,38=5/2;
 8/6=4,10=1/1;
 9/15=2,16=-3/6;
 10/5=1/2;
 7/12=2/1,2,3,16;
 1/18=20,19=15/3(-8);
 2/9=110/2;
 6/7=2,8=2,9=2,10=2/1;
 99/9=10/99;
 -------------------
 Title Card Required
 -------------------
 Symbolic Z-matrix:
 Charge =  0 Multiplicity = 1
 Sn                   -0.40441   0.55147   0. 
 H                     0.16224  -1.05131   0. 
 H                     0.16226   1.35285   1.38804 
 H                     0.16226   1.35285  -1.38804 
 H                    -2.10441   0.55149   0. 
 

 GradGradGradGradGradGradGradGradGradGradGradGradGradGradGradGradGradGrad
 Berny optimization.
 Initialization pass.
                           ----------------------------
                           !    Initial Parameters    !
                           ! (Angstroms and Degrees)  !
 --------------------------                            --------------------------
 ! Name  Definition              Value          Derivative Info.                !
 --------------------------------------------------------------------------------
 ! R1    R(1,2)                  1.7            estimate D2E/DX2                !
 ! R2    R(1,3)                  1.7            estimate D2E/DX2                !
 ! R3    R(1,4)                  1.7            estimate D2E/DX2                !
 ! R4    R(1,5)                  1.7            estimate D2E/DX2                !
 ! A1    A(2,1,3)              109.4712         estimate D2E/DX2                !
 ! A2    A(2,1,4)              109.4712         estimate D2E/DX2                !
 ! A3    A(2,1,5)              109.4712         estimate D2E/DX2                !
 ! A4    A(3,1,4)              109.4713         estimate D2E/DX2                !
 ! A5    A(3,1,5)              109.4712         estimate D2E/DX2                !
 ! A6    A(4,1,5)              109.4712         estimate D2E/DX2                !
 ! D1    D(2,1,4,3)           -120.0            estimate D2E/DX2                !
 ! D2    D(2,1,5,3)            120.0            estimate D2E/DX2                !
 ! D3    D(2,1,5,4)           -120.0            estimate D2E/DX2                !
 ! D4    D(3,1,5,4)            120.0            estimate D2E/DX2                !
 --------------------------------------------------------------------------------
 Trust Radius=3.00D-01 FncErr=1.00D-07 GrdErr=1.00D-07 EigMax=2.50D+02 EigMin=1.00D-04
 Number of steps in this run=     24 maximum allowed number of steps=    100.
 GradGradGradGradGradGradGradGradGradGradGradGradGradGradGradGradGradGrad

                          Input orientation:                          
 ---------------------------------------------------------------------
 Center     Atomic      Atomic             Coordinates (Angstroms)
 Number     Number       Type             X           Y           Z
 ---------------------------------------------------------------------
      1         50           0       -0.404412    0.551471    0.000000
      2          1           0        0.162235   -1.051312    0.000000
      3          1           0        0.162265    1.352851    1.388044
      4          1           0        0.162265    1.352851   -1.388044
      5          1           0       -2.104412    0.551492    0.000000
 ---------------------------------------------------------------------
                    Distance matrix (angstroms):
                    1          2          3          4          5
     1  Sn   0.000000
     2  H    1.700000   0.000000
     3  H    1.700000   2.776088   0.000000
     4  H    1.700000   2.776088   2.776089   0.000000
     5  H    1.700000   2.776089   2.776088   2.776088   0.000000
 Stoichiometry    H4Sn
 Framework group  T[O(Sn),4C3(H)]
 Deg. of freedom     1
 Full point group                 T       NOp  12
 Largest Abelian subgroup         D2      NOp   4
 Largest concise Abelian subgroup D2      NOp   4
                         Standard orientation:                         
 ---------------------------------------------------------------------
 Center     Atomic      Atomic             Coordinates (Angstroms)
 Number     Number       Type             X           Y           Z
 ---------------------------------------------------------------------
      1         50           0        0.000000    0.000000    0.000000
      2          1           0        0.981495    0.981495    0.981495
      3          1           0       -0.981495    0.981495   -0.981495
      4          1           0        0.981495   -0.981495   -0.981495
      5          1           0       -0.981495   -0.981495    0.981495
 ---------------------------------------------------------------------
 Rotational constants (GHZ):          65.0677046          65.0677046          65.0677046
 Standard basis: 3-21G (6D, 7F)
 There are    14 symmetry adapted cartesian basis functions of A   symmetry.
 There are     9 symmetry adapted cartesian basis functions of B1  symmetry.
 There are     9 symmetry adapted cartesian basis functions of B2  symmetry.
 There are     9 symmetry adapted cartesian basis functions of B3  symmetry.
 There are    14 symmetry adapted basis functions of A   symmetry.
 There are     9 symmetry adapted basis functions of B1  symmetry.
 There are     9 symmetry adapted basis functions of B2  symmetry.
 There are     9 symmetry adapted basis functions of B3  symmetry.
    41 basis functions,    99 primitive gaussians,    41 cartesian basis functions
    27 alpha electrons       27 beta electrons
       nuclear repulsion energy        63.3998611854 Hartrees.
 NAtoms=    5 NActive=    5 NUniq=    2 SFac= 4.00D+00 NAtFMM=   60 NAOKFM=F Big=F
 Integral buffers will be    131072 words long.
 Raffenetti 1 integral format.
 Two-electron integral symmetry is turned on.
 One-electron integrals computed using PRISM.
 NBasis=    41 RedAO= T EigKep=  1.27D-03  NBF=    14     9     9     9
 NBsUse=    41 1.00D-06 EigRej= -1.00D+00 NBFU=    14     9     9     9
 ExpMin= 7.06D-02 ExpMax= 1.27D+04 ExpMxC= 1.27D+04 IAcc=3 IRadAn=         5 AccDes= 0.00D+00
 Harris functional with IExCor=  205 and IRadAn=       5 diagonalized for initial guess.
 HarFok:  IExCor=  205 AccDes= 0.00D+00 IRadAn=         5 IDoV= 1 UseB2=F ITyADJ=14
 ICtDFT=  3500011 ScaDFX=  1.000000  1.000000  1.000000  1.000000
 Defaulting to unpruned grid for atomic number  50.
 FoFCou: FMM=F IPFlag=           0 FMFlag=      100000 FMFlg1=           0
         NFxFlg=           0 DoJE=T BraDBF=F KetDBF=T FulRan=T
         wScrn=  0.000000 ICntrl=       500 IOpCl=  0 I1Cent=   200000004 NGrid=           0
         NMat0=    1 NMatS0=      1 NMatT0=    0 NMatD0=    1 NMtDS0=    0 NMtDT0=    0
 Petite list used in FoFCou.
 Initial guess orbital symmetries:
       Occupied  (A) (A) (T) (T) (T) (A) (T) (T) (T) (T) (T) (T)
                 (E) (E) (A) (T) (T) (T) (T) (T) (T) (E) (E) (A)
                 (T) (T) (T)
       Virtual   (T) (T) (T) (A) (A) (T) (T) (T) (T) (T) (T) (A)
                 (A) (A)
 The electronic state of the initial guess is 1-A.
 Keep R1 ints in memory in symmetry-blocked form, NReq=1206376.
 Requested convergence on RMS density matrix=1.00D-08 within 128 cycles.
 Requested convergence on MAX density matrix=1.00D-06.
 Requested convergence on             energy=1.00D-06.
 No special actions if energy rises.
 SCF Done:  E(RHF) =  -5998.95154365     A.U. after    8 cycles
            NFock=  8  Conv=0.82D-08     -V/T= 2.0030
 ExpMin= 7.06D-02 ExpMax= 1.27D+04 ExpMxC= 1.27D+04 IAcc=3 IRadAn=         5 AccDes= 0.00D+00
 HarFok:  IExCor=  205 AccDes= 0.00D+00 IRadAn=         5 IDoV=-2 UseB2=F ITyADJ=14
 ICtDFT= 12500011 ScaDFX=  1.000000  1.000000  1.000000  1.000000
 Defaulting to unpruned grid for atomic number  50.
 Range of M.O.s used for correlation:    19    41
 NBasis=    41 NAE=    27 NBE=    27 NFC=    18 NFV=     0
 NROrb=     23 NOA=     9 NOB=     9 NVA=    14 NVB=    14

 **** Warning!!: The largest alpha MO coefficient is  0.21240108D+02

 Fully direct method using O(ONN) memory.
 JobTyp=1 Pass  1:  I=  19 to  27 NPSUse=  1 ParTrn=F ParDer=F DoDerP=T.
 Spin components of T(2) and E(2):
     alpha-alpha T2 =       0.1205808389D-02 E2=     -0.2298133291D-02
     alpha-beta  T2 =       0.2896543982D-01 E2=     -0.5609066104D-01
     beta-beta   T2 =       0.1205808389D-02 E2=     -0.2298133291D-02
 ANorm=    0.1015567357D+01
 E2 =    -0.6068692762D-01 EUMP2 =    -0.59990122305733D+04
          IDoAtm=11111
          Differentiating once with respect to electric field.
                with respect to dipole field.
          Differentiating once with respect to nuclear coordinates.
 Keep R1 ints in memory in symmetry-blocked form, NReq=1207280.
          There are     1 degrees of freedom in the 1st order CPHF.  IDoFFX=0 NUNeed=     1.
 LinEq1:  Iter=  0 NonCon=     1 RMS=3.14D-03 Max=2.79D-02 NDo=     1
 AX will form     1 AO Fock derivatives at one time.
 LinEq1:  Iter=  1 NonCon=     1 RMS=2.79D-04 Max=2.18D-03 NDo=     1
 LinEq1:  Iter=  2 NonCon=     1 RMS=2.44D-05 Max=2.15D-04 NDo=     1
 LinEq1:  Iter=  3 NonCon=     1 RMS=3.38D-06 Max=4.59D-05 NDo=     1
 LinEq1:  Iter=  4 NonCon=     1 RMS=1.17D-07 Max=1.75D-06 NDo=     1
 LinEq1:  Iter=  5 NonCon=     1 RMS=5.55D-09 Max=5.64D-08 NDo=     1
 LinEq1:  Iter=  6 NonCon=     1 RMS=1.71D-10 Max=1.19D-09 NDo=     1
 LinEq1:  Iter=  7 NonCon=     0 RMS=1.55D-11 Max=1.17D-10 NDo=     1
 Linear equations converged to 1.000D-10 1.000D-09 after     7 iterations.
 End of Minotr F.D. properties file   721 does not exist.
 End of Minotr F.D. properties file   722 does not exist.
 End of Minotr F.D. properties file   788 does not exist.

 **********************************************************************

            Population analysis using the SCF Density.

 **********************************************************************

 Orbital symmetries:
       Occupied  (A) (A) (T) (T) (T) (A) (T) (T) (T) (T) (T) (T)
                 (E) (E) (A) (T) (T) (T) (T) (T) (T) (E) (E) (A)
                 (T) (T) (T)
       Virtual   (T) (T) (T) (A) (A) (T) (T) (T) (T) (T) (T) (A)
                 (A) (A)
 The electronic state is 1-A.
 Alpha  occ. eigenvalues -- **********-156.23813-145.38683-145.38683-145.38683
 Alpha  occ. eigenvalues --  -31.53217 -26.90938 -26.90938 -26.90938 -19.07380
 Alpha  occ. eigenvalues --  -19.07380 -19.07380 -19.07355 -19.07355  -5.54065
 Alpha  occ. eigenvalues --   -3.92497  -3.92497  -3.92497  -1.41103  -1.41103
 Alpha  occ. eigenvalues --   -1.41103  -1.40614  -1.40614  -0.66814  -0.44682
 Alpha  occ. eigenvalues --   -0.44682  -0.44682
 Alpha virt. eigenvalues --    0.15349   0.15349   0.15349   0.24277   0.30379
 Alpha virt. eigenvalues --    0.37428   0.37428   0.37428   1.32353   1.32353
 Alpha virt. eigenvalues --    1.32353   1.35364   2.98444 210.85153
          Condensed to atoms (all electrons):
               1          2          3          4          5
     1  Sn  47.720084   0.344050   0.344050   0.344050   0.344050
     2  H    0.344050   0.907040  -0.008387  -0.008387  -0.008387
     3  H    0.344050  -0.008387   0.907040  -0.008387  -0.008387
     4  H    0.344050  -0.008387  -0.008387   0.907040  -0.008387
     5  H    0.344050  -0.008387  -0.008387  -0.008387   0.907040
 Mulliken charges:
               1
     1  Sn   0.903714
     2  H   -0.225929
     3  H   -0.225929
     4  H   -0.225929
     5  H   -0.225929
 Sum of Mulliken charges =  -0.00000
 Mulliken charges with hydrogens summed into heavy atoms:
               1
     1  Sn  -0.000000
 Electronic spatial extent (au):  <R**2>=            111.3615
 Charge=              0.0000 electrons
 Dipole moment (field-independent basis, Debye):
    X=              0.0000    Y=              0.0000    Z=              0.0000  Tot=              0.0000
 Quadrupole moment (field-independent basis, Debye-Ang):
   XX=            -31.4200   YY=            -31.4200   ZZ=            -31.4200
   XY=             -0.0000   XZ=             -0.0000   YZ=             -0.0000
 Traceless Quadrupole moment (field-independent basis, Debye-Ang):
   XX=             -0.0000   YY=              0.0000   ZZ=              0.0000
   XY=             -0.0000   XZ=             -0.0000   YZ=             -0.0000
 Octapole moment (field-independent basis, Debye-Ang**2):
  XXX=              0.0000  YYY=              0.0000  ZZZ=             -0.0000  XYY=              0.0000
  XXY=              0.0000  XXZ=             -0.0000  XZZ=              0.0000  YZZ=              0.0000
  YYZ=             -0.0000  XYZ=             -4.2152
 Hexadecapole moment (field-independent basis, Debye-Ang**3):
 XXXX=            -68.8018 YYYY=            -68.8018 ZZZZ=            -68.8018 XXXY=             -0.0000
 XXXZ=             -0.0000 YYYX=             -0.0000 YYYZ=              0.0000 ZZZX=             -0.0000
 ZZZY=              0.0000 XXYY=            -24.8919 XXZZ=            -24.8919 YYZZ=            -24.8919
 XXYZ=              0.0000 YYXZ=             -0.0000 ZZXY=             -0.0000
 N-N= 6.339986118535D+01 E-N=-1.438282146197D+04  KE= 5.981260711042D+03
 Symmetry A    KE= 3.404648241016D+03
 Symmetry B1   KE= 8.588708233421D+02
 Symmetry B2   KE= 8.588708233421D+02
 Symmetry B3   KE= 8.588708233421D+02
 Calling FoFJK, ICntrl=  10002127 FMM=F ISym2X=1 I1Cent= 0 IOpClX= 0 NMat=1 NMatS=1 NMatT=0.
 ***** Axes restored to original set *****
 -------------------------------------------------------------------
 Center     Atomic                   Forces (Hartrees/Bohr)
 Number     Number              X              Y              Z
 -------------------------------------------------------------------
      1       50          -0.000000000   -0.000000000   -0.000000000
      2        1           0.004750674   -0.013437456    0.000000001
      3        1           0.004750919    0.006718642    0.011637128
      4        1           0.004750920    0.006718641   -0.011637128
      5        1          -0.014252513    0.000000173   -0.000000001
 -------------------------------------------------------------------
 Cartesian Forces:  Max     0.014252513 RMS     0.007359966

 GradGradGradGradGradGradGradGradGradGradGradGradGradGradGradGradGradGrad
 Berny optimization.
 FormGI is forming the generalized inverse of G from B-inverse, IUseBI=4.
 Internal  Forces:  Max     0.014252513 RMS     0.007618288
 Search for a local minimum.
 Step number   1 out of a maximum of   24
 All quantities printed in internal units (Hartrees-Bohrs-Radians)
 Mixed Optimization -- RFO/linear search
 Second derivative matrix not updated -- first step.
 The second derivative matrix:
                          R1        R2        R3        R4        A1
           R1           0.12878
           R2           0.00000   0.12878
           R3           0.00000   0.00000   0.12878
           R4           0.00000   0.00000   0.00000   0.12878
           A1           0.00000   0.00000   0.00000   0.00000   0.16000
           A2           0.00000   0.00000   0.00000   0.00000   0.00000
           A3           0.00000   0.00000   0.00000   0.00000   0.00000
           A4           0.00000   0.00000   0.00000   0.00000   0.00000
           A5           0.00000   0.00000   0.00000   0.00000   0.00000
           A6           0.00000   0.00000   0.00000   0.00000   0.00000
           D1           0.00000   0.00000   0.00000   0.00000   0.00000
           D2           0.00000   0.00000   0.00000   0.00000   0.00000
           D3           0.00000   0.00000   0.00000   0.00000   0.00000
           D4           0.00000   0.00000   0.00000   0.00000   0.00000
                          A2        A3        A4        A5        A6
           A2           0.16000
           A3           0.00000   0.16000
           A4           0.00000   0.00000   0.16000
           A5           0.00000   0.00000   0.00000   0.16000
           A6           0.00000   0.00000   0.00000   0.00000   0.16000
           D1           0.00000   0.00000   0.00000   0.00000   0.00000
           D2           0.00000   0.00000   0.00000   0.00000   0.00000
           D3           0.00000   0.00000   0.00000   0.00000   0.00000
           D4           0.00000   0.00000   0.00000   0.00000   0.00000
                          D1        D2        D3        D4
           D1           0.00230
           D2           0.00000   0.00230
           D3           0.00000   0.00000   0.00230
           D4           0.00000   0.00000   0.00000   0.00230
 ITU=  0
     Eigenvalues ---    0.05082   0.05715   0.08641   0.12878   0.12878
     Eigenvalues ---    0.12878   0.12878   0.16000   0.16000
 RFO step:  Lambda=-6.02740824D-03 EMin= 5.08230769D-02
 Linear search not attempted -- first point.
 Iteration  1 RMS(Cart)=  0.05651257 RMS(Int)=  0.00000000
 Iteration  2 RMS(Cart)=  0.00000000 RMS(Int)=  0.00000000
 ClnCor:  largest displacement from symmetrization is 5.82D-13 for atom     3.
 Variable       Old X    -DE/DX   Delta X   Delta X   Delta X     New X
                                 (Linear)    (Quad)   (Total)
    R1        3.21253   0.01425   0.00000   0.10573   0.10573   3.31826
    R2        3.21253   0.01425   0.00000   0.10573   0.10573   3.31826
    R3        3.21253   0.01425   0.00000   0.10573   0.10573   3.31826
    R4        3.21253   0.01425   0.00000   0.10573   0.10573   3.31826
    A1        1.91063  -0.00000   0.00000  -0.00000  -0.00000   1.91063
    A2        1.91063   0.00000   0.00000   0.00000   0.00000   1.91063
    A3        1.91063  -0.00000   0.00000  -0.00000  -0.00000   1.91063
    A4        1.91063  -0.00000   0.00000  -0.00000  -0.00000   1.91063
    A5        1.91063   0.00000   0.00000   0.00000   0.00000   1.91063
    A6        1.91063  -0.00000   0.00000  -0.00000   0.00000   1.91063
    D1       -2.09440   0.00000   0.00000   0.00000   0.00000  -2.09440
    D2        2.09440  -0.00000   0.00000  -0.00000   0.00000   2.09440
    D3       -2.09440  -0.00000   0.00000  -0.00000   0.00000  -2.09440
    D4        2.09440  -0.00000   0.00000  -0.00000   0.00000   2.09440
         Item               Value     Threshold  Converged?
 Maximum Force            0.014253     0.000450     NO 
 RMS     Force            0.007618     0.000300     NO 
 Maximum Displacement     0.105725     0.001800     NO 
 RMS     Displacement     0.056513     0.001200     NO 
 Predicted change in Energy=-3.148450D-03
 GradGradGradGradGradGradGradGradGradGradGradGradGradGradGradGradGradGrad

                          Input orientation:                          
 ---------------------------------------------------------------------
 Center     Atomic      Atomic             Coordinates (Angstroms)
 Number     Number       Type             X           Y           Z
 ---------------------------------------------------------------------
      1         50           0       -0.404412    0.551471   -0.000000
      2          1           0        0.180884   -1.104060    0.000000
      3          1           0        0.180914    1.379225    1.433725
      4          1           0        0.180914    1.379225   -1.433725
      5          1           0       -2.160359    0.551492   -0.000000
 ---------------------------------------------------------------------
                    Distance matrix (angstroms):
                    1          2          3          4          5
     1  Sn   0.000000
     2  H    1.755947   0.000000
     3  H    1.755947   2.867450   0.000000
     4  H    1.755947   2.867450   2.867450   0.000000
     5  H    1.755947   2.867450   2.867450   2.867450   0.000000
 Stoichiometry    H4Sn
 Framework group  TD[O(Sn),4C3(H)]
 Deg. of freedom     1
 Full point group                 TD      NOp  24
 Omega: Change in point group or standard orientation.

 Old FWG=T    [O(Sn1),4C3(H1)]
 New FWG=TD   [O(Sn1),4C3(H1)]
 Largest Abelian subgroup         D2      NOp   4
 Largest concise Abelian subgroup D2      NOp   4
                         Standard orientation:                         
 ---------------------------------------------------------------------
 Center     Atomic      Atomic             Coordinates (Angstroms)
 Number     Number       Type             X           Y           Z
 ---------------------------------------------------------------------
      1         50           0        0.000000    0.000000    0.000000
      2          1           0        1.013797    1.013797    1.013797
      3          1           0       -1.013797   -1.013797    1.013797
      4          1           0       -1.013797    1.013797   -1.013797
      5          1           0        1.013797   -1.013797   -1.013797
 ---------------------------------------------------------------------
 Rotational constants (GHZ):          60.9874259          60.9874259          60.9874259
 Standard basis: 3-21G (6D, 7F)
 There are    14 symmetry adapted cartesian basis functions of A   symmetry.
 There are     9 symmetry adapted cartesian basis functions of B1  symmetry.
 There are     9 symmetry adapted cartesian basis functions of B2  symmetry.
 There are     9 symmetry adapted cartesian basis functions of B3  symmetry.
 There are    14 symmetry adapted basis functions of A   symmetry.
 There are     9 symmetry adapted basis functions of B1  symmetry.
 There are     9 symmetry adapted basis functions of B2  symmetry.
 There are     9 symmetry adapted basis functions of B3  symmetry.
    41 basis functions,    99 primitive gaussians,    41 cartesian basis functions
    27 alpha electrons       27 beta electrons
       nuclear repulsion energy        61.3798348684 Hartrees.
 NAtoms=    5 NActive=    5 NUniq=    2 SFac= 4.00D+00 NAtFMM=   60 NAOKFM=F Big=F
 Integral buffers will be    131072 words long.
 Raffenetti 1 integral format.
 Two-electron integral symmetry is turned on.
 One-electron integrals computed using PRISM.
 NBasis=    41 RedAO= T EigKep=  1.27D-03  NBF=    14     9     9     9
 NBsUse=    41 1.00D-06 EigRej= -1.00D+00 NBFU=    14     9     9     9
 Initial guess from the checkpoint file:  "SnH4.chk"
 B after Tr=    -0.000000    0.000000    0.000000
         Rot=    0.500000   -0.500000   -0.500000   -0.500000 Ang=-120.00 deg.
 Initial guess orbital symmetries:
       Occupied  (A1) (A1) (T2) (T2) (T2) (A1) (T2) (T2) (T2) (T2)
                 (T2) (T2) (E) (E) (A1) (T2) (T2) (T2) (T2) (T2)
                 (T2) (E) (E) (A1) (T2) (T2) (T2)
       Virtual   (T2) (T2) (T2) (A1) (A1) (T2) (T2) (T2) (T2) (T2)
                 (T2) (A1) (A1) (A1)
 ExpMin= 7.06D-02 ExpMax= 1.27D+04 ExpMxC= 1.27D+04 IAcc=3 IRadAn=         5 AccDes= 0.00D+00
 Harris functional with IExCor=  205 and IRadAn=       5 diagonalized for initial guess.
 HarFok:  IExCor=  205 AccDes= 0.00D+00 IRadAn=         5 IDoV= 1 UseB2=F ITyADJ=14
 ICtDFT=  3500011 ScaDFX=  1.000000  1.000000  1.000000  1.000000
 Defaulting to unpruned grid for atomic number  50.
 FoFCou: FMM=F IPFlag=           0 FMFlag=      100000 FMFlg1=           0
         NFxFlg=           0 DoJE=T BraDBF=F KetDBF=T FulRan=T
         wScrn=  0.000000 ICntrl=       500 IOpCl=  0 I1Cent=   200000004 NGrid=           0
         NMat0=    1 NMatS0=      1 NMatT0=    0 NMatD0=    1 NMtDS0=    0 NMtDT0=    0
 Petite list used in FoFCou.
 Keep R1 ints in memory in symmetry-blocked form, NReq=1206452.
 Requested convergence on RMS density matrix=1.00D-08 within 128 cycles.
 Requested convergence on MAX density matrix=1.00D-06.
 Requested convergence on             energy=1.00D-06.
 No special actions if energy rises.
 SCF Done:  E(RHF) =  -5998.95277643     A.U. after    8 cycles
            NFock=  8  Conv=0.88D-08     -V/T= 2.0030
 ExpMin= 7.06D-02 ExpMax= 1.27D+04 ExpMxC= 1.27D+04 IAcc=3 IRadAn=         5 AccDes= 0.00D+00
 HarFok:  IExCor=  205 AccDes= 0.00D+00 IRadAn=         5 IDoV=-2 UseB2=F ITyADJ=14
 ICtDFT= 12500011 ScaDFX=  1.000000  1.000000  1.000000  1.000000
 Defaulting to unpruned grid for atomic number  50.
 Range of M.O.s used for correlation:    19    41
 NBasis=    41 NAE=    27 NBE=    27 NFC=    18 NFV=     0
 NROrb=     23 NOA=     9 NOB=     9 NVA=    14 NVB=    14

 **** Warning!!: The largest alpha MO coefficient is  0.21240130D+02

 Fully direct method using O(ONN) memory.
 JobTyp=1 Pass  1:  I=  19 to  27 NPSUse=  1 ParTrn=F ParDer=F DoDerP=T.
 Spin components of T(2) and E(2):
     alpha-alpha T2 =       0.1202894665D-02 E2=     -0.2243916220D-02
     alpha-beta  T2 =       0.3086221449D-01 E2=     -0.5738696798D-01
     beta-beta   T2 =       0.1202894665D-02 E2=     -0.2243916220D-02
 ANorm=    0.1016497911D+01
 E2 =    -0.6187480042D-01 EUMP2 =    -0.59990146512353D+04
          IDoAtm=11111
          Differentiating once with respect to electric field.
                with respect to dipole field.
          Differentiating once with respect to nuclear coordinates.
 Keep R1 ints in memory in symmetry-blocked form, NReq=1207412.
          There are     1 degrees of freedom in the 1st order CPHF.  IDoFFX=0 NUNeed=     1.
 LinEq1:  Iter=  0 NonCon=     1 RMS=3.20D-03 Max=3.04D-02 NDo=     1
 AX will form     1 AO Fock derivatives at one time.
 LinEq1:  Iter=  1 NonCon=     1 RMS=3.02D-04 Max=2.31D-03 NDo=     1
 LinEq1:  Iter=  2 NonCon=     1 RMS=2.95D-05 Max=2.44D-04 NDo=     1
 LinEq1:  Iter=  3 NonCon=     1 RMS=4.12D-06 Max=5.92D-05 NDo=     1
 LinEq1:  Iter=  4 NonCon=     1 RMS=1.49D-07 Max=2.17D-06 NDo=     1
 LinEq1:  Iter=  5 NonCon=     1 RMS=7.57D-09 Max=7.16D-08 NDo=     1
 LinEq1:  Iter=  6 NonCon=     1 RMS=2.42D-10 Max=1.72D-09 NDo=     1
 LinEq1:  Iter=  7 NonCon=     0 RMS=2.23D-11 Max=1.81D-10 NDo=     1
 Linear equations converged to 1.000D-10 1.000D-09 after     7 iterations.
 End of Minotr F.D. properties file   721 does not exist.
 End of Minotr F.D. properties file   722 does not exist.
 End of Minotr F.D. properties file   788 does not exist.
 Calling FoFJK, ICntrl=  10002127 FMM=F ISym2X=1 I1Cent= 0 IOpClX= 0 NMat=1 NMatS=1 NMatT=0.
 ***** Axes restored to original set *****
 -------------------------------------------------------------------
 Center     Atomic                   Forces (Hartrees/Bohr)
 Number     Number              X              Y              Z
 -------------------------------------------------------------------
      1       50           0.000000000    0.000000000   -0.000000000
      2        1          -0.000741366    0.002096980   -0.000000000
      3        1          -0.000741404   -0.001048477   -0.001816030
      4        1          -0.000741404   -0.001048476    0.001816030
      5        1           0.002224174   -0.000000027    0.000000000
 -------------------------------------------------------------------
 Cartesian Forces:  Max     0.002224174 RMS     0.001148558

 GradGradGradGradGradGradGradGradGradGradGradGradGradGradGradGradGradGrad
 Berny optimization.
 Using GEDIIS/GDIIS optimizer.
 FormGI is forming the generalized inverse of G from B-inverse, IUseBI=4.
 Internal  Forces:  Max     0.002224174 RMS     0.001188871
 Search for a local minimum.
 Step number   2 out of a maximum of   24
 All quantities printed in internal units (Hartrees-Bohrs-Radians)
 Mixed Optimization -- RFO/linear search
 Update second derivatives using D2CorX and points    1    2
 DE= -2.42D-03 DEPred=-3.15D-03 R= 7.69D-01
 TightC=F SS=  1.41D+00  RLast= 2.11D-01 DXNew= 5.0454D-01 6.3435D-01
 Trust test= 7.69D-01 RLast= 2.11D-01 DXMaxT set to 5.05D-01
 The second derivative matrix:
                          R1        R2        R3        R4        A1
           R1           0.13555
           R2           0.00677   0.13555
           R3           0.00677   0.00677   0.13555
           R4           0.00677   0.00677   0.00677   0.13555
           A1          -0.00000  -0.00000  -0.00000  -0.00000   0.16000
           A2           0.00000   0.00000   0.00000   0.00000  -0.00000
           A3           0.00000   0.00000   0.00000   0.00000  -0.00000
           A4           0.00000   0.00000   0.00000   0.00000  -0.00000
           A5           0.00000   0.00000   0.00000   0.00000  -0.00000
           A6          -0.00000  -0.00000  -0.00000  -0.00000   0.00000
           D1           0.00000   0.00000   0.00000   0.00000  -0.00000
           D2          -0.00000  -0.00000  -0.00000  -0.00000   0.00000
           D3           0.00000   0.00000   0.00000   0.00000  -0.00000
           D4           0.00000   0.00000   0.00000   0.00000  -0.00000
                          A2        A3        A4        A5        A6
           A2           0.16000
           A3           0.00000   0.16000
           A4           0.00000   0.00000   0.16000
           A5           0.00000   0.00000   0.00000   0.16000
           A6          -0.00000  -0.00000  -0.00000  -0.00000   0.16000
           D1           0.00000   0.00000   0.00000   0.00000  -0.00000
           D2          -0.00000  -0.00000  -0.00000  -0.00000   0.00000
           D3           0.00000   0.00000   0.00000   0.00000  -0.00000
           D4           0.00000   0.00000   0.00000   0.00000  -0.00000
                          D1        D2        D3        D4
           D1           0.00230
           D2          -0.00000   0.00230
           D3           0.00000  -0.00000   0.00230
           D4           0.00000  -0.00000   0.00000   0.00230
 ITU=  1  0
 Use linear search instead of GDIIS.
     Eigenvalues ---    0.05082   0.05715   0.08641   0.12878   0.12878
     Eigenvalues ---    0.12878   0.15584   0.16000   0.16000
 RFO step:  Lambda= 0.00000000D+00 EMin= 5.08230769D-02
 Quartic linear search produced a step of -0.14816.
 Iteration  1 RMS(Cart)=  0.00837304 RMS(Int)=  0.00000000
 Iteration  2 RMS(Cart)=  0.00000000 RMS(Int)=  0.00000000
 ClnCor:  largest displacement from symmetrization is 5.62D-13 for atom     3.
 Variable       Old X    -DE/DX   Delta X   Delta X   Delta X     New X
                                 (Linear)    (Quad)   (Total)
    R1        3.31826  -0.00222  -0.01566   0.00000  -0.01566   3.30260
    R2        3.31826  -0.00222  -0.01566   0.00000  -0.01566   3.30260
    R3        3.31826  -0.00222  -0.01566  -0.00000  -0.01566   3.30260
    R4        3.31826  -0.00222  -0.01566   0.00000  -0.01566   3.30260
    A1        1.91063  -0.00000   0.00000  -0.00000   0.00000   1.91063
    A2        1.91063   0.00000  -0.00000   0.00000   0.00000   1.91063
    A3        1.91063  -0.00000   0.00000  -0.00000  -0.00000   1.91063
    A4        1.91063  -0.00000   0.00000  -0.00000  -0.00000   1.91063
    A5        1.91063   0.00000  -0.00000   0.00000   0.00000   1.91063
    A6        1.91063  -0.00000   0.00000  -0.00000   0.00000   1.91063
    D1       -2.09440   0.00000  -0.00000   0.00000  -0.00000  -2.09440
    D2        2.09440  -0.00000   0.00000  -0.00000   0.00000   2.09440
    D3       -2.09440  -0.00000  -0.00000  -0.00000  -0.00000  -2.09440
    D4        2.09440  -0.00000  -0.00000  -0.00000   0.00000   2.09440
         Item               Value     Threshold  Converged?
 Maximum Force            0.002224     0.000450     NO 
 RMS     Force            0.001189     0.000300     NO 
 Maximum Displacement     0.015665     0.001800     NO 
 RMS     Displacement     0.008373     0.001200     NO 
 Predicted change in Energy=-6.288121D-05
 GradGradGradGradGradGradGradGradGradGradGradGradGradGradGradGradGradGrad

                          Input orientation:                          
 ---------------------------------------------------------------------
 Center     Atomic      Atomic             Coordinates (Angstroms)
 Number     Number       Type             X           Y           Z
 ---------------------------------------------------------------------
      1         50           0       -0.404412    0.551471    0.000000
      2          1           0        0.178121   -1.096244    0.000000
      3          1           0        0.178151    1.375317    1.426957
      4          1           0        0.178151    1.375317   -1.426957
      5          1           0       -2.152070    0.551492   -0.000000
 ---------------------------------------------------------------------
                    Distance matrix (angstroms):
                    1          2          3          4          5
     1  Sn   0.000000
     2  H    1.747658   0.000000
     3  H    1.747658   2.853914   0.000000
     4  H    1.747658   2.853914   2.853914   0.000000
     5  H    1.747658   2.853914   2.853914   2.853914   0.000000
 Stoichiometry    H4Sn
 Framework group  TD[O(Sn),4C3(H)]
 Deg. of freedom     1
 Full point group                 TD      NOp  24
 Largest Abelian subgroup         D2      NOp   4
 Largest concise Abelian subgroup D2      NOp   4
                         Standard orientation:                         
 ---------------------------------------------------------------------
 Center     Atomic      Atomic             Coordinates (Angstroms)
 Number     Number       Type             X           Y           Z
 ---------------------------------------------------------------------
      1         50           0        0.000000    0.000000    0.000000
      2          1           0        1.009011    1.009011    1.009011
      3          1           0       -1.009011   -1.009011    1.009011
      4          1           0       -1.009011    1.009011   -1.009011
      5          1           0        1.009011   -1.009011   -1.009011
 ---------------------------------------------------------------------
 Rotational constants (GHZ):          61.5673366          61.5673366          61.5673366
 Standard basis: 3-21G (6D, 7F)
 There are    14 symmetry adapted cartesian basis functions of A   symmetry.
 There are     9 symmetry adapted cartesian basis functions of B1  symmetry.
 There are     9 symmetry adapted cartesian basis functions of B2  symmetry.
 There are     9 symmetry adapted cartesian basis functions of B3  symmetry.
 There are    14 symmetry adapted basis functions of A   symmetry.
 There are     9 symmetry adapted basis functions of B1  symmetry.
 There are     9 symmetry adapted basis functions of B2  symmetry.
 There are     9 symmetry adapted basis functions of B3  symmetry.
    41 basis functions,    99 primitive gaussians,    41 cartesian basis functions
    27 alpha electrons       27 beta electrons
       nuclear repulsion energy        61.6709654034 Hartrees.
 NAtoms=    5 NActive=    5 NUniq=    2 SFac= 4.00D+00 NAtFMM=   60 NAOKFM=F Big=F
 Integral buffers will be    131072 words long.
 Raffenetti 1 integral format.
 Two-electron integral symmetry is turned on.
 One-electron integrals computed using PRISM.
 NBasis=    41 RedAO= T EigKep=  1.27D-03  NBF=    14     9     9     9
 NBsUse=    41 1.00D-06 EigRej= -1.00D+00 NBFU=    14     9     9     9
 Initial guess from the checkpoint file:  "SnH4.chk"
 B after Tr=     0.000000    0.000000    0.000000
         Rot=    1.000000    0.000000   -0.000000   -0.000000 Ang=   0.00 deg.
 Initial guess orbital symmetries:
       Occupied  (A1) (A1) (T2) (T2) (T2) (A1) (T2) (T2) (T2) (T2)
                 (T2) (T2) (E) (E) (A1) (T2) (T2) (T2) (T2) (T2)
                 (T2) (E) (E) (A1) (T2) (T2) (T2)
       Virtual   (T2) (T2) (T2) (A1) (A1) (T2) (T2) (T2) (T2) (T2)
                 (T2) (A1) (A1) (A1)
 Keep R1 ints in memory in symmetry-blocked form, NReq=1206452.
 Requested convergence on RMS density matrix=1.00D-08 within 128 cycles.
 Requested convergence on MAX density matrix=1.00D-06.
 Requested convergence on             energy=1.00D-06.
 No special actions if energy rises.
 SCF Done:  E(RHF) =  -5998.95303747     A.U. after    7 cycles
            NFock=  7  Conv=0.10D-08     -V/T= 2.0030
 ExpMin= 7.06D-02 ExpMax= 1.27D+04 ExpMxC= 1.27D+04 IAcc=3 IRadAn=         5 AccDes= 0.00D+00
 HarFok:  IExCor=  205 AccDes= 0.00D+00 IRadAn=         5 IDoV=-2 UseB2=F ITyADJ=14
 ICtDFT= 12500011 ScaDFX=  1.000000  1.000000  1.000000  1.000000
 Defaulting to unpruned grid for atomic number  50.
 Range of M.O.s used for correlation:    19    41
 NBasis=    41 NAE=    27 NBE=    27 NFC=    18 NFV=     0
 NROrb=     23 NOA=     9 NOB=     9 NVA=    14 NVB=    14

 **** Warning!!: The largest alpha MO coefficient is  0.21240126D+02

 Fully direct method using O(ONN) memory.
 JobTyp=1 Pass  1:  I=  19 to  27 NPSUse=  1 ParTrn=F ParDer=F DoDerP=T.
 Spin components of T(2) and E(2):
     alpha-alpha T2 =       0.1202754067D-02 E2=     -0.2250717772D-02
     alpha-beta  T2 =       0.3056409849D-01 E2=     -0.5718232373D-01
     beta-beta   T2 =       0.1202754067D-02 E2=     -0.2250717772D-02
 ANorm=    0.1016351124D+01
 E2 =    -0.6168375927D-01 EUMP2 =    -0.59990147212301D+04
          IDoAtm=11111
          Differentiating once with respect to electric field.
                with respect to dipole field.
          Differentiating once with respect to nuclear coordinates.
 Keep R1 ints in memory in symmetry-blocked form, NReq=1207412.
          There are     1 degrees of freedom in the 1st order CPHF.  IDoFFX=0 NUNeed=     1.
 LinEq1:  Iter=  0 NonCon=     1 RMS=3.19D-03 Max=3.01D-02 NDo=     1
 AX will form     1 AO Fock derivatives at one time.
 LinEq1:  Iter=  1 NonCon=     1 RMS=2.98D-04 Max=2.29D-03 NDo=     1
 LinEq1:  Iter=  2 NonCon=     1 RMS=2.87D-05 Max=2.41D-04 NDo=     1
 LinEq1:  Iter=  3 NonCon=     1 RMS=4.03D-06 Max=5.75D-05 NDo=     1
 LinEq1:  Iter=  4 NonCon=     1 RMS=1.44D-07 Max=2.10D-06 NDo=     1
 LinEq1:  Iter=  5 NonCon=     1 RMS=7.26D-09 Max=6.92D-08 NDo=     1
 LinEq1:  Iter=  6 NonCon=     1 RMS=2.30D-10 Max=1.64D-09 NDo=     1
 LinEq1:  Iter=  7 NonCon=     0 RMS=2.12D-11 Max=1.70D-10 NDo=     1
 Linear equations converged to 1.000D-10 1.000D-09 after     7 iterations.
 End of Minotr F.D. properties file   721 does not exist.
 End of Minotr F.D. properties file   722 does not exist.
 End of Minotr F.D. properties file   788 does not exist.
 Calling FoFJK, ICntrl=  10002127 FMM=F ISym2X=1 I1Cent= 0 IOpClX= 0 NMat=1 NMatS=1 NMatT=0.
 ***** Axes restored to original set *****
 -------------------------------------------------------------------
 Center     Atomic                   Forces (Hartrees/Bohr)
 Number     Number              X              Y              Z
 -------------------------------------------------------------------
      1       50           0.000000000    0.000000000   -0.000000000
      2        1           0.000000595   -0.000001682    0.000000000
      3        1           0.000000595    0.000000841    0.000001457
      4        1           0.000000595    0.000000841   -0.000001457
      5        1          -0.000001784    0.000000000   -0.000000000
 -------------------------------------------------------------------
 Cartesian Forces:  Max     0.000001784 RMS     0.000000921

 GradGradGradGradGradGradGradGradGradGradGradGradGradGradGradGradGradGrad
 Berny optimization.
 Using GEDIIS/GDIIS optimizer.
 FormGI is forming the generalized inverse of G from B-inverse, IUseBI=4.
 Internal  Forces:  Max     0.000001784 RMS     0.000000954
 Search for a local minimum.
 Step number   3 out of a maximum of   24
 All quantities printed in internal units (Hartrees-Bohrs-Radians)
 Mixed Optimization -- En-DIIS/RFO-DIIS
 Update second derivatives using D2CorX and points    1    2    3
 DE= -7.00D-05 DEPred=-6.29D-05 R= 1.11D+00
 TightC=F SS=  1.41D+00  RLast= 3.13D-02 DXNew= 8.4853D-01 9.3987D-02
 Trust test= 1.11D+00 RLast= 3.13D-02 DXMaxT set to 5.05D-01
 The second derivative matrix:
                          R1        R2        R3        R4        A1
           R1           0.13211
           R2           0.00333   0.13211
           R3           0.00333   0.00333   0.13211
           R4           0.00333   0.00333   0.00333   0.13211
           A1          -0.00000  -0.00000  -0.00000  -0.00000   0.16000
           A2          -0.00000  -0.00000  -0.00000  -0.00000   0.00000
           A3           0.00000   0.00000   0.00000   0.00000  -0.00000
           A4           0.00000   0.00000   0.00000   0.00000  -0.00000
           A5          -0.00000  -0.00000  -0.00000  -0.00000   0.00000
           A6          -0.00000  -0.00000  -0.00000  -0.00000   0.00000
           D1           0.00000   0.00000   0.00000   0.00000  -0.00000
           D2           0.00000   0.00000   0.00000   0.00000  -0.00000
           D3           0.00000   0.00000   0.00000   0.00000  -0.00000
           D4           0.00000   0.00000   0.00000   0.00000  -0.00000
                          A2        A3        A4        A5        A6
           A2           0.16000
           A3          -0.00000   0.16000
           A4          -0.00000   0.00000   0.16000
           A5           0.00000  -0.00000  -0.00000   0.16000
           A6           0.00000  -0.00000  -0.00000   0.00000   0.16000
           D1          -0.00000   0.00000   0.00000  -0.00000  -0.00000
           D2          -0.00000   0.00000   0.00000  -0.00000  -0.00000
           D3          -0.00000   0.00000   0.00000  -0.00000  -0.00000
           D4          -0.00000   0.00000   0.00000  -0.00000  -0.00000
                          D1        D2        D3        D4
           D1           0.00230
           D2           0.00000   0.00230
           D3           0.00000   0.00000   0.00230
           D4           0.00000   0.00000   0.00000   0.00230
 ITU=  1  1  0
 Use linear search instead of GDIIS.
     Eigenvalues ---    0.05082   0.05715   0.08641   0.12878   0.12878
     Eigenvalues ---    0.12878   0.14210   0.16000   0.16000
 RFO step:  Lambda= 0.00000000D+00 EMin= 5.08230769D-02
 Quartic linear search produced a step of -0.00079.
 Iteration  1 RMS(Cart)=  0.00000661 RMS(Int)=  0.00000000
 Iteration  2 RMS(Cart)=  0.00000000 RMS(Int)=  0.00000000
 ClnCor:  largest displacement from symmetrization is 4.90D-13 for atom     5.
 Variable       Old X    -DE/DX   Delta X   Delta X   Delta X     New X
                                 (Linear)    (Quad)   (Total)
    R1        3.30260   0.00000   0.00001   0.00000   0.00001   3.30261
    R2        3.30260   0.00000   0.00001  -0.00000   0.00001   3.30261
    R3        3.30260   0.00000   0.00001  -0.00000   0.00001   3.30261
    R4        3.30260   0.00000   0.00001   0.00000   0.00001   3.30261
    A1        1.91063  -0.00000   0.00000  -0.00000  -0.00000   1.91063
    A2        1.91063   0.00000  -0.00000   0.00000   0.00000   1.91063
    A3        1.91063   0.00000   0.00000   0.00000   0.00000   1.91063
    A4        1.91063   0.00000   0.00000   0.00000   0.00000   1.91063
    A5        1.91063   0.00000  -0.00000   0.00000  -0.00000   1.91063
    A6        1.91063  -0.00000  -0.00000  -0.00000  -0.00000   1.91063
    D1       -2.09440   0.00000   0.00000   0.00000   0.00000  -2.09440
    D2        2.09440  -0.00000   0.00000  -0.00000   0.00000   2.09440
    D3       -2.09440  -0.00000   0.00000  -0.00000   0.00000  -2.09440
    D4        2.09440   0.00000   0.00000   0.00000  -0.00000   2.09440
         Item               Value     Threshold  Converged?
 Maximum Force            0.000002     0.000450     YES
 RMS     Force            0.000001     0.000300     YES
 Maximum Displacement     0.000012     0.001800     YES
 RMS     Displacement     0.000007     0.001200     YES
 Predicted change in Energy=-4.477953D-11
 Optimization completed.
    -- Stationary point found.
                           ----------------------------
                           !   Optimized Parameters   !
                           ! (Angstroms and Degrees)  !
 --------------------------                            --------------------------
 ! Name  Definition              Value          Derivative Info.                !
 --------------------------------------------------------------------------------
 ! R1    R(1,2)                  1.7477         -DE/DX =    0.0                 !
 ! R2    R(1,3)                  1.7477         -DE/DX =    0.0                 !
 ! R3    R(1,4)                  1.7477         -DE/DX =    0.0                 !
 ! R4    R(1,5)                  1.7477         -DE/DX =    0.0                 !
 ! A1    A(2,1,3)              109.4712         -DE/DX =    0.0                 !
 ! A2    A(2,1,4)              109.4712         -DE/DX =    0.0                 !
 ! A3    A(2,1,5)              109.4712         -DE/DX =    0.0                 !
 ! A4    A(3,1,4)              109.4712         -DE/DX =    0.0                 !
 ! A5    A(3,1,5)              109.4712         -DE/DX =    0.0                 !
 ! A6    A(4,1,5)              109.4712         -DE/DX =    0.0                 !
 ! D1    D(2,1,4,3)           -120.0            -DE/DX =    0.0                 !
 ! D2    D(2,1,5,3)            120.0            -DE/DX =    0.0                 !
 ! D3    D(2,1,5,4)           -120.0            -DE/DX =    0.0                 !
 ! D4    D(3,1,5,4)            120.0            -DE/DX =    0.0                 !
 --------------------------------------------------------------------------------
 GradGradGradGradGradGradGradGradGradGradGradGradGradGradGradGradGradGrad

                          Input orientation:                          
 ---------------------------------------------------------------------
 Center     Atomic      Atomic             Coordinates (Angstroms)
 Number     Number       Type             X           Y           Z
 ---------------------------------------------------------------------
      1         50           0       -0.404412    0.551471   -0.000000
      2          1           0        0.178121   -1.096244    0.000000
      3          1           0        0.178151    1.375317    1.426957
      4          1           0        0.178151    1.375317   -1.426957
      5          1           0       -2.152070    0.551492   -0.000000
 ---------------------------------------------------------------------
                    Distance matrix (angstroms):
                    1          2          3          4          5
     1  Sn   0.000000
     2  H    1.747658   0.000000
     3  H    1.747658   2.853914   0.000000
     4  H    1.747658   2.853914   2.853914   0.000000
     5  H    1.747658   2.853914   2.853914   2.853914   0.000000
 Stoichiometry    H4Sn
 Framework group  TD[O(Sn),4C3(H)]
 Deg. of freedom     1
 Full point group                 TD      NOp  24
 Largest Abelian subgroup         D2      NOp   4
 Largest concise Abelian subgroup D2      NOp   4
                         Standard orientation:                         
 ---------------------------------------------------------------------
 Center     Atomic      Atomic             Coordinates (Angstroms)
 Number     Number       Type             X           Y           Z
 ---------------------------------------------------------------------
      1         50           0        0.000000    0.000000    0.000000
      2          1           0        1.009011    1.009011    1.009011
      3          1           0       -1.009011   -1.009011    1.009011
      4          1           0       -1.009011    1.009011   -1.009011
      5          1           0        1.009011   -1.009011   -1.009011
 ---------------------------------------------------------------------
 Rotational constants (GHZ):          61.5673366          61.5673366          61.5673366

 **********************************************************************

            Population analysis using the SCF Density.

 **********************************************************************

 Orbital symmetries:
       Occupied  (A1) (A1) (T2) (T2) (T2) (A1) (T2) (T2) (T2) (T2)
                 (T2) (T2) (E) (E) (A1) (T2) (T2) (T2) (T2) (T2)
                 (T2) (E) (E) (A1) (T2) (T2) (T2)
       Virtual   (T2) (T2) (T2) (A1) (A1) (T2) (T2) (T2) (T2) (T2)
                 (T2) (A1) (A1) (A1)
 The electronic state is 1-A1.
 Alpha  occ. eigenvalues -- **********-156.24725-145.39604-145.39604-145.39604
 Alpha  occ. eigenvalues --  -31.54046 -26.91770 -26.91770 -26.91770 -19.08227
 Alpha  occ. eigenvalues --  -19.08227 -19.08227 -19.08204 -19.08204  -5.54700
 Alpha  occ. eigenvalues --   -3.93115  -3.93115  -3.93115  -1.41602  -1.41602
 Alpha  occ. eigenvalues --   -1.41602  -1.41200  -1.41200  -0.65916  -0.44283
 Alpha  occ. eigenvalues --   -0.44283  -0.44283
 Alpha virt. eigenvalues --    0.14910   0.14910   0.14910   0.21725   0.31206
 Alpha virt. eigenvalues --    0.37010   0.37010   0.37010   1.31472   1.31472
 Alpha virt. eigenvalues --    1.31472   1.34958   2.97773 210.84266
          Condensed to atoms (all electrons):
               1          2          3          4          5
     1  Sn  47.757716   0.339580   0.339580   0.339580   0.339580
     2  H    0.339580   0.903473  -0.007354  -0.007354  -0.007354
     3  H    0.339580  -0.007354   0.903473  -0.007354  -0.007354
     4  H    0.339580  -0.007354  -0.007354   0.903473  -0.007354
     5  H    0.339580  -0.007354  -0.007354  -0.007354   0.903473
 Mulliken charges:
               1
     1  Sn   0.883962
     2  H   -0.220991
     3  H   -0.220991
     4  H   -0.220991
     5  H   -0.220991
 Sum of Mulliken charges =  -0.00000
 Mulliken charges with hydrogens summed into heavy atoms:
               1
     1  Sn  -0.000000
 Electronic spatial extent (au):  <R**2>=            114.4339
 Charge=             -0.0000 electrons
 Dipole moment (field-independent basis, Debye):
    X=             -0.0000    Y=             -0.0000    Z=             -0.0000  Tot=              0.0000
 Quadrupole moment (field-independent basis, Debye-Ang):
   XX=            -31.7452   YY=            -31.7452   ZZ=            -31.7452
   XY=             -0.0000   XZ=              0.0000   YZ=              0.0000
 Traceless Quadrupole moment (field-independent basis, Debye-Ang):
   XX=              0.0000   YY=              0.0000   ZZ=             -0.0000
   XY=             -0.0000   XZ=              0.0000   YZ=              0.0000
 Octapole moment (field-independent basis, Debye-Ang**2):
  XXX=             -0.0000  YYY=             -0.0000  ZZZ=             -0.0000  XYY=             -0.0000
  XXY=             -0.0000  XXZ=             -0.0000  XZZ=              0.0000  YZZ=             -0.0000
  YYZ=             -0.0000  XYZ=             -4.3467
 Hexadecapole moment (field-independent basis, Debye-Ang**3):
 XXXX=            -72.0788 YYYY=            -72.0788 ZZZZ=            -72.0788 XXXY=             -0.0000
 XXXZ=             -0.0000 YYYX=             -0.0000 YYYZ=             -0.0000 ZZZX=              0.0000
 ZZZY=              0.0000 XXYY=            -26.0713 XXZZ=            -26.0713 YYZZ=            -26.0713
 XXYZ=             -0.0000 YYXZ=             -0.0000 ZZXY=             -0.0000
 N-N= 6.167096540338D+01 E-N=-1.437884295162D+04  KE= 5.981042594723D+03
 Symmetry A    KE= 3.404600820967D+03
 Symmetry B1   KE= 8.588139245851D+02
 Symmetry B2   KE= 8.588139245851D+02
 Symmetry B3   KE= 8.588139245851D+02
 Unable to Open any file for archive entry.
 1\1\GINC-BS001\FOpt\RMP2-FC\3-21G\H4Sn1\PNATT\10-Aug-2026\0\\# opt fre
 q=hpmodes mp2/3-21g geom=connectivity\\Title Card Required\\0,1\Sn,-0.
 4044117967,0.551470567,0.\H,0.1781208627,-1.096244397,0.0000001035\H,0
 .1781508753,1.3753174866,1.4269568628\H,0.1781509912,1.3753173484,-1.4
 269568952\H,-2.1520699158,0.5514918301,-0.000000071\\Version=ES64L-G16
 RevC.01\State=1-A1\HF=-5998.9530375\MP2=-5999.0147212\RMSD=1.044e-09\R
 MSF=9.212e-07\Dipole=0.,0.,0.\PG=TD [O(Sn1),4C3(H1)]\\@
 The archive entry for this job was punched.


 LENDING MONEY TO FRIENDS CAUSES THEM TO LOSE THEIR MEMORIES.

    --  PETER'S THEORY OF RECIPROCAL INHIBITION OF FISCAL RECALL
 Job cpu time:       0 days  0 hours  0 minutes  6.5 seconds.
 Elapsed time:       0 days  0 hours  0 minutes  6.3 seconds.
 File lengths (MBytes):  RWF=      6 Int=      0 D2E=      0 Chk=      1 Scr=      1
 Normal termination of Gaussian 16 at Mon Aug 10 17:01:08 2026.
 Link1:  Proceeding to internal job step number  2.
 -------------------------------------------------------------------
 #N Geom=AllCheck Guess=TCheck SCRF=Check GenChk RMP2(FC)/3-21G Freq
 -------------------------------------------------------------------
 1/10=4,29=7,30=1,38=1,40=1/1,3;
 2/12=2,40=1/2;
 3/5=5,11=1,14=-4,25=1,30=1,70=2,71=2,116=1,140=1/1,2,3;
 4/5=101/1;
 5/5=2,38=6,98=1/2;
 8/6=3,8=1,10=1,19=11,30=-1/1;
 9/15=3,16=-3/6;
 11/6=1,8=1,15=11,17=12,24=-1,27=1,28=-2,29=300,32=6,42=3/1,2,10;
 10/6=2,21=1/2;
 8/6=4,8=1,10=1,19=11,30=-1/11,4;
 10/5=1,20=4/2;
 11/12=2,14=11,16=1,17=2,28=-2,42=3,76=2/2,10,12;
 6/7=2,8=2,9=2,10=2/1;
 7/8=11,10=1,12=2,25=1,44=2/1,2,3,16;
 1/10=4,30=1/3;
 99//99;
 Structure from the checkpoint file:  "SnH4.chk"
 -------------------
 Title Card Required
 -------------------
 Charge =  0 Multiplicity = 1
 Redundant internal coordinates found in file.  (old form).
 Sn,0,-0.4044117967,0.551470567,0.
 H,0,0.1781208627,-1.096244397,0.0000001035
 H,0,0.1781508753,1.3753174866,1.4269568628
 H,0,0.1781509912,1.3753173484,-1.4269568952
 H,0,-2.1520699158,0.5514918301,-0.000000071
 Recover connectivity data from disk.

 GradGradGradGradGradGradGradGradGradGradGradGradGradGradGradGradGradGrad
 Berny optimization.
 Initialization pass.
                           ----------------------------
                           !    Initial Parameters    !
                           ! (Angstroms and Degrees)  !
 --------------------------                            --------------------------
 ! Name  Definition              Value          Derivative Info.                !
 --------------------------------------------------------------------------------
 ! R1    R(1,2)                  1.7477         calculate D2E/DX2 analytically  !
 ! R2    R(1,3)                  1.7477         calculate D2E/DX2 analytically  !
 ! R3    R(1,4)                  1.7477         calculate D2E/DX2 analytically  !
 ! R4    R(1,5)                  1.7477         calculate D2E/DX2 analytically  !
 ! A1    A(2,1,3)              109.4712         calculate D2E/DX2 analytically  !
 ! A2    A(2,1,4)              109.4712         calculate D2E/DX2 analytically  !
 ! A3    A(2,1,5)              109.4712         calculate D2E/DX2 analytically  !
 ! A4    A(3,1,4)              109.4712         calculate D2E/DX2 analytically  !
 ! A5    A(3,1,5)              109.4712         calculate D2E/DX2 analytically  !
 ! A6    A(4,1,5)              109.4712         calculate D2E/DX2 analytically  !
 ! D1    D(2,1,4,3)           -120.0            calculate D2E/DX2 analytically  !
 ! D2    D(2,1,5,3)            120.0            calculate D2E/DX2 analytically  !
 ! D3    D(2,1,5,4)           -120.0            calculate D2E/DX2 analytically  !
 ! D4    D(3,1,5,4)            120.0            calculate D2E/DX2 analytically  !
 --------------------------------------------------------------------------------
 Trust Radius=3.00D-01 FncErr=1.00D-07 GrdErr=1.00D-07 EigMax=2.50D+02 EigMin=1.00D-04
 Number of steps in this run=      2 maximum allowed number of steps=      2.
 GradGradGradGradGradGradGradGradGradGradGradGradGradGradGradGradGradGrad

                          Input orientation:                          
 ---------------------------------------------------------------------
 Center     Atomic      Atomic             Coordinates (Angstroms)
 Number     Number       Type             X           Y           Z
 ---------------------------------------------------------------------
      1         50           0       -0.404412    0.551471    0.000000
      2          1           0        0.178121   -1.096244    0.000000
      3          1           0        0.178151    1.375317    1.426957
      4          1           0        0.178151    1.375317   -1.426957
      5          1           0       -2.152070    0.551492   -0.000000
 ---------------------------------------------------------------------
                    Distance matrix (angstroms):
                    1          2          3          4          5
     1  Sn   0.000000
     2  H    1.747658   0.000000
     3  H    1.747658   2.853914   0.000000
     4  H    1.747658   2.853914   2.853914   0.000000
     5  H    1.747658   2.853914   2.853914   2.853914   0.000000
 Stoichiometry    H4Sn
 Framework group  TD[O(Sn),4C3(H)]
 Deg. of freedom     1
 Full point group                 TD      NOp  24
 Largest Abelian subgroup         D2      NOp   4
 Largest concise Abelian subgroup D2      NOp   4
                         Standard orientation:                         
 ---------------------------------------------------------------------
 Center     Atomic      Atomic             Coordinates (Angstroms)
 Number     Number       Type             X           Y           Z
 ---------------------------------------------------------------------
      1         50           0        0.000000    0.000000    0.000000
      2          1           0        1.009011    1.009011    1.009011
      3          1           0       -1.009011   -1.009011    1.009011
      4          1           0       -1.009011    1.009011   -1.009011
      5          1           0        1.009011   -1.009011   -1.009011
 ---------------------------------------------------------------------
 Rotational constants (GHZ):          61.5673366          61.5673366          61.5673366
 Standard basis: 3-21G (6D, 7F)
 There are    14 symmetry adapted cartesian basis functions of A   symmetry.
 There are     9 symmetry adapted cartesian basis functions of B1  symmetry.
 There are     9 symmetry adapted cartesian basis functions of B2  symmetry.
 There are     9 symmetry adapted cartesian basis functions of B3  symmetry.
 There are    14 symmetry adapted basis functions of A   symmetry.
 There are     9 symmetry adapted basis functions of B1  symmetry.
 There are     9 symmetry adapted basis functions of B2  symmetry.
 There are     9 symmetry adapted basis functions of B3  symmetry.
    41 basis functions,    99 primitive gaussians,    41 cartesian basis functions
    27 alpha electrons       27 beta electrons
       nuclear repulsion energy        61.6709654034 Hartrees.
 NAtoms=    5 NActive=    5 NUniq=    2 SFac= 4.00D+00 NAtFMM=   60 NAOKFM=F Big=F
 Integral buffers will be    131072 words long.
 Raffenetti 1 integral format.
 Two-electron integral symmetry is turned on.
 One-electron integrals computed using PRISM.
 NBasis=    41 RedAO= T EigKep=  1.27D-03  NBF=    14     9     9     9
 NBsUse=    41 1.00D-06 EigRej= -1.00D+00 NBFU=    14     9     9     9
 Initial guess from the checkpoint file:  "SnH4.chk"
 B after Tr=     0.000000   -0.000000   -0.000000
         Rot=    1.000000   -0.000000    0.000000    0.000000 Ang=   0.00 deg.
 Initial guess orbital symmetries:
       Occupied  (A1) (A1) (T2) (T2) (T2) (A1) (T2) (T2) (T2) (T2)
                 (T2) (T2) (E) (E) (A1) (T2) (T2) (T2) (T2) (T2)
                 (T2) (E) (E) (A1) (T2) (T2) (T2)
       Virtual   (T2) (T2) (T2) (A1) (A1) (T2) (T2) (T2) (T2) (T2)
                 (T2) (A1) (A1) (A1)
 Keep R1 ints in memory in symmetry-blocked form, NReq=1206452.
 Requested convergence on RMS density matrix=1.00D-08 within 128 cycles.
 Requested convergence on MAX density matrix=1.00D-06.
 Requested convergence on             energy=1.00D-06.
 No special actions if energy rises.
 SCF Done:  E(RHF) =  -5998.95303747     A.U. after    1 cycles
            NFock=  1  Conv=0.11D-09     -V/T= 2.0030
 ExpMin= 7.06D-02 ExpMax= 1.27D+04 ExpMxC= 1.27D+04 IAcc=3 IRadAn=         5 AccDes= 0.00D+00
 HarFok:  IExCor=  205 AccDes= 0.00D+00 IRadAn=         5 IDoV=-2 UseB2=F ITyADJ=14
 ICtDFT= 12500011 ScaDFX=  1.000000  1.000000  1.000000  1.000000
 Defaulting to unpruned grid for atomic number  50.
 Range of M.O.s used for correlation:    19    41
 NBasis=    41 NAE=    27 NBE=    27 NFC=    18 NFV=     0
 NROrb=     23 NOA=     9 NOB=     9 NVA=    14 NVB=    14

 **** Warning!!: The largest alpha MO coefficient is  0.21240126D+02

 Disk-based method using ON**2 memory for  9 occupieds at a time.
 Permanent disk used for amplitudes=      174825 words.
 Estimated scratch disk usage=     1273123 words.
 Actual    scratch disk usage=     1273123 words.
 JobTyp=1 Pass  1:  I=  19 to  27 NPSUse=  1 ParTrn=F ParDer=F DoDerP=T.
 (rs|ai) integrals will be sorted in core.
 Spin components of T(2) and E(2):
     alpha-alpha T2 =       0.1202754072D-02 E2=     -0.2250717782D-02
     alpha-beta  T2 =       0.3056409854D-01 E2=     -0.5718232378D-01
     beta-beta   T2 =       0.1202754072D-02 E2=     -0.2250717782D-02
 ANorm=    0.1016351124D+01
 E2 =    -0.6168375934D-01 EUMP2 =    -0.59990147212302D+04
 G2DrvN: will do     6 centers at a time, making    1 passes.
 Calling FoFCou, ICntrl=  3107 FMM=F I1Cent=   0 AccDes= 0.00D+00.
 End of G2Drv F.D. properties file   721 does not exist.
 End of G2Drv F.D. properties file   722 does not exist.
 End of G2Drv F.D. properties file   788 does not exist.
          IDoAtm=11111
          Differentiating once with respect to electric field.
                with respect to dipole field.
          Differentiating once with respect to nuclear coordinates.
 Keep R1 ints in memory in symmetry-blocked form, NReq=1207296.
          There are    18 degrees of freedom in the 1st order CPHF.  IDoFFX=6 NUNeed=    18.
     15 vectors produced by pass  0 Test12= 2.10D-15 5.56D-09 XBig12= 9.13D+00 1.68D+00.
 AX will form    15 AO Fock derivatives at one time.
     15 vectors produced by pass  1 Test12= 2.10D-15 5.56D-09 XBig12= 2.36D-02 1.16D-01.
     15 vectors produced by pass  2 Test12= 2.10D-15 5.56D-09 XBig12= 2.68D-05 2.24D-03.
     15 vectors produced by pass  3 Test12= 2.10D-15 5.56D-09 XBig12= 6.74D-08 1.10D-04.
     15 vectors produced by pass  4 Test12= 2.10D-15 5.56D-09 XBig12= 2.65D-10 8.77D-06.
     12 vectors produced by pass  5 Test12= 2.10D-15 5.56D-09 XBig12= 4.85D-13 2.40D-07.
      3 vectors produced by pass  6 Test12= 2.10D-15 5.56D-09 XBig12= 2.98D-15 2.08D-08.
 InvSVY:  IOpt=1 It=  1 EMax= 1.33D-15
 Solved reduced A of dimension    90 with    15 vectors.
 End of Minotr F.D. properties file   721 does not exist.
 End of Minotr F.D. properties file   722 does not exist.
 End of Minotr F.D. properties file   788 does not exist.
 MDV=   104857600.
 Form MO integral derivatives with frozen-active canonical formalism.
 Discarding MO integrals.
 Reordered first order wavefunction length =       285768
 In DefCFB: NBatch=  1 ICI= 27 ICA= 14 LFMax= 27
            Large arrays: LIAPS=     2541672 LIARS=     3580038 words.
 Semi-Direct transformation.
 ModeAB=           4 MOrb=            27 LenV=     104659364
 LASXX=       403677 LTotXX=      403677 LenRXX=      911709
 LTotAB=      508032 MaxLAS=      773793 LenRXY=           0
 NonZer=     1315386 LenScr=     2629632 LnRSAI=      773793
 LnScr1=     1740288 LExtra=           0 Total=      6055422
 MaxDsk=          -1 SrtSym=           T ITran=            4
 JobTyp=0 Pass  1:  I=   1 to  27.
 (rs|ai) integrals will be sorted in core.
 Spin components of T(2) and E(2):
     alpha-alpha T2 =       0.1202754072D-02 E2=     -0.2250717782D-02
     alpha-beta  T2 =       0.3056409854D-01 E2=     -0.5718232378D-01
     beta-beta   T2 =       0.1202754072D-02 E2=     -0.2250717782D-02
 ANorm=    0.1437337543D+01
 E2 =    -0.6168375934D-01 EUMP2 =    -0.59990147212302D+04
          IDoAtm=11111
          Differentiating once with respect to electric field.
                with respect to dipole field.
          Differentiating once with respect to nuclear coordinates.
          There are     1 degrees of freedom in the 1st order CPHF.  IDoFFX=0 NUNeed=     1.
 LinEq1:  Iter=  0 NonCon=     1 RMS=3.19D-03 Max=3.01D-02 NDo=     1
 LinEq1:  Iter=  1 NonCon=     1 RMS=2.98D-04 Max=2.29D-03 NDo=     1
 LinEq1:  Iter=  2 NonCon=     1 RMS=2.87D-05 Max=2.41D-04 NDo=     1
 LinEq1:  Iter=  3 NonCon=     1 RMS=4.03D-06 Max=5.75D-05 NDo=     1
 LinEq1:  Iter=  4 NonCon=     1 RMS=1.44D-07 Max=2.10D-06 NDo=     1
 LinEq1:  Iter=  5 NonCon=     1 RMS=7.26D-09 Max=6.92D-08 NDo=     1
 LinEq1:  Iter=  6 NonCon=     1 RMS=2.30D-10 Max=1.64D-09 NDo=     1
 LinEq1:  Iter=  7 NonCon=     0 RMS=2.12D-11 Max=1.70D-10 NDo=     1
 Linear equations converged to 1.000D-10 1.000D-09 after     7 iterations.
 End of Minotr F.D. properties file   721 does not exist.
 End of Minotr F.D. properties file   722 does not exist.
 End of Minotr F.D. properties file   788 does not exist.
 Symmetrizing basis deriv contribution to polar:
 IMax=3 JMax=2 DiffMx= 0.00D+00
 G2DrvN: will do     6 centers at a time, making    1 passes.
 Calling FoFCou, ICntrl=  3107 FMM=F I1Cent=   0 AccDes= 0.00D+00.
 End of G2Drv F.D. properties file   721 does not exist.
 End of G2Drv F.D. properties file   722 does not exist.
 End of G2Drv F.D. properties file   788 does not exist.
 R2 and R3 integrals will be kept in memory, NReq=     1562182.
 DD1Dir will call FoFMem   1 times, MxPair=       756
 NAB=   378 NAA=     0 NBB=     0.
 Discarding MO integrals.

 **********************************************************************

            Population analysis using the SCF Density.

 **********************************************************************

 Orbital symmetries:
       Occupied  (A1) (A1) (T2) (T2) (T2) (A1) (T2) (T2) (T2) (T2)
                 (T2) (T2) (E) (E) (A1) (T2) (T2) (T2) (T2) (T2)
                 (T2) (E) (E) (A1) (T2) (T2) (T2)
       Virtual   (T2) (T2) (T2) (A1) (A1) (T2) (T2) (T2) (T2) (T2)
                 (T2) (A1) (A1) (A1)
 The electronic state is 1-A1.
 Alpha  occ. eigenvalues -- **********-156.24725-145.39604-145.39604-145.39604
 Alpha  occ. eigenvalues --  -31.54046 -26.91770 -26.91770 -26.91770 -19.08227
 Alpha  occ. eigenvalues --  -19.08227 -19.08227 -19.08204 -19.08204  -5.54700
 Alpha  occ. eigenvalues --   -3.93115  -3.93115  -3.93115  -1.41602  -1.41602
 Alpha  occ. eigenvalues --   -1.41602  -1.41200  -1.41200  -0.65916  -0.44283
 Alpha  occ. eigenvalues --   -0.44283  -0.44283
 Alpha virt. eigenvalues --    0.14910   0.14910   0.14910   0.21725   0.31206
 Alpha virt. eigenvalues --    0.37010   0.37010   0.37010   1.31472   1.31472
 Alpha virt. eigenvalues --    1.31472   1.34958   2.97773 210.84266
          Condensed to atoms (all electrons):
               1          2          3          4          5
     1  Sn  47.757716   0.339580   0.339580   0.339580   0.339580
     2  H    0.339580   0.903473  -0.007354  -0.007354  -0.007354
     3  H    0.339580  -0.007354   0.903473  -0.007354  -0.007354
     4  H    0.339580  -0.007354  -0.007354   0.903473  -0.007354
     5  H    0.339580  -0.007354  -0.007354  -0.007354   0.903473
 Mulliken charges:
               1
     1  Sn   0.883962
     2  H   -0.220991
     3  H   -0.220991
     4  H   -0.220991
     5  H   -0.220991
 Sum of Mulliken charges =  -0.00000
 Mulliken charges with hydrogens summed into heavy atoms:
               1
     1  Sn  -0.000000
 APT charges:
               1
     1  Sn   1.336991
     2  H   -0.334248
     3  H   -0.334248
     4  H   -0.334248
     5  H   -0.334248
 Sum of APT charges =  -0.00000
 APT charges with hydrogens summed into heavy atoms:
               1
     1  Sn  -0.000000
 Electronic spatial extent (au):  <R**2>=            114.4339
 Charge=              0.0000 electrons
 Dipole moment (field-independent basis, Debye):
    X=              0.0000    Y=              0.0000    Z=             -0.0000  Tot=              0.0000
 Quadrupole moment (field-independent basis, Debye-Ang):
   XX=            -31.7452   YY=            -31.7452   ZZ=            -31.7452
   XY=              0.0000   XZ=              0.0000   YZ=              0.0000
 Traceless Quadrupole moment (field-independent basis, Debye-Ang):
   XX=              0.0000   YY=             -0.0000   ZZ=             -0.0000
   XY=              0.0000   XZ=              0.0000   YZ=              0.0000
 Octapole moment (field-independent basis, Debye-Ang**2):
  XXX=             -0.0000  YYY=              0.0000  ZZZ=              0.0000  XYY=             -0.0000
  XXY=              0.0000  XXZ=             -0.0000  XZZ=             -0.0000  YZZ=              0.0000
  YYZ=              0.0000  XYZ=             -4.3467
 Hexadecapole moment (field-independent basis, Debye-Ang**3):
 XXXX=            -72.0788 YYYY=            -72.0788 ZZZZ=            -72.0788 XXXY=              0.0000
 XXXZ=              0.0000 YYYX=              0.0000 YYYZ=              0.0000 ZZZX=              0.0000
 ZZZY=              0.0000 XXYY=            -26.0713 XXZZ=            -26.0713 YYZZ=            -26.0713
 XXYZ=              0.0000 YYXZ=              0.0000 ZZXY=              0.0000
 N-N= 6.167096540338D+01 E-N=-1.437884295163D+04  KE= 5.981042594727D+03
 Symmetry A    KE= 3.404600820982D+03
 Symmetry B1   KE= 8.588139245814D+02
 Symmetry B2   KE= 8.588139245814D+02
 Symmetry B3   KE= 8.588139245814D+02
  Exact polarizability:      29.244      -0.000      29.244       0.000       0.000      29.244
 Approx polarizability:      23.728      -0.000      23.728       0.000       0.000      23.728
 Calling FoFJK, ICntrl=  10100127 FMM=F ISym2X=1 I1Cent= 0 IOpClX= 0 NMat=1 NMatS=1 NMatT=0.
 Full mass-weighted force constant matrix:
 Low frequencies ---   -3.7632   -3.7632   -3.7632    0.0220    0.0220    0.0220
 Low frequencies ---  719.7996  719.7996  719.7996
 Diagonal vibrational polarizability:
       15.3319776      15.3319776      15.3319776
 Harmonic frequencies (cm**-1), IR intensities (KM/Mole), Raman scattering
 activities (A**4/AMU), depolarization ratios for plane and unpolarized
 incident light, reduced masses (AMU), force constants (mDyne/A),
 and normal coordinates:
                           1         2         3         4         5
                          T2        T2        T2         E         E
       Frequencies ---   719.7996  719.7996  719.7996  746.8862  746.8862
    Reduced masses ---     1.0315    1.0315    1.0315    1.0078    1.0078
   Force constants ---     0.3149    0.3149    0.3149    0.3312    0.3312
    IR Intensities ---   269.7104  269.7104  269.7104    0.0000    0.0000
 Coord Atom Element:
   1     1    50          0.01005  -0.00499  -0.00875   0.00000  -0.00000
   2     1    50         -0.01008  -0.00493  -0.00876   0.00000  -0.00000
   3     1    50         -0.00004  -0.01238   0.00702  -0.00000  -0.00000
   1     2     1         -0.43316  -0.09208   0.23205  -0.08086   0.40016
   2     2     1          0.43242  -0.09483   0.23230  -0.30612  -0.27011
   3     2     1          0.00085   0.22570  -0.44610   0.38698  -0.13005
   1     3     1         -0.43202   0.24857   0.03903   0.08086  -0.40016
   2     3     1          0.43356   0.24582   0.03928   0.30612   0.27011
   3     3     1          0.00157   0.49867   0.03566   0.38698  -0.13005
   1     4     1         -0.15593   0.04353   0.47301   0.08086  -0.40016
   2     4     1          0.15706   0.38319   0.28008  -0.30612  -0.27011
   3     4     1          0.27807   0.36131  -0.20514  -0.38698   0.13005
   1     5     1         -0.15479   0.38418   0.27999  -0.08086   0.40016
   2     5     1          0.15593   0.04254   0.47310   0.30612   0.27011
   3     5     1         -0.27565   0.36306  -0.20531  -0.38698   0.13005
                           6         7         8         9
                          T2        T2        T2        A1
       Frequencies ---  1928.0926 1928.0926 1928.0926 1945.6113
    Reduced masses ---     1.0178    1.0178    1.0178    1.0078
   Force constants ---     2.2293    2.2293    2.2293    2.2477
    IR Intensities ---   182.7550  182.7550  182.7550    0.0000
 Coord Atom Element:
   1     1    50         -0.00654  -0.00321   0.00569  -0.00000
   2     1    50          0.00654  -0.00322   0.00569  -0.00000
   3     1    50         -0.00001  -0.00805  -0.00455  -0.00000
   1     2     1         -0.01869   0.45648  -0.20312   0.28868
   2     2     1          0.01938   0.45645  -0.20312   0.28868
   3     2     1          0.00033   0.44240  -0.23295   0.28868
   1     3     1         -0.01909  -0.06121  -0.49585  -0.28868
   2     3     1          0.01898  -0.06124  -0.49585  -0.28868
   3     3     1          0.00003   0.02841   0.49917   0.28868
   1     4     1          0.40168   0.24916   0.16293  -0.28868
   2     4     1         -0.40170  -0.26791  -0.12979   0.28868
   3     4     1          0.42071   0.23508   0.13311  -0.28868
   1     5     1          0.40128  -0.26852  -0.12980   0.28868
   2     5     1         -0.40130   0.24978   0.16294  -0.28868
   3     5     1         -0.42035   0.23573   0.13312  -0.28868
 Harmonic frequencies (cm**-1), IR intensities (KM/Mole), Raman scattering
 activities (A**4/AMU), depolarization ratios for plane and unpolarized
 incident light, reduced masses (AMU), force constants (mDyne/A),
 and normal coordinates:
                      1                      2                      3
                     T2                     T2                     T2
 Frequencies --    719.7996               719.7996               719.7996
 Red. masses --      1.0315                 1.0315                 1.0315
 Frc consts  --      0.3149                 0.3149                 0.3149
 IR Inten    --    269.7104               269.7104               269.7104
  Atom  AN      X      Y      Z        X      Y      Z        X      Y      Z
     1  50     0.01  -0.01  -0.00    -0.00  -0.00  -0.01    -0.01  -0.01   0.01
     2   1    -0.43   0.43   0.00    -0.09  -0.09   0.23     0.23   0.23  -0.45
     3   1    -0.43   0.43   0.00     0.25   0.25   0.50     0.04   0.04   0.04
     4   1    -0.16   0.16   0.28     0.04   0.38   0.36     0.47   0.28  -0.21
     5   1    -0.15   0.16  -0.28     0.38   0.04   0.36     0.28   0.47  -0.21
                      4                      5                      6
                      E                      E                     T2
 Frequencies --    746.8862               746.8862              1928.0926
 Red. masses --      1.0078                 1.0078                 1.0178
 Frc consts  --      0.3312                 0.3312                 2.2293
 IR Inten    --      0.0000                 0.0000               182.7550
  Atom  AN      X      Y      Z        X      Y      Z        X      Y      Z
     1  50     0.00   0.00  -0.00    -0.00  -0.00  -0.00    -0.01   0.01  -0.00
     2   1    -0.08  -0.31   0.39     0.40  -0.27  -0.13    -0.02   0.02   0.00
     3   1     0.08   0.31   0.39    -0.40   0.27  -0.13    -0.02   0.02   0.00
     4   1     0.08  -0.31  -0.39    -0.40  -0.27   0.13     0.40  -0.40   0.42
     5   1    -0.08   0.31  -0.39     0.40   0.27   0.13     0.40  -0.40  -0.42
                      7                      8                      9
                     T2                     T2                     A1
 Frequencies --   1928.0926              1928.0926              1945.6113
 Red. masses --      1.0178                 1.0178                 1.0078
 Frc consts  --      2.2293                 2.2293                 2.2477
 IR Inten    --    182.7550               182.7550                 0.0000
  Atom  AN      X      Y      Z        X      Y      Z        X      Y      Z
     1  50    -0.00  -0.00  -0.01     0.01   0.01  -0.00    -0.00  -0.00  -0.00
     2   1     0.46   0.46   0.44    -0.20  -0.20  -0.23     0.29   0.29   0.29
     3   1    -0.06  -0.06   0.03    -0.50  -0.50   0.50    -0.29  -0.29   0.29
     4   1     0.25  -0.27   0.24     0.16  -0.13   0.13    -0.29   0.29  -0.29
     5   1    -0.27   0.25   0.24    -0.13   0.16   0.13     0.29  -0.29  -0.29

 -------------------
 - Thermochemistry -
 -------------------
 Temperature   298.150 Kelvin.  Pressure   1.00000 Atm.
 Atom     1 has atomic number 50 and mass 117.90180
 Atom     2 has atomic number  1 and mass   1.00783
 Atom     3 has atomic number  1 and mass   1.00783
 Atom     4 has atomic number  1 and mass   1.00783
 Atom     5 has atomic number  1 and mass   1.00783
 Molecular mass:   121.93310 amu.
 Principal axes and moments of inertia in atomic units:
                           1         2         3
     Eigenvalues --    29.31329  29.31329  29.31329
           X            0.02066   0.00000   0.99979
           Y            0.99979   0.00000  -0.02066
           Z           -0.00000   1.00000  -0.00000
 This molecule is a spherical top.
 Rotational symmetry number 12.
 Rotational temperatures (Kelvin)      2.95477     2.95477     2.95477
 Rotational constants (GHZ):          61.56734    61.56734    61.56734
 Zero-point vibrational energy      68085.8 (Joules/Mol)
                                   16.27290 (Kcal/Mol)
 Vibrational temperatures:   1035.63  1035.63  1035.63  1074.60  1074.60
          (Kelvin)           2774.10  2774.10  2774.10  2799.30
 
 Zero-point correction=                           0.025933 (Hartree/Particle)
 Thermal correction to Energy=                    0.029273
 Thermal correction to Enthalpy=                  0.030218
 Thermal correction to Gibbs Free Energy=         0.004270
 Sum of electronic and zero-point Energies=          -5998.988789
 Sum of electronic and thermal Energies=             -5998.985448
 Sum of electronic and thermal Enthalpies=           -5998.984504
 Sum of electronic and thermal Free Energies=        -5999.010451
 
                     E (Thermal)             CV                S
                      KCal/Mol        Cal/Mol-Kelvin    Cal/Mol-Kelvin
 Total                   18.369              9.883             54.611
 Electronic               0.000              0.000              0.000
 Translational            0.889              2.981             40.309
 Rotational               0.889              2.981             12.934
 Vibrational             16.592              3.921              1.368
                       Q            Log10(Q)             Ln(Q)
 Total Bot       0.108625D-01         -1.964069         -4.522435
 Total V=0       0.920559D+10          9.964052         22.943077
 Vib (Bot)       0.137099D-11        -11.862966        -27.315489
 Vib (V=0)       0.116186D+01          0.065154          0.150023
 Electronic      0.100000D+01          0.000000          0.000000
 Translational   0.529220D+08          7.723636         17.784330
 Rotational      0.149714D+03          2.175261          5.008724
 ***** Axes restored to original set *****
 -------------------------------------------------------------------
 Center     Atomic                   Forces (Hartrees/Bohr)
 Number     Number              X              Y              Z
 -------------------------------------------------------------------
      1       50          -0.000000000   -0.000000000    0.000000000
      2        1           0.000000595   -0.000001682    0.000000000
      3        1           0.000000595    0.000000841    0.000001457
      4        1           0.000000595    0.000000841   -0.000001457
      5        1          -0.000001784    0.000000000   -0.000000000
 -------------------------------------------------------------------
 Cartesian Forces:  Max     0.000001784 RMS     0.000000921
 FormGI is forming the generalized inverse of G from B-inverse, IUseBI=4.

 GradGradGradGradGradGradGradGradGradGradGradGradGradGradGradGradGradGrad
 Berny optimization.
 Internal  Forces:  Max     0.000001784 RMS     0.000000954
 Search for a local minimum.
 Step number   1 out of a maximum of    2
 All quantities printed in internal units (Hartrees-Bohrs-Radians)
 Second derivative matrix not updated -- analytic derivatives used.
 The second derivative matrix:
                          R1        R2        R3        R4        A1
           R1           0.14119
           R2           0.00106   0.14119
           R3           0.00106   0.00106   0.14119
           R4           0.00106   0.00106   0.00106   0.14119
           A1           0.00102   0.00102  -0.00064  -0.00140   0.01238
           A2           0.00160  -0.00041   0.00178  -0.00297  -0.00423
           A3           0.00313  -0.00251  -0.00278   0.00216  -0.00773
           A4          -0.00041   0.00160   0.00178  -0.00297  -0.00423
           A5          -0.00251   0.00313  -0.00278   0.00216  -0.00773
           A6          -0.00283  -0.00283   0.00264   0.00302   0.01153
           D1          -0.00198  -0.00198  -0.00140   0.00536  -0.00998
           D2           0.00163   0.00163  -0.00419   0.00093   0.00569
           D3          -0.00215   0.00378  -0.00210   0.00047   0.00285
           D4          -0.00378   0.00215   0.00210  -0.00047  -0.00285
                          A2        A3        A4        A5        A6
           A2           0.02461
           A3          -0.01422   0.04803
           A4           0.00096   0.01104   0.02461
           A5           0.01104  -0.02116  -0.01422   0.04803
           A6          -0.01816  -0.01596  -0.01816  -0.01596   0.05672
           D1          -0.01048   0.01141  -0.01048   0.01141   0.00812
           D2          -0.00713   0.00700  -0.00713   0.00700  -0.00542
           D3          -0.01031  -0.00222   0.00318   0.00921  -0.00271
           D4          -0.00318  -0.00921   0.01031   0.00222   0.00271
                          D1        D2        D3        D4
           D1           0.02506
           D2           0.00176   0.01554
           D3           0.00088   0.00777   0.01565
           D4          -0.00088  -0.00777   0.00788   0.01565
 ITU=  0
     Eigenvalues ---    0.03062   0.03504   0.05564   0.08048   0.08169
     Eigenvalues ---    0.14097   0.14098   0.14126   0.14437
 Angle between quadratic step and forces=   0.00 degrees.
 Linear search not attempted -- first point.
 Iteration  1 RMS(Cart)=  0.00000661 RMS(Int)=  0.00000000
 Iteration  2 RMS(Cart)=  0.00000000 RMS(Int)=  0.00000000
 ClnCor:  largest displacement from symmetrization is 4.50D-13 for atom     5.
 Variable       Old X    -DE/DX   Delta X   Delta X   Delta X     New X
                                 (Linear)    (Quad)   (Total)
    R1        3.30260   0.00000   0.00000   0.00001   0.00001   3.30261
    R2        3.30260   0.00000   0.00000   0.00001   0.00001   3.30261
    R3        3.30260   0.00000   0.00000   0.00001   0.00001   3.30261
    R4        3.30260   0.00000   0.00000   0.00001   0.00001   3.30261
    A1        1.91063   0.00000   0.00000  -0.00000  -0.00000   1.91063
    A2        1.91063   0.00000   0.00000   0.00000  -0.00000   1.91063
    A3        1.91063  -0.00000   0.00000  -0.00000   0.00000   1.91063
    A4        1.91063  -0.00000   0.00000  -0.00000   0.00000   1.91063
    A5        1.91063   0.00000   0.00000   0.00000   0.00000   1.91063
    A6        1.91063   0.00000   0.00000   0.00000   0.00000   1.91063
    D1       -2.09440  -0.00000   0.00000   0.00000   0.00000  -2.09440
    D2        2.09440   0.00000   0.00000  -0.00000   0.00000   2.09440
    D3       -2.09440  -0.00000   0.00000  -0.00000   0.00000  -2.09440
    D4        2.09440  -0.00000   0.00000   0.00000   0.00000   2.09440
         Item               Value     Threshold  Converged?
 Maximum Force            0.000002     0.000450     YES
 RMS     Force            0.000001     0.000300     YES
 Maximum Displacement     0.000012     0.001800     YES
 RMS     Displacement     0.000007     0.001200     YES
 Predicted change in Energy=-4.409158D-11
 Optimization completed.
    -- Stationary point found.
                           ----------------------------
                           !   Optimized Parameters   !
                           ! (Angstroms and Degrees)  !
 --------------------------                            --------------------------
 ! Name  Definition              Value          Derivative Info.                !
 --------------------------------------------------------------------------------
 ! R1    R(1,2)                  1.7477         -DE/DX =    0.0                 !
 ! R2    R(1,3)                  1.7477         -DE/DX =    0.0                 !
 ! R3    R(1,4)                  1.7477         -DE/DX =    0.0                 !
 ! R4    R(1,5)                  1.7477         -DE/DX =    0.0                 !
 ! A1    A(2,1,3)              109.4712         -DE/DX =    0.0                 !
 ! A2    A(2,1,4)              109.4712         -DE/DX =    0.0                 !
 ! A3    A(2,1,5)              109.4712         -DE/DX =    0.0                 !
 ! A4    A(3,1,4)              109.4712         -DE/DX =    0.0                 !
 ! A5    A(3,1,5)              109.4712         -DE/DX =    0.0                 !
 ! A6    A(4,1,5)              109.4712         -DE/DX =    0.0                 !
 ! D1    D(2,1,4,3)           -120.0            -DE/DX =    0.0                 !
 ! D2    D(2,1,5,3)            120.0            -DE/DX =    0.0                 !
 ! D3    D(2,1,5,4)           -120.0            -DE/DX =    0.0                 !
 ! D4    D(3,1,5,4)            120.0            -DE/DX =    0.0                 !
 --------------------------------------------------------------------------------
 GradGradGradGradGradGradGradGradGradGradGradGradGradGradGradGradGradGrad

 Dipole is zero, so no output in dipole orientation.

 ----------------------------------------------------------------------

 Electric dipole moment (input orientation):
 (Debye = 10**-18 statcoulomb cm , SI units = C m)
                  (au)            (Debye)         (10**-30 SI)
   Tot        0.000000D+00      0.000000D+00      0.000000D+00
   x          0.000000D+00      0.000000D+00      0.000000D+00
   y          0.000000D+00      0.000000D+00      0.000000D+00
   z          0.000000D+00      0.000000D+00      0.000000D+00

 Dipole polarizability, Alpha (input orientation).
 (esu units = cm**3 , SI units = C**2 m**2 J**-1)
 Alpha(0;0):
               (au)            (10**-24 esu)      (10**-40 SI)
   iso        0.292443D+02      0.433356D+01      0.482173D+01
   aniso      0.000000D+00      0.000000D+00      0.000000D+00
   xx         0.292443D+02      0.433356D+01      0.482173D+01
   yx         0.000000D+00      0.000000D+00      0.000000D+00
   yy         0.292443D+02      0.433356D+01      0.482173D+01
   zx         0.000000D+00      0.000000D+00      0.000000D+00
   zy         0.000000D+00      0.000000D+00      0.000000D+00
   zz         0.292443D+02      0.433356D+01      0.482173D+01

 ----------------------------------------------------------------------
 Unable to Open any file for archive entry.
 1\1\GINC-BS001\Freq\RMP2-FC\3-21G\H4Sn1\PNATT\10-Aug-2026\0\\#N Geom=A
 llCheck Guess=TCheck SCRF=Check GenChk RMP2(FC)/3-21G Freq\\Title Card
  Required\\0,1\Sn,-0.4044117967,0.551470567,0.\H,0.1781208627,-1.09624
 4397,0.0000001035\H,0.1781508753,1.3753174866,1.4269568628\H,0.1781509
 912,1.3753173484,-1.4269568952\H,-2.1520699158,0.5514918301,-0.0000000
 71\\Version=ES64L-G16RevC.01\State=1-A1\HF=-5998.9530375\MP2=-5999.014
 7212\RMSD=1.062e-10\RMSF=9.213e-07\ZeroPoint=0.0259325\Thermal=0.02927
 34\ETot=-5998.9854478\HTot=-5998.9845036\GTot=-5999.0104512\Dipole=0.,
 0.,0.\DipoleDeriv=1.336991,0.,0.,0.,1.336991,0.,0.,0.,1.336991,-0.3166
 25,0.0249208,0.,0.0249208,-0.3783038,0.,0.,0.,-0.3078145,-0.3166259,-0
 .0124609,-0.021583,-0.0124609,-0.3254364,-0.0305222,-0.021583,-0.03052
 22,-0.360681,-0.3166259,-0.0124609,0.021583,-0.0124609,-0.3254364,0.03
 05222,0.021583,0.0305222,-0.360681,-0.3871143,0.000001,0.,0.000001,-0.
 3078145,0.,0.,0.,-0.3078145\Polar=29.2443063,0.,29.2443063,0.,0.,29.24
 43063\PG=TD [O(Sn1),4C3(H1)]\NImag=0\\0.21781502,0.,0.21781502,0.,0.,0
 .21781502,-0.02854248,0.03664171,0.,0.02693386,0.03664171,-0.11923060,
 0.,-0.04039331,0.12690717,0.,0.,-0.01558818,0.,0.,0.01265322,-0.028543
 82,-0.01832156,-0.03173415,0.00230474,0.00184305,0.00153622,0.02693533
 ,-0.01832156,-0.04149812,-0.04487772,-0.00225211,-0.00380875,-0.007040
 28,0.02019743,0.04121597,-0.03173415,-0.04487772,-0.09331933,-0.000828
 04,-0.00035288,0.00045968,0.03498328,0.04947256,0.09834294,-0.02854382
 ,-0.01832156,0.03173416,0.00230474,0.00184305,-0.00153622,0.00230476,0
 .00040892,-0.00236438,0.02693533,-0.01832156,-0.04149811,0.04487771,-0
 .00225211,-0.00380875,0.00704028,0.00040892,0.00259389,-0.00334366,0.0
 2019744,0.04121597,0.03173416,0.04487771,-0.09331933,0.00082804,0.0003
 5288,0.00045968,0.00236438,0.00334365,-0.00594297,-0.03498329,-0.04947
 255,0.09834294,-0.13218490,0.00000142,0.,-0.00300087,0.00006550,0.,-0.
 00300102,-0.00003268,-0.00005670,-0.00300102,-0.00003268,0.00005670,0.
 14118780,0.00000142,-0.01558818,0.,0.00825582,-0.00005906,0.,-0.004127
 84,0.00149701,-0.00089831,-0.00412784,0.00149701,0.00089831,-0.0000015
 6,0.01265322,0.,0.,-0.01558818,0.,0.,0.00201560,-0.00714973,-0.0008982
 3,0.00045968,0.00714973,0.00089823,0.00045968,0.,0.,0.01265322\\0.,0.,
 0.,-0.00000059,0.00000168,0.,-0.00000059,-0.00000084,-0.00000146,-0.00
 000059,-0.00000084,0.00000146,0.00000178,0.,0.\\\@
 The archive entry for this job was punched.


 WE THE UNWILLING
 LED BY THE UNQUALIFIED
 HAVE BEEN DOING THE UNBELIEVABLE SO LONG WITH SO LITTLE
 THAT WE NOW ATTEMPT THE IMPOSSIBLE WITH NOTHING.

                                    -- ANONYMOUS
 Job cpu time:       0 days  0 hours  0 minutes  7.8 seconds.
 Elapsed time:       0 days  0 hours  0 minutes  7.5 seconds.
 File lengths (MBytes):  RWF=     59 Int=      0 D2E=      0 Chk=      1 Scr=      1
 Normal termination of Gaussian 16 at Mon Aug 10 17:01:16 2026.
