%chk=h2o.chk
# opt freq=hpmodes mp2/6-311++g(d,p) geom=connectivity

h2o vibration

0 1
 O                  0.00000000    0.00000000   -0.11085125
 H                  0.00000000   -0.78383672    0.44340501
 H                  0.00000000    0.78383672    0.44340501

 1 2 1.0 3 1.0
 2
 3

