 Entering Gaussian System, Link 0=g16
 Input=Ethylene.com
 Output=Ethylene.log
 Initial command:
 /opt/g16/g16/l1.exe "/home/pnatt/scratch/Gau-2531112.inp" -scrdir="/home/pnatt/scratch/"
 Entering Link 1 = /opt/g16/g16/l1.exe PID=   2531118.
  
 Copyright (c) 1988-2019, Gaussian, Inc.  All Rights Reserved.
  
 This is part of the Gaussian(R) 16 program.  It is based on
 the Gaussian(R) 09 system (copyright 2009, Gaussian, Inc.),
 the Gaussian(R) 03 system (copyright 2003, Gaussian, Inc.),
 the Gaussian(R) 98 system (copyright 1998, Gaussian, Inc.),
 the Gaussian(R) 94 system (copyright 1995, Gaussian, Inc.),
 the Gaussian 92(TM) system (copyright 1992, Gaussian, Inc.),
 the Gaussian 90(TM) system (copyright 1990, Gaussian, Inc.),
 the Gaussian 88(TM) system (copyright 1988, Gaussian, Inc.),
 the Gaussian 86(TM) system (copyright 1986, Carnegie Mellon
 University), and the Gaussian 82(TM) system (copyright 1983,
 Carnegie Mellon University). Gaussian is a federally registered
 trademark of Gaussian, Inc.
  
 This software contains proprietary and confidential information,
 including trade secrets, belonging to Gaussian, Inc.
  
 This software is provided under written license and may be
 used, copied, transmitted, or stored only in accord with that
 written license.
  
 The following legend is applicable only to US Government
 contracts under FAR:
  
                    RESTRICTED RIGHTS LEGEND
  
 Use, reproduction and disclosure by the US Government is
 subject to restrictions as set forth in subparagraphs (a)
 and (c) of the Commercial Computer Software - Restricted
 Rights clause in FAR 52.227-19.
  
 Gaussian, Inc.
 340 Quinnipiac St., Bldg. 40, Wallingford CT 06492
  
  
 ---------------------------------------------------------------
 Warning -- This program may not be used in any manner that
 competes with the business of Gaussian, Inc. or will provide
 assistance to any competitor of Gaussian, Inc.  The licensee
 of this program is prohibited from giving any competitor of
 Gaussian, Inc. access to this program.  By using this program,
 the user acknowledges that Gaussian, Inc. is engaged in the
 business of creating and licensing software in the field of
 computational chemistry and represents and warrants to the
 licensee that it is not a competitor of Gaussian, Inc. and that
 it will not use this program in any manner prohibited above.
 ---------------------------------------------------------------
  

 Cite this work as:
 Gaussian 16, Revision C.01,
 M. J. Frisch, G. W. Trucks, H. B. Schlegel, G. E. Scuseria, 
 M. A. Robb, J. R. Cheeseman, G. Scalmani, V. Barone, 
 G. A. Petersson, H. Nakatsuji, X. Li, M. Caricato, A. V. Marenich, 
 J. Bloino, B. G. Janesko, R. Gomperts, B. Mennucci, H. P. Hratchian, 
 J. V. Ortiz, A. F. Izmaylov, J. L. Sonnenberg, D. Williams-Young, 
 F. Ding, F. Lipparini, F. Egidi, J. Goings, B. Peng, A. Petrone, 
 T. Henderson, D. Ranasinghe, V. G. Zakrzewski, J. Gao, N. Rega, 
 G. Zheng, W. Liang, M. Hada, M. Ehara, K. Toyota, R. Fukuda, 
 J. Hasegawa, M. Ishida, T. Nakajima, Y. Honda, O. Kitao, H. Nakai, 
 T. Vreven, K. Throssell, J. A. Montgomery, Jr., J. E. Peralta, 
 F. Ogliaro, M. J. Bearpark, J. J. Heyd, E. N. Brothers, K. N. Kudin, 
 V. N. Staroverov, T. A. Keith, R. Kobayashi, J. Normand, 
 K. Raghavachari, A. P. Rendell, J. C. Burant, S. S. Iyengar, 
 J. Tomasi, M. Cossi, J. M. Millam, M. Klene, C. Adamo, R. Cammi, 
 J. W. Ochterski, R. L. Martin, K. Morokuma, O. Farkas, 
 J. B. Foresman, and D. J. Fox, Gaussian, Inc., Wallingford CT, 2019.
 
 ******************************************
 Gaussian 16:  ES64L-G16RevC.01  3-Jul-2019
                14-Aug-2026 
 ******************************************
 %mem=8GB
 %nprocshared=8
 Will use up to    8 processors via shared memory.
 %chk=Ethylene.chk
 ----------------------------------------------
 # opt freq=hpmodes mp2/3-21g geom=connectivity
 ----------------------------------------------
 1/18=20,19=15,38=1,57=2/1,3;
 2/9=110,12=2,17=6,18=5,40=1/2;
 3/5=5,11=9,25=1,30=1,71=1/1,2,3;
 4//1;
 5/5=2,38=5/2;
 8/6=4,10=1/1;
 9/15=2,16=-3/6;
 10/5=1/2;
 6/7=2,8=2,9=2,10=2/1;
 7/12=2/1,2,3,16;
 1/18=20,19=15/3(2);
 2/9=110/2;
 99//99;
 2/9=110/2;
 3/5=5,11=9,25=1,30=1,71=1/1,2,3;
 4/5=5,16=3,69=1/1;
 5/5=2,38=5/2;
 8/6=4,10=1/1;
 9/15=2,16=-3/6;
 10/5=1/2;
 7/12=2/1,2,3,16;
 1/18=20,19=15/3(-8);
 2/9=110/2;
 6/7=2,8=2,9=2,10=2/1;
 99/9=10/99;
 ----------------------------
 Ethylene C2H4 - size2to5_D2h
 ----------------------------
 Symbolic Z-matrix:
 Charge =  0 Multiplicity = 1
 C                    -1.50947  -1.69223  -1.9157 
 C                    -1.27928  -0.68956  -2.76776 
 H                    -0.75244  -2.00758  -1.20453 
 H                    -2.45946  -2.21739  -1.9126 
 H                    -2.03631  -0.37421  -3.47892 
 H                    -0.32929  -0.1644   -2.77086 
 

 GradGradGradGradGradGradGradGradGradGradGradGradGradGradGradGradGradGrad
 Berny optimization.
 Initialization pass.
                           ----------------------------
                           !    Initial Parameters    !
                           ! (Angstroms and Degrees)  !
 --------------------------                            --------------------------
 ! Name  Definition              Value          Derivative Info.                !
 --------------------------------------------------------------------------------
 ! R1    R(1,2)                  1.3358         estimate D2E/DX2                !
 ! R2    R(1,3)                  1.0855         estimate D2E/DX2                !
 ! R3    R(1,4)                  1.0855         estimate D2E/DX2                !
 ! R4    R(2,5)                  1.0855         estimate D2E/DX2                !
 ! R5    R(2,6)                  1.0855         estimate D2E/DX2                !
 ! A1    A(2,1,3)              121.0502         estimate D2E/DX2                !
 ! A2    A(2,1,4)              121.0503         estimate D2E/DX2                !
 ! A3    A(3,1,4)              117.8995         estimate D2E/DX2                !
 ! A4    A(1,2,5)              121.0503         estimate D2E/DX2                !
 ! A5    A(1,2,6)              121.0502         estimate D2E/DX2                !
 ! A6    A(5,2,6)              117.8995         estimate D2E/DX2                !
 ! D1    D(3,1,2,5)            180.0            estimate D2E/DX2                !
 ! D2    D(3,1,2,6)              0.0001         estimate D2E/DX2                !
 ! D3    D(4,1,2,5)             -0.0001         estimate D2E/DX2                !
 ! D4    D(4,1,2,6)           -180.0            estimate D2E/DX2                !
 --------------------------------------------------------------------------------
 Trust Radius=3.00D-01 FncErr=1.00D-07 GrdErr=1.00D-07 EigMax=2.50D+02 EigMin=1.00D-04
 Number of steps in this run=     25 maximum allowed number of steps=    100.
 GradGradGradGradGradGradGradGradGradGradGradGradGradGradGradGradGradGrad

                          Input orientation:                          
 ---------------------------------------------------------------------
 Center     Atomic      Atomic             Coordinates (Angstroms)
 Number     Number       Type             X           Y           Z
 ---------------------------------------------------------------------
      1          6           0       -1.509470   -1.692227   -1.915699
      2          6           0       -1.279280   -0.689562   -2.767758
      3          1           0       -0.752443   -2.007580   -1.204534
      4          1           0       -2.459461   -2.217392   -1.912595
      5          1           0       -2.036306   -0.374209   -3.478923
      6          1           0       -0.329288   -0.164397   -2.770862
 ---------------------------------------------------------------------
                    Distance matrix (angstroms):
                    1          2          3          4          5
     1  C    0.000000
     2  C    1.335788   0.000000
     3  H    1.085492   2.111492   0.000000
     4  H    1.085491   2.111491   1.859914   0.000000
     5  H    2.111492   1.085491   3.080430   2.455558   0.000000
     6  H    2.111492   1.085492   2.455558   3.080430   1.859914
                    6
     6  H    0.000000
 Stoichiometry    C2H4
 Framework group  D2H[C2(C.C),SG"(H4)]
 Deg. of freedom     3
 Full point group                 D2H     NOp   8
 Largest Abelian subgroup         D2H     NOp   8
 Largest concise Abelian subgroup D2      NOp   4
                         Standard orientation:                         
 ---------------------------------------------------------------------
 Center     Atomic      Atomic             Coordinates (Angstroms)
 Number     Number       Type             X           Y           Z
 ---------------------------------------------------------------------
      1          6           0       -0.667894    0.000000    0.000000
      2          6           0        0.667894   -0.000000   -0.000000
      3          1           0       -1.227779    0.929958    0.000000
      4          1           0       -1.227779   -0.929958   -0.000000
      5          1           0        1.227779   -0.929958   -0.000000
      6          1           0        1.227779    0.929958    0.000000
 ---------------------------------------------------------------------
 Rotational constants (GHZ):         144.9591986          30.1126875          24.9332497
 Standard basis: 3-21G (6D, 7F)
 There are     7 symmetry adapted cartesian basis functions of AG  symmetry.
 There are     4 symmetry adapted cartesian basis functions of B1G symmetry.
 There are     2 symmetry adapted cartesian basis functions of B2G symmetry.
 There are     0 symmetry adapted cartesian basis functions of B3G symmetry.
 There are     0 symmetry adapted cartesian basis functions of AU  symmetry.
 There are     2 symmetry adapted cartesian basis functions of B1U symmetry.
 There are     4 symmetry adapted cartesian basis functions of B2U symmetry.
 There are     7 symmetry adapted cartesian basis functions of B3U symmetry.
 There are     7 symmetry adapted basis functions of AG  symmetry.
 There are     4 symmetry adapted basis functions of B1G symmetry.
 There are     2 symmetry adapted basis functions of B2G symmetry.
 There are     0 symmetry adapted basis functions of B3G symmetry.
 There are     0 symmetry adapted basis functions of AU  symmetry.
 There are     2 symmetry adapted basis functions of B1U symmetry.
 There are     4 symmetry adapted basis functions of B2U symmetry.
 There are     7 symmetry adapted basis functions of B3U symmetry.
    26 basis functions,    42 primitive gaussians,    26 cartesian basis functions
     8 alpha electrons        8 beta electrons
       nuclear repulsion energy        33.3199637222 Hartrees.
 NAtoms=    6 NActive=    6 NUniq=    2 SFac= 4.00D+00 NAtFMM=   60 NAOKFM=F Big=F
 Integral buffers will be    131072 words long.
 Raffenetti 1 integral format.
 Two-electron integral symmetry is turned on.
 One-electron integrals computed using PRISM.
 NBasis=    26 RedAO= T EigKep=  1.62D-02  NBF=     7     4     2     0     0     2     4     7
 NBsUse=    26 1.00D-06 EigRej= -1.00D+00 NBFU=     7     4     2     0     0     2     4     7
 ExpMin= 1.83D-01 ExpMax= 1.72D+02 ExpMxC= 1.72D+02 IAcc=3 IRadAn=         5 AccDes= 0.00D+00
 Harris functional with IExCor=  205 and IRadAn=       5 diagonalized for initial guess.
 HarFok:  IExCor=  205 AccDes= 0.00D+00 IRadAn=         5 IDoV= 1 UseB2=F ITyADJ=14
 ICtDFT=  3500011 ScaDFX=  1.000000  1.000000  1.000000  1.000000
 FoFCou: FMM=F IPFlag=           0 FMFlag=      100000 FMFlg1=           0
         NFxFlg=           0 DoJE=T BraDBF=F KetDBF=T FulRan=T
         wScrn=  0.000000 ICntrl=       500 IOpCl=  0 I1Cent=   200000004 NGrid=           0
         NMat0=    1 NMatS0=      1 NMatT0=    0 NMatD0=    1 NMtDS0=    0 NMtDT0=    0
 Petite list used in FoFCou.
 Initial guess orbital symmetries:
       Occupied  (B3U) (AG) (AG) (B3U) (B2U) (AG) (B1G) (B1U)
       Virtual   (B2G) (AG) (B2U) (B3U) (B1G) (B3U) (AG) (B1U)
                 (B2U) (B2G) (B3U) (AG) (B1G) (B2U) (B3U) (AG)
                 (B1G) (B3U)
 The electronic state of the initial guess is 1-AG.
 Keep R1 ints in memory in symmetry-blocked form, NReq=1672981.
 Requested convergence on RMS density matrix=1.00D-08 within 128 cycles.
 Requested convergence on MAX density matrix=1.00D-06.
 Requested convergence on             energy=1.00D-06.
 No special actions if energy rises.
 SCF Done:  E(RHF) =  -77.5999067334     A.U. after    8 cycles
            NFock=  8  Conv=0.82D-08     -V/T= 2.0040
 ExpMin= 1.83D-01 ExpMax= 1.72D+02 ExpMxC= 1.72D+02 IAcc=3 IRadAn=         5 AccDes= 0.00D+00
 HarFok:  IExCor=  205 AccDes= 0.00D+00 IRadAn=         5 IDoV=-2 UseB2=F ITyADJ=14
 ICtDFT= 12500011 ScaDFX=  1.000000  1.000000  1.000000  1.000000
 Range of M.O.s used for correlation:     3    26
 NBasis=    26 NAE=     8 NBE=     8 NFC=     2 NFV=     0
 NROrb=     24 NOA=     6 NOB=     6 NVA=    18 NVB=    18
 Fully direct method using O(ONN) memory.
 JobTyp=1 Pass  1:  I=   3 to   8 NPSUse=  8 ParTrn=T ParDer=T DoDerP=T.
 Spin components of T(2) and E(2):
     alpha-alpha T2 =       0.7120756783D-02 E2=     -0.1839231536D-01
     alpha-beta  T2 =       0.5911458017D-01 E2=     -0.1444138702D+00
     beta-beta   T2 =       0.7120756783D-02 E2=     -0.1839231536D-01
 ANorm=    0.1036029002D+01
 E2 =    -0.1811985009D+00 EUMP2 =    -0.77781105234305D+02
          IDoAtm=111111
          Differentiating once with respect to electric field.
                with respect to dipole field.
          Differentiating once with respect to nuclear coordinates.
 Keep R1 ints in memory in symmetry-blocked form, NReq=1673807.
          There are     1 degrees of freedom in the 1st order CPHF.  IDoFFX=0 NUNeed=     1.
 LinEq1:  Iter=  0 NonCon=     1 RMS=7.49D-03 Max=7.61D-02 NDo=     1
 AX will form     1 AO Fock derivatives at one time.
 LinEq1:  Iter=  1 NonCon=     1 RMS=2.36D-03 Max=1.51D-02 NDo=     1
 LinEq1:  Iter=  2 NonCon=     1 RMS=2.00D-04 Max=1.43D-03 NDo=     1
 LinEq1:  Iter=  3 NonCon=     1 RMS=1.29D-05 Max=8.40D-05 NDo=     1
 LinEq1:  Iter=  4 NonCon=     1 RMS=8.59D-07 Max=5.05D-06 NDo=     1
 LinEq1:  Iter=  5 NonCon=     1 RMS=4.72D-08 Max=2.36D-07 NDo=     1
 LinEq1:  Iter=  6 NonCon=     1 RMS=2.83D-09 Max=1.37D-08 NDo=     1
 LinEq1:  Iter=  7 NonCon=     1 RMS=2.40D-10 Max=1.54D-09 NDo=     1
 LinEq1:  Iter=  8 NonCon=     0 RMS=2.29D-11 Max=1.00D-10 NDo=     1
 Linear equations converged to 1.000D-10 1.000D-09 after     8 iterations.
 End of Minotr F.D. properties file   721 does not exist.
 End of Minotr F.D. properties file   722 does not exist.
 End of Minotr F.D. properties file   788 does not exist.

 **********************************************************************

            Population analysis using the SCF Density.

 **********************************************************************

 Orbital symmetries:
       Occupied  (AG) (B3U) (AG) (B3U) (B2U) (AG) (B1G) (B1U)
       Virtual   (B2G) (AG) (B2U) (B3U) (B1G) (B3U) (AG) (B2U)
                 (B1U) (B2G) (B3U) (AG) (B1G) (B2U) (B3U) (B1G)
                 (AG) (B3U)
 The electronic state is 1-AG.
 Alpha  occ. eigenvalues --  -11.17190 -11.17189  -1.03091  -0.78409  -0.64355
 Alpha  occ. eigenvalues --   -0.58140  -0.50066  -0.37506
 Alpha virt. eigenvalues --    0.18158   0.29290   0.31097   0.33851   0.43523
 Alpha virt. eigenvalues --    0.53526   0.88066   0.93480   0.99301   1.07631
 Alpha virt. eigenvalues --    1.10195   1.12096   1.31435   1.35013   1.39050
 Alpha virt. eigenvalues --    1.65592   1.65695   1.96462
          Condensed to atoms (all electrons):
               1          2          3          4          5          6
     1  C    5.212082   0.525013   0.392483   0.392483  -0.048611  -0.048611
     2  C    0.525013   5.212082  -0.048611  -0.048611   0.392483   0.392483
     3  H    0.392483  -0.048611   0.464035  -0.020450   0.002082  -0.001958
     4  H    0.392483  -0.048611  -0.020450   0.464035  -0.001958   0.002082
     5  H   -0.048611   0.392483   0.002082  -0.001958   0.464035  -0.020450
     6  H   -0.048611   0.392483  -0.001958   0.002082  -0.020450   0.464035
 Mulliken charges:
               1
     1  C   -0.424838
     2  C   -0.424838
     3  H    0.212419
     4  H    0.212419
     5  H    0.212419
     6  H    0.212419
 Sum of Mulliken charges =  -0.00000
 Mulliken charges with hydrogens summed into heavy atoms:
               1
     1  C   -0.000000
     2  C   -0.000000
 Electronic spatial extent (au):  <R**2>=             82.8976
 Charge=             -0.0000 electrons
 Dipole moment (field-independent basis, Debye):
    X=             -0.0000    Y=              0.0000    Z=              0.0000  Tot=              0.0000
 Quadrupole moment (field-independent basis, Debye-Ang):
   XX=            -12.2060   YY=            -12.2502   ZZ=            -15.7546
   XY=              0.0000   XZ=             -0.0000   YZ=             -0.0000
 Traceless Quadrupole moment (field-independent basis, Debye-Ang):
   XX=              1.1976   YY=              1.1534   ZZ=             -2.3510
   XY=              0.0000   XZ=             -0.0000   YZ=             -0.0000
 Octapole moment (field-independent basis, Debye-Ang**2):
  XXX=              0.0000  YYY=              0.0000  ZZZ=              0.0000  XYY=              0.0000
  XXY=              0.0000  XXZ=              0.0000  XZZ=              0.0000  YZZ=              0.0000
  YYZ=              0.0000  XYZ=              0.0000
 Hexadecapole moment (field-independent basis, Debye-Ang**3):
 XXXX=            -65.8840 YYYY=            -25.1541 ZZZZ=            -16.5317 XXXY=              0.0000
 XXXZ=             -0.0000 YYYX=              0.0000 YYYZ=              0.0000 ZZZX=             -0.0000
 ZZZY=              0.0000 XXYY=            -12.3826 XXZZ=            -14.8907 YYZZ=             -7.6335
 XXYZ=             -0.0000 YYXZ=             -0.0000 ZZXY=              0.0000
 N-N= 3.331996372219D+01 E-N=-2.466148963293D+02  KE= 7.729409526044D+01
 Symmetry AG   KE= 3.725606511010D+01
 Symmetry B1G  KE= 2.059373719266D+00
 Symmetry B2G  KE= 4.066435471077D-32
 Symmetry B3G  KE= 0.000000000000D+00
 Symmetry AU   KE= 0.000000000000D+00
 Symmetry B1U  KE= 1.934864024213D+00
 Symmetry B2U  KE= 1.825742690148D+00
 Symmetry B3U  KE= 3.421804971672D+01
 Calling FoFJK, ICntrl=  10002127 FMM=F ISym2X=1 I1Cent= 0 IOpClX= 0 NMat=1 NMatS=1 NMatT=0.
 ***** Axes restored to original set *****
 -------------------------------------------------------------------
 Center     Atomic                   Forces (Hartrees/Bohr)
 Number     Number              X              Y              Z
 -------------------------------------------------------------------
      1        6          -0.000619235   -0.002697272    0.002292128
      2        6           0.000619235    0.002697272   -0.002292128
      3        1          -0.001827925   -0.001977040    0.000945900
      4        1           0.000999951   -0.001629461    0.002118886
      5        1           0.001827925    0.001977040   -0.000945900
      6        1          -0.000999951    0.001629461   -0.002118886
 -------------------------------------------------------------------
 Cartesian Forces:  Max     0.002697272 RMS     0.001801296

 GradGradGradGradGradGradGradGradGradGradGradGradGradGradGradGradGradGrad
 Berny optimization.
 FormGI is forming the generalized inverse of G from B-inverse, IUseBI=4.
 Internal  Forces:  Max     0.008398124 RMS     0.002783435
 Search for a local minimum.
 Step number   1 out of a maximum of   25
 All quantities printed in internal units (Hartrees-Bohrs-Radians)
 Mixed Optimization -- RFO/linear search
 Second derivative matrix not updated -- first step.
 The second derivative matrix:
                          R1        R2        R3        R4        R5
           R1           0.58159
           R2           0.00000   0.35339
           R3           0.00000   0.00000   0.35339
           R4           0.00000   0.00000   0.00000   0.35339
           R5           0.00000   0.00000   0.00000   0.00000   0.35339
           A1           0.00000   0.00000   0.00000   0.00000   0.00000
           A2           0.00000   0.00000   0.00000   0.00000   0.00000
           A3           0.00000   0.00000   0.00000   0.00000   0.00000
           A4           0.00000   0.00000   0.00000   0.00000   0.00000
           A5           0.00000   0.00000   0.00000   0.00000   0.00000
           A6           0.00000   0.00000   0.00000   0.00000   0.00000
           D1           0.00000   0.00000   0.00000   0.00000   0.00000
           D2           0.00000   0.00000   0.00000   0.00000   0.00000
           D3           0.00000   0.00000   0.00000   0.00000   0.00000
           D4           0.00000   0.00000   0.00000   0.00000   0.00000
                          A1        A2        A3        A4        A5
           A1           0.16000
           A2           0.00000   0.16000
           A3           0.00000   0.00000   0.16000
           A4           0.00000   0.00000   0.00000   0.16000
           A5           0.00000   0.00000   0.00000   0.00000   0.16000
           A6           0.00000   0.00000   0.00000   0.00000   0.00000
           D1           0.00000   0.00000   0.00000   0.00000   0.00000
           D2           0.00000   0.00000   0.00000   0.00000   0.00000
           D3           0.00000   0.00000   0.00000   0.00000   0.00000
           D4           0.00000   0.00000   0.00000   0.00000   0.00000
                          A6        D1        D2        D3        D4
           A6           0.16000
           D1           0.00000   0.02938
           D2           0.00000   0.00000   0.02938
           D3           0.00000   0.00000   0.00000   0.02938
           D4           0.00000   0.00000   0.00000   0.00000   0.02938
 ITU=  0
     Eigenvalues ---    0.02938   0.02938   0.02938   0.16000   0.16000
     Eigenvalues ---    0.16000   0.16000   0.35339   0.35339   0.35339
     Eigenvalues ---    0.35339   0.58159
 RFO step:  Lambda=-4.05896497D-04 EMin= 2.93815939D-02
 Linear search not attempted -- first point.
 Iteration  1 RMS(Cart)=  0.01638670 RMS(Int)=  0.00007833
 Iteration  2 RMS(Cart)=  0.00007826 RMS(Int)=  0.00000000
 Iteration  3 RMS(Cart)=  0.00000000 RMS(Int)=  0.00000000
 ClnCor:  largest displacement from symmetrization is 4.08D-09 for atom     5.
 Variable       Old X    -DE/DX   Delta X   Delta X   Delta X     New X
                                 (Linear)    (Quad)   (Total)
    R1        2.52427   0.00840   0.00000   0.01443   0.01443   2.53870
    R2        2.05128  -0.00008   0.00000  -0.00023  -0.00023   2.05105
    R3        2.05128  -0.00008   0.00000  -0.00023  -0.00023   2.05105
    R4        2.05128  -0.00008   0.00000  -0.00023  -0.00023   2.05105
    R5        2.05128  -0.00008   0.00000  -0.00023  -0.00023   2.05105
    A1        2.11273   0.00195   0.00000   0.01216   0.01216   2.12489
    A2        2.11273   0.00195   0.00000   0.01216   0.01216   2.12489
    A3        2.05773  -0.00390   0.00000  -0.02432  -0.02432   2.03341
    A4        2.11273   0.00195   0.00000   0.01216   0.01216   2.12489
    A5        2.11273   0.00195   0.00000   0.01216   0.01216   2.12489
    A6        2.05773  -0.00390   0.00000  -0.02432  -0.02432   2.03341
    D1        3.14159   0.00000   0.00000   0.00000   0.00000   3.14159
    D2        0.00000  -0.00000   0.00000  -0.00000   0.00000   0.00000
    D3        0.00000  -0.00000   0.00000  -0.00000  -0.00000   0.00000
    D4       -3.14159  -0.00000   0.00000  -0.00000   0.00000  -3.14159
         Item               Value     Threshold  Converged?
 Maximum Force            0.008398     0.000450     NO 
 RMS     Force            0.002783     0.000300     NO 
 Maximum Displacement     0.023128     0.001800     NO 
 RMS     Displacement     0.016377     0.001200     NO 
 Predicted change in Energy=-2.033515D-04
 GradGradGradGradGradGradGradGradGradGradGradGradGradGradGradGradGradGrad

                          Input orientation:                          
 ---------------------------------------------------------------------
 Center     Atomic      Atomic             Coordinates (Angstroms)
 Number     Number       Type             X           Y           Z
 ---------------------------------------------------------------------
      1          6           0       -1.510128   -1.695093   -1.913263
      2          6           0       -1.278622   -0.686696   -2.770194
      3          1           0       -0.761437   -2.019643   -1.197610
      4          1           0       -2.455644   -2.227880   -1.900356
      5          1           0       -2.027312   -0.362146   -3.485847
      6          1           0       -0.333105   -0.153909   -2.783101
 ---------------------------------------------------------------------
                    Distance matrix (angstroms):
                    1          2          3          4          5
     1  C    0.000000
     2  C    1.343424   0.000000
     3  H    1.085371   2.125382   0.000000
     4  H    1.085371   2.125382   1.845956   0.000000
     5  H    2.125382   1.085371   3.096089   2.485601   0.000000
     6  H    2.125382   1.085371   2.485601   3.096089   1.845956
                    6
     6  H    0.000000
 Stoichiometry    C2H4
 Framework group  D2H[C2"(C.C),SG(H4)]
 Deg. of freedom     3
 Full point group                 D2H     NOp   8
 Omega: Change in point group or standard orientation.

 Old FWG=D02H [C2(C1.C1),SG"(H4)]
 New FWG=D02H [C2"(C1.C1),SG(H4)]
 Largest Abelian subgroup         D2H     NOp   8
 Largest concise Abelian subgroup D2      NOp   4
                         Standard orientation:                         
 ---------------------------------------------------------------------
 Center     Atomic      Atomic             Coordinates (Angstroms)
 Number     Number       Type             X           Y           Z
 ---------------------------------------------------------------------
      1          6           0       -0.000000    0.000000    0.671712
      2          6           0        0.000000    0.000000   -0.671712
      3          1           0       -0.000000    0.922978    1.242801
      4          1           0       -0.000000   -0.922978    1.242801
      5          1           0       -0.000000   -0.922978   -1.242801
      6          1           0        0.000000    0.922978   -1.242801
 ---------------------------------------------------------------------
 Rotational constants (GHZ):         147.1598980          29.6318152          24.6652675
 Standard basis: 3-21G (6D, 7F)
 There are     7 symmetry adapted cartesian basis functions of AG  symmetry.
 There are     0 symmetry adapted cartesian basis functions of B1G symmetry.
 There are     2 symmetry adapted cartesian basis functions of B2G symmetry.
 There are     4 symmetry adapted cartesian basis functions of B3G symmetry.
 There are     0 symmetry adapted cartesian basis functions of AU  symmetry.
 There are     7 symmetry adapted cartesian basis functions of B1U symmetry.
 There are     4 symmetry adapted cartesian basis functions of B2U symmetry.
 There are     2 symmetry adapted cartesian basis functions of B3U symmetry.
 There are     7 symmetry adapted basis functions of AG  symmetry.
 There are     0 symmetry adapted basis functions of B1G symmetry.
 There are     2 symmetry adapted basis functions of B2G symmetry.
 There are     4 symmetry adapted basis functions of B3G symmetry.
 There are     0 symmetry adapted basis functions of AU  symmetry.
 There are     7 symmetry adapted basis functions of B1U symmetry.
 There are     4 symmetry adapted basis functions of B2U symmetry.
 There are     2 symmetry adapted basis functions of B3U symmetry.
    26 basis functions,    42 primitive gaussians,    26 cartesian basis functions
     8 alpha electrons        8 beta electrons
       nuclear repulsion energy        33.1982524543 Hartrees.
 NAtoms=    6 NActive=    6 NUniq=    2 SFac= 4.00D+00 NAtFMM=   60 NAOKFM=F Big=F
 Integral buffers will be    131072 words long.
 Raffenetti 1 integral format.
 Two-electron integral symmetry is turned on.
 One-electron integrals computed using PRISM.
 NBasis=    26 RedAO= T EigKep=  1.68D-02  NBF=     7     0     2     4     0     7     4     2
 NBsUse=    26 1.00D-06 EigRej= -1.00D+00 NBFU=     7     0     2     4     0     7     4     2
 Initial guess from the checkpoint file:  "Ethylene.chk"
 B after Tr=     0.000000    0.000000   -0.000000
         Rot=    0.707107    0.000000   -0.707107   -0.000000 Ang= -90.00 deg.
 Initial guess orbital symmetries:
       Occupied  (AG) (B1U) (AG) (B1U) (B2U) (AG) (B3G) (B3U)
       Virtual   (B2G) (AG) (B2U) (B1U) (B3G) (B1U) (AG) (B2U)
                 (B3U) (B2G) (B1U) (AG) (B3G) (B2U) (B1U) (B3G)
                 (AG) (B1U)
 ExpMin= 1.83D-01 ExpMax= 1.72D+02 ExpMxC= 1.72D+02 IAcc=3 IRadAn=         5 AccDes= 0.00D+00
 Harris functional with IExCor=  205 and IRadAn=       5 diagonalized for initial guess.
 HarFok:  IExCor=  205 AccDes= 0.00D+00 IRadAn=         5 IDoV= 1 UseB2=F ITyADJ=14
 ICtDFT=  3500011 ScaDFX=  1.000000  1.000000  1.000000  1.000000
 FoFCou: FMM=F IPFlag=           0 FMFlag=      100000 FMFlg1=           0
         NFxFlg=           0 DoJE=T BraDBF=F KetDBF=T FulRan=T
         wScrn=  0.000000 ICntrl=       500 IOpCl=  0 I1Cent=   200000004 NGrid=           0
         NMat0=    1 NMatS0=      1 NMatT0=    0 NMatD0=    1 NMtDS0=    0 NMtDT0=    0
 Petite list used in FoFCou.
 Keep R1 ints in memory in symmetry-blocked form, NReq=1672981.
 Requested convergence on RMS density matrix=1.00D-08 within 128 cycles.
 Requested convergence on MAX density matrix=1.00D-06.
 Requested convergence on             energy=1.00D-06.
 No special actions if energy rises.
 SCF Done:  E(RHF) =  -77.5995603853     A.U. after    7 cycles
            NFock=  7  Conv=0.44D-08     -V/T= 2.0043
 ExpMin= 1.83D-01 ExpMax= 1.72D+02 ExpMxC= 1.72D+02 IAcc=3 IRadAn=         5 AccDes= 0.00D+00
 HarFok:  IExCor=  205 AccDes= 0.00D+00 IRadAn=         5 IDoV=-2 UseB2=F ITyADJ=14
 ICtDFT= 12500011 ScaDFX=  1.000000  1.000000  1.000000  1.000000
 Range of M.O.s used for correlation:     3    26
 NBasis=    26 NAE=     8 NBE=     8 NFC=     2 NFV=     0
 NROrb=     24 NOA=     6 NOB=     6 NVA=    18 NVB=    18
 Fully direct method using O(ONN) memory.
 JobTyp=1 Pass  1:  I=   3 to   8 NPSUse=  8 ParTrn=T ParDer=T DoDerP=T.
 Spin components of T(2) and E(2):
     alpha-alpha T2 =       0.7172633588D-02 E2=     -0.1844920848D-01
     alpha-beta  T2 =       0.5955492802D-01 E2=     -0.1448459218D+00
     beta-beta   T2 =       0.7172633588D-02 E2=     -0.1844920848D-01
 ANorm=    0.1036291559D+01
 E2 =    -0.1817443387D+00 EUMP2 =    -0.77781304724066D+02
          IDoAtm=111111
          Differentiating once with respect to electric field.
                with respect to dipole field.
          Differentiating once with respect to nuclear coordinates.
 Keep R1 ints in memory in symmetry-blocked form, NReq=1673807.
          There are     1 degrees of freedom in the 1st order CPHF.  IDoFFX=0 NUNeed=     1.
 LinEq1:  Iter=  0 NonCon=     1 RMS=7.57D-03 Max=7.70D-02 NDo=     1
 AX will form     1 AO Fock derivatives at one time.
 LinEq1:  Iter=  1 NonCon=     1 RMS=2.39D-03 Max=1.54D-02 NDo=     1
 LinEq1:  Iter=  2 NonCon=     1 RMS=2.00D-04 Max=1.43D-03 NDo=     1
 LinEq1:  Iter=  3 NonCon=     1 RMS=1.27D-05 Max=8.22D-05 NDo=     1
 LinEq1:  Iter=  4 NonCon=     1 RMS=8.43D-07 Max=4.85D-06 NDo=     1
 LinEq1:  Iter=  5 NonCon=     1 RMS=4.69D-08 Max=2.42D-07 NDo=     1
 LinEq1:  Iter=  6 NonCon=     1 RMS=2.60D-09 Max=1.33D-08 NDo=     1
 LinEq1:  Iter=  7 NonCon=     1 RMS=1.28D-10 Max=7.31D-10 NDo=     1
 LinEq1:  Iter=  8 NonCon=     0 RMS=1.21D-11 Max=6.65D-11 NDo=     1
 Linear equations converged to 1.000D-10 1.000D-09 after     8 iterations.
 End of Minotr F.D. properties file   721 does not exist.
 End of Minotr F.D. properties file   722 does not exist.
 End of Minotr F.D. properties file   788 does not exist.
 Calling FoFJK, ICntrl=  10002127 FMM=F ISym2X=1 I1Cent= 0 IOpClX= 0 NMat=1 NMatS=1 NMatT=0.
 ***** Axes restored to original set *****
 -------------------------------------------------------------------
 Center     Atomic                   Forces (Hartrees/Bohr)
 Number     Number              X              Y              Z
 -------------------------------------------------------------------
      1        6           0.000555234    0.002418494   -0.002055224
      2        6          -0.000555234   -0.002418494    0.002055224
      3        1          -0.000111341   -0.000255705    0.000189172
      4        1          -0.000003011   -0.000242390    0.000234106
      5        1           0.000111341    0.000255705   -0.000189172
      6        1           0.000003011    0.000242390   -0.000234106
 -------------------------------------------------------------------
 Cartesian Forces:  Max     0.002418494 RMS     0.001085689

 GradGradGradGradGradGradGradGradGradGradGradGradGradGradGradGradGradGrad
 Berny optimization.
 Using GEDIIS/GDIIS optimizer.
 FormGI is forming the generalized inverse of G from B-inverse, IUseBI=4.
 Internal  Forces:  Max     0.002558429 RMS     0.000690781
 Search for a local minimum.
 Step number   2 out of a maximum of   25
 All quantities printed in internal units (Hartrees-Bohrs-Radians)
 Mixed Optimization -- En-DIIS/RFO-DIIS
 Update second derivatives using D2CorX and points    1    2
 DE= -1.99D-04 DEPred=-2.03D-04 R= 9.81D-01
 TightC=F SS=  1.41D+00  RLast= 4.45D-02 DXNew= 5.0454D-01 1.3359D-01
 Trust test= 9.81D-01 RLast= 4.45D-02 DXMaxT set to 3.00D-01
 The second derivative matrix:
                          R1        R2        R3        R4        R5
           R1           0.69933
           R2          -0.00379   0.35347
           R3          -0.00379   0.00009   0.35347
           R4          -0.00379   0.00009   0.00009   0.35347
           R5          -0.00379   0.00009   0.00009   0.00009   0.35347
           A1           0.00591  -0.00048  -0.00048  -0.00048  -0.00048
           A2           0.00591  -0.00048  -0.00048  -0.00048  -0.00048
           A3          -0.01181   0.00096   0.00096   0.00096   0.00096
           A4           0.00591  -0.00048  -0.00048  -0.00048  -0.00048
           A5           0.00591  -0.00048  -0.00048  -0.00048  -0.00048
           A6          -0.01181   0.00096   0.00096   0.00096   0.00096
           D1           0.00000  -0.00000  -0.00000  -0.00000  -0.00000
           D2           0.00000  -0.00000  -0.00000  -0.00000  -0.00000
           D3           0.00000  -0.00000  -0.00000  -0.00000  -0.00000
           D4           0.00000  -0.00000  -0.00000  -0.00000  -0.00000
                          A1        A2        A3        A4        A5
           A1           0.15798
           A2          -0.00202   0.15798
           A3           0.00404   0.00404   0.15192
           A4          -0.00202  -0.00202   0.00404   0.15798
           A5          -0.00202  -0.00202   0.00404  -0.00202   0.15798
           A6           0.00404   0.00404  -0.00808   0.00404   0.00404
           D1           0.00000   0.00000  -0.00000   0.00000   0.00000
           D2           0.00000   0.00000  -0.00000   0.00000   0.00000
           D3           0.00000   0.00000  -0.00000   0.00000   0.00000
           D4           0.00000   0.00000  -0.00000   0.00000   0.00000
                          A6        D1        D2        D3        D4
           A6           0.15192
           D1          -0.00000   0.02938
           D2          -0.00000  -0.00000   0.02938
           D3          -0.00000   0.00000  -0.00000   0.02938
           D4          -0.00000  -0.00000  -0.00000  -0.00000   0.02938
 ITU=  1  0
 Use linear search instead of GDIIS.
     Eigenvalues ---    0.02938   0.02938   0.02938   0.13497   0.16000
     Eigenvalues ---    0.16000   0.16000   0.35339   0.35339   0.35339
     Eigenvalues ---    0.35360   0.70024
 RFO step:  Lambda=-1.43643005D-05 EMin= 2.93815939D-02
 Quartic linear search produced a step of -0.01417.
 Iteration  1 RMS(Cart)=  0.00127510 RMS(Int)=  0.00000164
 Iteration  2 RMS(Cart)=  0.00000164 RMS(Int)=  0.00000000
 Iteration  3 RMS(Cart)=  0.00000000 RMS(Int)=  0.00000000
 ClnCor:  largest displacement from symmetrization is 2.42D-09 for atom     2.
 Variable       Old X    -DE/DX   Delta X   Delta X   Delta X     New X
                                 (Linear)    (Quad)   (Total)
    R1        2.53870  -0.00256  -0.00020  -0.00362  -0.00383   2.53487
    R2        2.05105   0.00012   0.00000   0.00034   0.00034   2.05139
    R3        2.05105   0.00012   0.00000   0.00034   0.00034   2.05139
    R4        2.05105   0.00012   0.00000   0.00034   0.00034   2.05139
    R5        2.05105   0.00012   0.00000   0.00034   0.00034   2.05139
    A1        2.12489   0.00021  -0.00017   0.00192   0.00175   2.12663
    A2        2.12489   0.00021  -0.00017   0.00192   0.00175   2.12663
    A3        2.03341  -0.00043   0.00034  -0.00384  -0.00349   2.02992
    A4        2.12489   0.00021  -0.00017   0.00192   0.00175   2.12663
    A5        2.12489   0.00021  -0.00017   0.00192   0.00175   2.12663
    A6        2.03341  -0.00043   0.00034  -0.00384  -0.00349   2.02992
    D1        3.14159  -0.00000   0.00000  -0.00000   0.00000   3.14159
    D2       -0.00000   0.00000   0.00000  -0.00000  -0.00000  -0.00000
    D3        0.00000  -0.00000   0.00000  -0.00000  -0.00000   0.00000
    D4        3.14159   0.00000   0.00000  -0.00000   0.00000   3.14159
         Item               Value     Threshold  Converged?
 Maximum Force            0.002558     0.000450     NO 
 RMS     Force            0.000691     0.000300     NO 
 Maximum Displacement     0.001693     0.001800     YES
 RMS     Displacement     0.001276     0.001200     NO 
 Predicted change in Energy=-7.228224D-06
 GradGradGradGradGradGradGradGradGradGradGradGradGradGradGradGradGradGrad

                          Input orientation:                          
 ---------------------------------------------------------------------
 Center     Atomic      Atomic             Coordinates (Angstroms)
 Number     Number       Type             X           Y           Z
 ---------------------------------------------------------------------
      1          6           0       -1.509953   -1.694332   -1.913910
      2          6           0       -1.278796   -0.687457   -2.769547
      3          1           0       -0.762334   -2.020258   -1.197490
      4          1           0       -2.454987   -2.228305   -1.899592
      5          1           0       -2.026416   -0.361531   -3.485967
      6          1           0       -0.333763   -0.153484   -2.783865
 ---------------------------------------------------------------------
                    Distance matrix (angstroms):
                    1          2          3          4          5
     1  C    0.000000
     2  C    1.341398   0.000000
     3  H    1.085551   2.124726   0.000000
     4  H    1.085551   2.124726   1.844263   0.000000
     5  H    2.124726   1.085551   3.096193   2.486987   0.000000
     6  H    2.124726   1.085551   2.486987   3.096193   1.844263
                    6
     6  H    0.000000
 Stoichiometry    C2H4
 Framework group  D2H[C2"(C.C),SG(H4)]
 Deg. of freedom     3
 Full point group                 D2H     NOp   8
 Largest Abelian subgroup         D2H     NOp   8
 Largest concise Abelian subgroup D2      NOp   4
                         Standard orientation:                         
 ---------------------------------------------------------------------
 Center     Atomic      Atomic             Coordinates (Angstroms)
 Number     Number       Type             X           Y           Z
 ---------------------------------------------------------------------
      1          6           0       -0.000000    0.000000    0.670699
      2          6           0        0.000000    0.000000   -0.670699
      3          1           0       -0.000000    0.922132    1.243493
      4          1           0       -0.000000   -0.922132    1.243493
      5          1           0       -0.000000   -0.922132   -1.243493
      6          1           0        0.000000    0.922132   -1.243493
 ---------------------------------------------------------------------
 Rotational constants (GHZ):         147.4301586          29.6765219          24.7038357
 Standard basis: 3-21G (6D, 7F)
 There are     7 symmetry adapted cartesian basis functions of AG  symmetry.
 There are     0 symmetry adapted cartesian basis functions of B1G symmetry.
 There are     2 symmetry adapted cartesian basis functions of B2G symmetry.
 There are     4 symmetry adapted cartesian basis functions of B3G symmetry.
 There are     0 symmetry adapted cartesian basis functions of AU  symmetry.
 There are     7 symmetry adapted cartesian basis functions of B1U symmetry.
 There are     4 symmetry adapted cartesian basis functions of B2U symmetry.
 There are     2 symmetry adapted cartesian basis functions of B3U symmetry.
 There are     7 symmetry adapted basis functions of AG  symmetry.
 There are     0 symmetry adapted basis functions of B1G symmetry.
 There are     2 symmetry adapted basis functions of B2G symmetry.
 There are     4 symmetry adapted basis functions of B3G symmetry.
 There are     0 symmetry adapted basis functions of AU  symmetry.
 There are     7 symmetry adapted basis functions of B1U symmetry.
 There are     4 symmetry adapted basis functions of B2U symmetry.
 There are     2 symmetry adapted basis functions of B3U symmetry.
    26 basis functions,    42 primitive gaussians,    26 cartesian basis functions
     8 alpha electrons        8 beta electrons
       nuclear repulsion energy        33.2198584870 Hartrees.
 NAtoms=    6 NActive=    6 NUniq=    2 SFac= 4.00D+00 NAtFMM=   60 NAOKFM=F Big=F
 Integral buffers will be    131072 words long.
 Raffenetti 1 integral format.
 Two-electron integral symmetry is turned on.
 One-electron integrals computed using PRISM.
 NBasis=    26 RedAO= T EigKep=  1.67D-02  NBF=     7     0     2     4     0     7     4     2
 NBsUse=    26 1.00D-06 EigRej= -1.00D+00 NBFU=     7     0     2     4     0     7     4     2
 Initial guess from the checkpoint file:  "Ethylene.chk"
 B after Tr=    -0.000000    0.000000    0.000000
         Rot=    1.000000   -0.000000    0.000000    0.000000 Ang=   0.00 deg.
 Initial guess orbital symmetries:
       Occupied  (B1U) (AG) (AG) (B1U) (B2U) (AG) (B3G) (B3U)
       Virtual   (B2G) (AG) (B2U) (B1U) (B3G) (B1U) (AG) (B2U)
                 (B3U) (B2G) (B1U) (AG) (B3G) (B2U) (B1U) (B3G)
                 (AG) (B1U)
 Keep R1 ints in memory in symmetry-blocked form, NReq=1672981.
 Requested convergence on RMS density matrix=1.00D-08 within 128 cycles.
 Requested convergence on MAX density matrix=1.00D-06.
 Requested convergence on             energy=1.00D-06.
 No special actions if energy rises.
 SCF Done:  E(RHF) =  -77.5996800772     A.U. after    7 cycles
            NFock=  7  Conv=0.11D-08     -V/T= 2.0042
 ExpMin= 1.83D-01 ExpMax= 1.72D+02 ExpMxC= 1.72D+02 IAcc=3 IRadAn=         5 AccDes= 0.00D+00
 HarFok:  IExCor=  205 AccDes= 0.00D+00 IRadAn=         5 IDoV=-2 UseB2=F ITyADJ=14
 ICtDFT= 12500011 ScaDFX=  1.000000  1.000000  1.000000  1.000000
 Range of M.O.s used for correlation:     3    26
 NBasis=    26 NAE=     8 NBE=     8 NFC=     2 NFV=     0
 NROrb=     24 NOA=     6 NOB=     6 NVA=    18 NVB=    18
 Fully direct method using O(ONN) memory.
 JobTyp=1 Pass  1:  I=   3 to   8 NPSUse=  8 ParTrn=T ParDer=T DoDerP=T.
 Spin components of T(2) and E(2):
     alpha-alpha T2 =       0.7161563959D-02 E2=     -0.1843860456D-01
     alpha-beta  T2 =       0.5945335858D-01 E2=     -0.1447561982D+00
     beta-beta   T2 =       0.7161563959D-02 E2=     -0.1843860456D-01
 ANorm=    0.1036231869D+01
 E2 =    -0.1816334074D+00 EUMP2 =    -0.77781313484573D+02
          IDoAtm=111111
          Differentiating once with respect to electric field.
                with respect to dipole field.
          Differentiating once with respect to nuclear coordinates.
 Keep R1 ints in memory in symmetry-blocked form, NReq=1673807.
          There are     1 degrees of freedom in the 1st order CPHF.  IDoFFX=0 NUNeed=     1.
 LinEq1:  Iter=  0 NonCon=     1 RMS=7.55D-03 Max=7.67D-02 NDo=     1
 AX will form     1 AO Fock derivatives at one time.
 LinEq1:  Iter=  1 NonCon=     1 RMS=2.38D-03 Max=1.53D-02 NDo=     1
 LinEq1:  Iter=  2 NonCon=     1 RMS=1.99D-04 Max=1.43D-03 NDo=     1
 LinEq1:  Iter=  3 NonCon=     1 RMS=1.27D-05 Max=8.19D-05 NDo=     1
 LinEq1:  Iter=  4 NonCon=     1 RMS=8.40D-07 Max=4.85D-06 NDo=     1
 LinEq1:  Iter=  5 NonCon=     1 RMS=4.68D-08 Max=2.42D-07 NDo=     1
 LinEq1:  Iter=  6 NonCon=     1 RMS=2.60D-09 Max=1.34D-08 NDo=     1
 LinEq1:  Iter=  7 NonCon=     1 RMS=1.28D-10 Max=7.25D-10 NDo=     1
 LinEq1:  Iter=  8 NonCon=     0 RMS=1.17D-11 Max=6.43D-11 NDo=     1
 Linear equations converged to 1.000D-10 1.000D-09 after     8 iterations.
 End of Minotr F.D. properties file   721 does not exist.
 End of Minotr F.D. properties file   722 does not exist.
 End of Minotr F.D. properties file   788 does not exist.
 Calling FoFJK, ICntrl=  10002127 FMM=F ISym2X=1 I1Cent= 0 IOpClX= 0 NMat=1 NMatS=1 NMatT=0.
 ***** Axes restored to original set *****
 -------------------------------------------------------------------
 Center     Atomic                   Forces (Hartrees/Bohr)
 Number     Number              X              Y              Z
 -------------------------------------------------------------------
      1        6           0.000119415    0.000520152   -0.000442022
      2        6          -0.000119415   -0.000520152    0.000442022
      3        1          -0.000007760   -0.000063113    0.000057229
      4        1          -0.000021610   -0.000064816    0.000051484
      5        1           0.000007760    0.000063113   -0.000057229
      6        1           0.000021610    0.000064816   -0.000051484
 -------------------------------------------------------------------
 Cartesian Forces:  Max     0.000520152 RMS     0.000234483

 GradGradGradGradGradGradGradGradGradGradGradGradGradGradGradGradGradGrad
 Berny optimization.
 Using GEDIIS/GDIIS optimizer.
 FormGI is forming the generalized inverse of G from B-inverse, IUseBI=4.
 Internal  Forces:  Max     0.000522533 RMS     0.000143725
 Search for a local minimum.
 Step number   3 out of a maximum of   25
 All quantities printed in internal units (Hartrees-Bohrs-Radians)
 Mixed Optimization -- En-DIIS/RFO-DIIS
 Swapping is turned off.
 Update second derivatives using D2CorX and points    1    2    3
 DE= -8.76D-06 DEPred=-7.23D-06 R= 1.21D+00
 TightC=F SS=  1.41D+00  RLast= 7.19D-03 DXNew= 5.0454D-01 2.1574D-02
 Trust test= 1.21D+00 RLast= 7.19D-03 DXMaxT set to 3.00D-01
 The second derivative matrix:
                          R1        R2        R3        R4        R5
           R1           0.60980
           R2           0.00459   0.35289
           R3           0.00459  -0.00050   0.35289
           R4           0.00459  -0.00050  -0.00050   0.35289
           R5           0.00459  -0.00050  -0.00050  -0.00050   0.35289
           A1           0.01396  -0.00136  -0.00136  -0.00136  -0.00136
           A2           0.01396  -0.00136  -0.00136  -0.00136  -0.00136
           A3          -0.02791   0.00272   0.00272   0.00272   0.00272
           A4           0.01396  -0.00136  -0.00136  -0.00136  -0.00136
           A5           0.01396  -0.00136  -0.00136  -0.00136  -0.00136
           A6          -0.02791   0.00272   0.00272   0.00272   0.00272
           D1           0.00000  -0.00000  -0.00000  -0.00000  -0.00000
           D2          -0.00000   0.00000   0.00000   0.00000   0.00000
           D3           0.00000  -0.00000  -0.00000  -0.00000  -0.00000
           D4           0.00000  -0.00000  -0.00000  -0.00000  -0.00000
                          A1        A2        A3        A4        A5
           A1           0.15729
           A2          -0.00271   0.15729
           A3           0.00542   0.00542   0.14916
           A4          -0.00271  -0.00271   0.00542   0.15729
           A5          -0.00271  -0.00271   0.00542  -0.00271   0.15729
           A6           0.00542   0.00542  -0.01084   0.00542   0.00542
           D1          -0.00000  -0.00000   0.00000  -0.00000  -0.00000
           D2           0.00000   0.00000  -0.00000   0.00000   0.00000
           D3          -0.00000  -0.00000   0.00000  -0.00000  -0.00000
           D4          -0.00000  -0.00000   0.00000  -0.00000  -0.00000
                          A6        D1        D2        D3        D4
           A6           0.14916
           D1           0.00000   0.02938
           D2          -0.00000   0.00000   0.02938
           D3           0.00000  -0.00000   0.00000   0.02938
           D4           0.00000  -0.00000   0.00000  -0.00000   0.02938
 ITU=  1  1  0
     Eigenvalues ---    0.02938   0.02938   0.02938   0.12222   0.16000
     Eigenvalues ---    0.16000   0.16000   0.35161   0.35339   0.35339
     Eigenvalues ---    0.35339   0.61485
 En-DIIS/RFO-DIIS/Sim-DIIS IScMMF=       -3 using points:     3    2
 RFO step:  Lambda=-8.28818401D-07.
 DidBck=F Rises=F RFO-DIIS coefs:    1.27442   -0.27442
 Iteration  1 RMS(Cart)=  0.00034817 RMS(Int)=  0.00000013
 Iteration  2 RMS(Cart)=  0.00000013 RMS(Int)=  0.00000000
 ClnCor:  largest displacement from symmetrization is 6.52D-09 for atom     5.
 Variable       Old X    -DE/DX   Delta X   Delta X   Delta X     New X
                                 (Linear)    (Quad)   (Total)
    R1        2.53487  -0.00052  -0.00105   0.00006  -0.00100   2.53388
    R2        2.05139   0.00005   0.00009   0.00009   0.00018   2.05157
    R3        2.05139   0.00005   0.00009   0.00009   0.00018   2.05157
    R4        2.05139   0.00005   0.00009   0.00009   0.00018   2.05157
    R5        2.05139   0.00005   0.00009   0.00009   0.00018   2.05157
    A1        2.12663   0.00005   0.00048   0.00000   0.00048   2.12712
    A2        2.12663   0.00005   0.00048   0.00000   0.00048   2.12712
    A3        2.02992  -0.00009  -0.00096  -0.00001  -0.00097   2.02895
    A4        2.12663   0.00005   0.00048   0.00000   0.00048   2.12712
    A5        2.12663   0.00005   0.00048   0.00000   0.00048   2.12712
    A6        2.02992  -0.00009  -0.00096  -0.00001  -0.00097   2.02895
    D1       -3.14159  -0.00000   0.00000  -0.00000  -0.00000  -3.14159
    D2       -0.00000   0.00000  -0.00000   0.00000   0.00000   0.00000
    D3        0.00000  -0.00000   0.00000  -0.00000  -0.00000   0.00000
    D4       -3.14159  -0.00000   0.00000  -0.00000   0.00000  -3.14159
         Item               Value     Threshold  Converged?
 Maximum Force            0.000523     0.000450     NO 
 RMS     Force            0.000144     0.000300     YES
 Maximum Displacement     0.000422     0.001800     YES
 RMS     Displacement     0.000348     0.001200     YES
 Predicted change in Energy=-4.144107D-07
 GradGradGradGradGradGradGradGradGradGradGradGradGradGradGradGradGradGrad

                          Input orientation:                          
 ---------------------------------------------------------------------
 Center     Atomic      Atomic             Coordinates (Angstroms)
 Number     Number       Type             X           Y           Z
 ---------------------------------------------------------------------
      1          6           0       -1.509908   -1.694135   -1.914078
      2          6           0       -1.278842   -0.687654   -2.769379
      3          1           0       -0.762553   -2.020455   -1.197415
      4          1           0       -2.454848   -2.228458   -1.899369
      5          1           0       -2.026197   -0.361334   -3.486042
      6          1           0       -0.333902   -0.153331   -2.784088
 ---------------------------------------------------------------------
                    Distance matrix (angstroms):
                    1          2          3          4          5
     1  C    0.000000
     2  C    1.340871   0.000000
     3  H    1.085647   2.124614   0.000000
     4  H    1.085647   2.124614   1.843872   0.000000
     5  H    2.124614   1.085647   3.096335   2.487453   0.000000
     6  H    2.124614   1.085647   2.487453   3.096335   1.843872
                    6
     6  H    0.000000
 Stoichiometry    C2H4
 Framework group  D2H[C2"(C.C),SG(H4)]
 Deg. of freedom     3
 Full point group                 D2H     NOp   8
 Largest Abelian subgroup         D2H     NOp   8
 Largest concise Abelian subgroup D2      NOp   4
                         Standard orientation:                         
 ---------------------------------------------------------------------
 Center     Atomic      Atomic             Coordinates (Angstroms)
 Number     Number       Type             X           Y           Z
 ---------------------------------------------------------------------
      1          6           0       -0.000000    0.000000    0.670436
      2          6           0        0.000000    0.000000   -0.670436
      3          1           0       -0.000000    0.921936    1.243727
      4          1           0        0.000000   -0.921936    1.243727
      5          1           0       -0.000000   -0.921936   -1.243727
      6          1           0        0.000000    0.921936   -1.243727
 ---------------------------------------------------------------------
 Rotational constants (GHZ):         147.4926875          29.6872180          24.7130032
 Standard basis: 3-21G (6D, 7F)
 There are     7 symmetry adapted cartesian basis functions of AG  symmetry.
 There are     0 symmetry adapted cartesian basis functions of B1G symmetry.
 There are     2 symmetry adapted cartesian basis functions of B2G symmetry.
 There are     4 symmetry adapted cartesian basis functions of B3G symmetry.
 There are     0 symmetry adapted cartesian basis functions of AU  symmetry.
 There are     7 symmetry adapted cartesian basis functions of B1U symmetry.
 There are     4 symmetry adapted cartesian basis functions of B2U symmetry.
 There are     2 symmetry adapted cartesian basis functions of B3U symmetry.
 There are     7 symmetry adapted basis functions of AG  symmetry.
 There are     0 symmetry adapted basis functions of B1G symmetry.
 There are     2 symmetry adapted basis functions of B2G symmetry.
 There are     4 symmetry adapted basis functions of B3G symmetry.
 There are     0 symmetry adapted basis functions of AU  symmetry.
 There are     7 symmetry adapted basis functions of B1U symmetry.
 There are     4 symmetry adapted basis functions of B2U symmetry.
 There are     2 symmetry adapted basis functions of B3U symmetry.
    26 basis functions,    42 primitive gaussians,    26 cartesian basis functions
     8 alpha electrons        8 beta electrons
       nuclear repulsion energy        33.2247410961 Hartrees.
 NAtoms=    6 NActive=    6 NUniq=    2 SFac= 4.00D+00 NAtFMM=   60 NAOKFM=F Big=F
 Integral buffers will be    131072 words long.
 Raffenetti 1 integral format.
 Two-electron integral symmetry is turned on.
 One-electron integrals computed using PRISM.
 NBasis=    26 RedAO= T EigKep=  1.67D-02  NBF=     7     0     2     4     0     7     4     2
 NBsUse=    26 1.00D-06 EigRej= -1.00D+00 NBFU=     7     0     2     4     0     7     4     2
 Initial guess from the checkpoint file:  "Ethylene.chk"
 B after Tr=     0.000000    0.000000   -0.000000
         Rot=    1.000000   -0.000000   -0.000000   -0.000000 Ang=   0.00 deg.
 Initial guess orbital symmetries:
       Occupied  (B1U) (AG) (AG) (B1U) (B2U) (AG) (B3G) (B3U)
       Virtual   (B2G) (AG) (B2U) (B1U) (B3G) (B1U) (AG) (B2U)
                 (B3U) (B2G) (B1U) (AG) (B3G) (B2U) (B1U) (B3G)
                 (AG) (B1U)
 Keep R1 ints in memory in symmetry-blocked form, NReq=1672981.
 Requested convergence on RMS density matrix=1.00D-08 within 128 cycles.
 Requested convergence on MAX density matrix=1.00D-06.
 Requested convergence on             energy=1.00D-06.
 No special actions if energy rises.
 SCF Done:  E(RHF) =  -77.5997056322     A.U. after    6 cycles
            NFock=  6  Conv=0.62D-08     -V/T= 2.0042
 ExpMin= 1.83D-01 ExpMax= 1.72D+02 ExpMxC= 1.72D+02 IAcc=3 IRadAn=         5 AccDes= 0.00D+00
 HarFok:  IExCor=  205 AccDes= 0.00D+00 IRadAn=         5 IDoV=-2 UseB2=F ITyADJ=14
 ICtDFT= 12500011 ScaDFX=  1.000000  1.000000  1.000000  1.000000
 Range of M.O.s used for correlation:     3    26
 NBasis=    26 NAE=     8 NBE=     8 NFC=     2 NFV=     0
 NROrb=     24 NOA=     6 NOB=     6 NVA=    18 NVB=    18
 Fully direct method using O(ONN) memory.
 JobTyp=1 Pass  1:  I=   3 to   8 NPSUse=  8 ParTrn=T ParDer=T DoDerP=T.
 Spin components of T(2) and E(2):
     alpha-alpha T2 =       0.7158900005D-02 E2=     -0.1843608960D-01
     alpha-beta  T2 =       0.5942972092D-01 E2=     -0.1447360852D+00
     beta-beta   T2 =       0.7158900005D-02 E2=     -0.1843608960D-01
 ANorm=    0.1036217893D+01
 E2 =    -0.1816082644D+00 EUMP2 =    -0.77781313896569D+02
          IDoAtm=111111
          Differentiating once with respect to electric field.
                with respect to dipole field.
          Differentiating once with respect to nuclear coordinates.
 Keep R1 ints in memory in symmetry-blocked form, NReq=1673807.
          There are     1 degrees of freedom in the 1st order CPHF.  IDoFFX=0 NUNeed=     1.
 LinEq1:  Iter=  0 NonCon=     1 RMS=7.55D-03 Max=7.67D-02 NDo=     1
 AX will form     1 AO Fock derivatives at one time.
 LinEq1:  Iter=  1 NonCon=     1 RMS=2.38D-03 Max=1.53D-02 NDo=     1
 LinEq1:  Iter=  2 NonCon=     1 RMS=1.99D-04 Max=1.43D-03 NDo=     1
 LinEq1:  Iter=  3 NonCon=     1 RMS=1.27D-05 Max=8.18D-05 NDo=     1
 LinEq1:  Iter=  4 NonCon=     1 RMS=8.40D-07 Max=4.85D-06 NDo=     1
 LinEq1:  Iter=  5 NonCon=     1 RMS=4.68D-08 Max=2.42D-07 NDo=     1
 LinEq1:  Iter=  6 NonCon=     1 RMS=2.60D-09 Max=1.34D-08 NDo=     1
 LinEq1:  Iter=  7 NonCon=     1 RMS=1.28D-10 Max=7.26D-10 NDo=     1
 LinEq1:  Iter=  8 NonCon=     0 RMS=1.17D-11 Max=6.41D-11 NDo=     1
 Linear equations converged to 1.000D-10 1.000D-09 after     8 iterations.
 End of Minotr F.D. properties file   721 does not exist.
 End of Minotr F.D. properties file   722 does not exist.
 End of Minotr F.D. properties file   788 does not exist.
 Calling FoFJK, ICntrl=  10002127 FMM=F ISym2X=1 I1Cent= 0 IOpClX= 0 NMat=1 NMatS=1 NMatT=0.
 ***** Axes restored to original set *****
 -------------------------------------------------------------------
 Center     Atomic                   Forces (Hartrees/Bohr)
 Number     Number              X              Y              Z
 -------------------------------------------------------------------
      1        6          -0.000001016   -0.000004427    0.000003762
      2        6           0.000001016    0.000004427   -0.000003762
      3        1          -0.000001075    0.000000468   -0.000001029
      4        1           0.000001358    0.000000767   -0.000000020
      5        1           0.000001075   -0.000000468    0.000001029
      6        1          -0.000001358   -0.000000767    0.000000020
 -------------------------------------------------------------------
 Cartesian Forces:  Max     0.000004427 RMS     0.000002099

 GradGradGradGradGradGradGradGradGradGradGradGradGradGradGradGradGradGrad
 Berny optimization.
 Using GEDIIS/GDIIS optimizer.
 FormGI is forming the generalized inverse of G from B-inverse, IUseBI=4.
 Internal  Forces:  Max     0.000004254 RMS     0.000001362
 Search for a local minimum.
 Step number   4 out of a maximum of   25
 All quantities printed in internal units (Hartrees-Bohrs-Radians)
 Mixed Optimization -- En-DIIS/RFO-DIIS
 Swapping is turned off.
 Update second derivatives using D2CorX and points    1    2    3    4
 DE= -4.12D-07 DEPred=-4.14D-07 R= 9.94D-01
 Trust test= 9.94D-01 RLast= 1.98D-03 DXMaxT set to 3.00D-01
 The second derivative matrix:
                          R1        R2        R3        R4        R5
           R1           0.61318
           R2           0.00392   0.35304
           R3           0.00392  -0.00035   0.35304
           R4           0.00392  -0.00035  -0.00035   0.35304
           R5           0.00392  -0.00035  -0.00035  -0.00035   0.35304
           A1           0.01389  -0.00122  -0.00122  -0.00122  -0.00122
           A2           0.01389  -0.00122  -0.00122  -0.00122  -0.00122
           A3          -0.02777   0.00245   0.00245   0.00245   0.00245
           A4           0.01389  -0.00122  -0.00122  -0.00122  -0.00122
           A5           0.01389  -0.00122  -0.00122  -0.00122  -0.00122
           A6          -0.02777   0.00245   0.00245   0.00245   0.00245
           D1          -0.00000   0.00000   0.00000   0.00000   0.00000
           D2           0.00000  -0.00000  -0.00000  -0.00000  -0.00000
           D3          -0.00000   0.00000   0.00000   0.00000   0.00000
           D4          -0.00000   0.00000   0.00000   0.00000   0.00000
                          A1        A2        A3        A4        A5
           A1           0.15726
           A2          -0.00274   0.15726
           A3           0.00548   0.00548   0.14904
           A4          -0.00274  -0.00274   0.00548   0.15726
           A5          -0.00274  -0.00274   0.00548  -0.00274   0.15726
           A6           0.00548   0.00548  -0.01096   0.00548   0.00548
           D1           0.00000   0.00000  -0.00000   0.00000   0.00000
           D2          -0.00000  -0.00000   0.00000  -0.00000  -0.00000
           D3           0.00000   0.00000  -0.00000   0.00000   0.00000
           D4           0.00000   0.00000  -0.00000   0.00000   0.00000
                          A6        D1        D2        D3        D4
           A6           0.14904
           D1          -0.00000   0.02938
           D2           0.00000   0.00000   0.02938
           D3          -0.00000  -0.00000   0.00000   0.02938
           D4          -0.00000  -0.00000   0.00000  -0.00000   0.02938
 ITU=  0  1  1  0
     Eigenvalues ---    0.02938   0.02938   0.02938   0.12205   0.16000
     Eigenvalues ---    0.16000   0.16000   0.35216   0.35339   0.35339
     Eigenvalues ---    0.35339   0.61808
 En-DIIS/RFO-DIIS/Sim-DIIS IScMMF=       -3 using points:     4    3    2
 RFO step:  Lambda=-5.66496143D-11.
 DIIS inversion failure, remove point   3.
 RFO-DIIS uses    2 points instead of    3
 DidBck=F Rises=F RFO-DIIS coefs:    0.99588    0.00412    0.00000
 Iteration  1 RMS(Cart)=  0.00000199 RMS(Int)=  0.00000000
 Iteration  2 RMS(Cart)=  0.00000000 RMS(Int)=  0.00000001
 ClnCor:  largest displacement from symmetrization is 1.51D-10 for atom     5.
 Variable       Old X    -DE/DX   Delta X   Delta X   Delta X     New X
                                 (Linear)    (Quad)   (Total)
    R1        2.53388   0.00000   0.00000   0.00000   0.00001   2.53389
    R2        2.05157  -0.00000  -0.00000  -0.00000  -0.00000   2.05157
    R3        2.05157  -0.00000  -0.00000  -0.00000  -0.00000   2.05157
    R4        2.05157  -0.00000  -0.00000  -0.00000  -0.00000   2.05157
    R5        2.05157  -0.00000  -0.00000  -0.00000  -0.00000   2.05157
    A1        2.12712   0.00000  -0.00000   0.00000  -0.00000   2.12711
    A2        2.12712   0.00000  -0.00000   0.00000  -0.00000   2.12711
    A3        2.02895  -0.00000   0.00000  -0.00000   0.00000   2.02896
    A4        2.12712   0.00000  -0.00000   0.00000  -0.00000   2.12711
    A5        2.12712   0.00000  -0.00000   0.00000  -0.00000   2.12711
    A6        2.02895  -0.00000   0.00000  -0.00000   0.00000   2.02896
    D1        3.14159  -0.00000   0.00000   0.00000   0.00000   3.14159
    D2       -0.00000   0.00000  -0.00000  -0.00000   0.00000   0.00000
    D3        0.00000  -0.00000   0.00000   0.00000   0.00000   0.00000
    D4        3.14159   0.00000   0.00000   0.00000   0.00000   3.14159
         Item               Value     Threshold  Converged?
 Maximum Force            0.000004     0.000450     YES
 RMS     Force            0.000001     0.000300     YES
 Maximum Displacement     0.000003     0.001800     YES
 RMS     Displacement     0.000002     0.001200     YES
 Predicted change in Energy=-2.975526D-11
 Optimization completed.
    -- Stationary point found.
                           ----------------------------
                           !   Optimized Parameters   !
                           ! (Angstroms and Degrees)  !
 --------------------------                            --------------------------
 ! Name  Definition              Value          Derivative Info.                !
 --------------------------------------------------------------------------------
 ! R1    R(1,2)                  1.3409         -DE/DX =    0.0                 !
 ! R2    R(1,3)                  1.0856         -DE/DX =    0.0                 !
 ! R3    R(1,4)                  1.0856         -DE/DX =    0.0                 !
 ! R4    R(2,5)                  1.0856         -DE/DX =    0.0                 !
 ! R5    R(2,6)                  1.0856         -DE/DX =    0.0                 !
 ! A1    A(2,1,3)              121.8748         -DE/DX =    0.0                 !
 ! A2    A(2,1,4)              121.8748         -DE/DX =    0.0                 !
 ! A3    A(3,1,4)              116.2505         -DE/DX =    0.0                 !
 ! A4    A(1,2,5)              121.8748         -DE/DX =    0.0                 !
 ! A5    A(1,2,6)              121.8748         -DE/DX =    0.0                 !
 ! A6    A(5,2,6)              116.2505         -DE/DX =    0.0                 !
 ! D1    D(3,1,2,5)            180.0            -DE/DX =    0.0                 !
 ! D2    D(3,1,2,6)              0.0            -DE/DX =    0.0                 !
 ! D3    D(4,1,2,5)              0.0            -DE/DX =    0.0                 !
 ! D4    D(4,1,2,6)            180.0            -DE/DX =    0.0                 !
 --------------------------------------------------------------------------------
 GradGradGradGradGradGradGradGradGradGradGradGradGradGradGradGradGradGrad

                          Input orientation:                          
 ---------------------------------------------------------------------
 Center     Atomic      Atomic             Coordinates (Angstroms)
 Number     Number       Type             X           Y           Z
 ---------------------------------------------------------------------
      1          6           0       -1.509908   -1.694135   -1.914078
      2          6           0       -1.278842   -0.687654   -2.769379
      3          1           0       -0.762553   -2.020455   -1.197415
      4          1           0       -2.454848   -2.228458   -1.899369
      5          1           0       -2.026197   -0.361334   -3.486042
      6          1           0       -0.333902   -0.153331   -2.784088
 ---------------------------------------------------------------------
                    Distance matrix (angstroms):
                    1          2          3          4          5
     1  C    0.000000
     2  C    1.340871   0.000000
     3  H    1.085647   2.124614   0.000000
     4  H    1.085647   2.124614   1.843872   0.000000
     5  H    2.124614   1.085647   3.096335   2.487453   0.000000
     6  H    2.124614   1.085647   2.487453   3.096335   1.843872
                    6
     6  H    0.000000
 Stoichiometry    C2H4
 Framework group  D2H[C2"(C.C),SG(H4)]
 Deg. of freedom     3
 Full point group                 D2H     NOp   8
 Largest Abelian subgroup         D2H     NOp   8
 Largest concise Abelian subgroup D2      NOp   4
                         Standard orientation:                         
 ---------------------------------------------------------------------
 Center     Atomic      Atomic             Coordinates (Angstroms)
 Number     Number       Type             X           Y           Z
 ---------------------------------------------------------------------
      1          6           0       -0.000000    0.000000    0.670436
      2          6           0        0.000000    0.000000   -0.670436
      3          1           0       -0.000000    0.921936    1.243727
      4          1           0        0.000000   -0.921936    1.243727
      5          1           0       -0.000000   -0.921936   -1.243727
      6          1           0        0.000000    0.921936   -1.243727
 ---------------------------------------------------------------------
 Rotational constants (GHZ):         147.4926875          29.6872180          24.7130032

 **********************************************************************

            Population analysis using the SCF Density.

 **********************************************************************

 Orbital symmetries:
       Occupied  (B1U) (AG) (AG) (B1U) (B2U) (AG) (B3G) (B3U)
       Virtual   (B2G) (AG) (B2U) (B1U) (B3G) (B1U) (AG) (B2U)
                 (B3U) (B2G) (B1U) (AG) (B3G) (B2U) (B1U) (B3G)
                 (AG) (B1U)
 The electronic state is 1-AG.
 Alpha  occ. eigenvalues --  -11.17341 -11.17339  -1.02845  -0.78706  -0.63970
 Alpha  occ. eigenvalues --   -0.58474  -0.49937  -0.37407
 Alpha virt. eigenvalues --    0.17991   0.29538   0.31002   0.33658   0.43510
 Alpha virt. eigenvalues --    0.53619   0.88784   0.92599   0.99351   1.07509
 Alpha virt. eigenvalues --    1.09593   1.12550   1.31208   1.35144   1.39110
 Alpha virt. eigenvalues --    1.63180   1.65744   1.95764
          Condensed to atoms (all electrons):
               1          2          3          4          5          6
     1  C    5.204529   0.530819   0.391153   0.391153  -0.046650  -0.046650
     2  C    0.530819   5.204529  -0.046650  -0.046650   0.391153   0.391153
     3  H    0.391153  -0.046650   0.465642  -0.022382   0.001993  -0.001933
     4  H    0.391153  -0.046650  -0.022382   0.465642  -0.001933   0.001993
     5  H   -0.046650   0.391153   0.001993  -0.001933   0.465642  -0.022382
     6  H   -0.046650   0.391153  -0.001933   0.001993  -0.022382   0.465642
 Mulliken charges:
               1
     1  C   -0.424354
     2  C   -0.424354
     3  H    0.212177
     4  H    0.212177
     5  H    0.212177
     6  H    0.212177
 Sum of Mulliken charges =  -0.00000
 Mulliken charges with hydrogens summed into heavy atoms:
               1
     1  C   -0.000000
     2  C   -0.000000
 Electronic spatial extent (au):  <R**2>=             83.3759
 Charge=             -0.0000 electrons
 Dipole moment (field-independent basis, Debye):
    X=             -0.0000    Y=              0.0000    Z=             -0.0000  Tot=              0.0000
 Quadrupole moment (field-independent basis, Debye-Ang):
   XX=            -15.7675   YY=            -12.3505   ZZ=            -12.0682
   XY=              0.0000   XZ=              0.0000   YZ=              0.0000
 Traceless Quadrupole moment (field-independent basis, Debye-Ang):
   XX=             -2.3721   YY=              1.0449   ZZ=              1.3272
   XY=              0.0000   XZ=              0.0000   YZ=              0.0000
 Octapole moment (field-independent basis, Debye-Ang**2):
  XXX=             -0.0000  YYY=             -0.0000  ZZZ=             -0.0000  XYY=             -0.0000
  XXY=              0.0000  XXZ=              0.0000  XZZ=             -0.0000  YZZ=             -0.0000
  YYZ=             -0.0000  XYZ=             -0.0000
 Hexadecapole moment (field-independent basis, Debye-Ang**3):
 XXXX=            -16.5544 YYYY=            -25.1716 ZZZZ=            -66.1956 XXXY=             -0.0000
 XXXZ=              0.0000 YYYX=             -0.0000 YYYZ=              0.0000 ZZZX=              0.0000
 ZZZY=              0.0000 XXYY=             -7.6101 XXZZ=            -15.0380 YYZZ=            -12.4630
 XXYZ=             -0.0000 YYXZ=              0.0000 ZZXY=              0.0000
 N-N= 3.322474109611D+01 E-N=-2.464016833638D+02  KE= 7.727317233511D+01
 Symmetry AG   KE= 3.724109678606D+01
 Symmetry B1G  KE= 0.000000000000D+00
 Symmetry B2G  KE= 3.973129649110D-31
 Symmetry B3G  KE= 2.056684139403D+00
 Symmetry AU   KE= 0.000000000000D+00
 Symmetry B1U  KE= 3.421391353416D+01
 Symmetry B2U  KE= 1.828328028014D+00
 Symmetry B3U  KE= 1.933149847471D+00
 Unable to Open any file for archive entry.
 1\1\GINC-BS001\FOpt\RMP2-FC\3-21G\C2H4\PNATT\14-Aug-2026\0\\# opt freq
 =hpmodes mp2/3-21g geom=connectivity\\Ethylene C2H4 - size2to5_D2h\\0,
 1\C,-1.5099078787,-1.6941347169,-1.9140775882\C,-1.2788418713,-0.68765
 42831,-2.7693794118\H,-0.7625532267,-2.0204553916,-1.1974154874\H,-2.4
 548476304,-2.2284578865,-1.8993690389\H,-2.0261965233,-0.3613336084,-3
 .4860415126\H,-0.3339021196,-0.1533311135,-2.7840879611\\Version=ES64L
 -G16RevC.01\State=1-AG\HF=-77.5997056\MP2=-77.7813139\RMSD=6.196e-09\R
 MSF=2.099e-06\Dipole=0.,0.,0.\PG=D02H [C2"(C1.C1),SG(H4)]\\@
 The archive entry for this job was punched.


 WHERE THERE IS MUCH DESIRE TO LEARN, THERE OF NECESSITY WILL BE
 MUCH ARGUING, MUCH WRITING, MANY OPINIONS; FOR OPINION IN GOOD MEN
 IS BUT KNOWLEDGE IN THE MAKING. -- JOHN MILTON.
 Job cpu time:       0 days  0 hours  0 minutes 33.1 seconds.
 Elapsed time:       0 days  0 hours  0 minutes  4.3 seconds.
 File lengths (MBytes):  RWF=      6 Int=      0 D2E=      0 Chk=      1 Scr=      1
 Normal termination of Gaussian 16 at Fri Aug 14 18:18:38 2026.
 Link1:  Proceeding to internal job step number  2.
 -------------------------------------------------------------------
 #N Geom=AllCheck Guess=TCheck SCRF=Check GenChk RMP2(FC)/3-21G Freq
 -------------------------------------------------------------------
 1/10=4,29=7,30=1,38=1,40=1/1,3;
 2/12=2,40=1/2;
 3/5=5,11=1,14=-4,25=1,30=1,70=2,71=2,116=1,140=1/1,2,3;
 4/5=101/1;
 5/5=2,38=6,98=1/2;
 8/6=3,8=1,10=1,19=11,30=-1/1;
 9/15=3,16=-3/6;
 11/6=1,8=1,15=11,17=12,24=-1,27=1,28=-2,29=300,32=6,42=3/1,2,10;
 10/6=2,21=1/2;
 8/6=4,8=1,10=1,19=11,30=-1/11,4;
 10/5=1,20=4/2;
 11/12=2,14=11,16=1,17=2,28=-2,42=3,76=2/2,10,12;
 6/7=2,8=2,9=2,10=2/1;
 7/8=11,10=1,12=2,25=1,44=2/1,2,3,16;
 1/10=4,30=1/3;
 99//99;
 Structure from the checkpoint file:  "Ethylene.chk"
 ----------------------------
 Ethylene C2H4 - size2to5_D2h
 ----------------------------
 Charge =  0 Multiplicity = 1
 Redundant internal coordinates found in file.  (old form).
 C,0,-1.5099078787,-1.6941347169,-1.9140775882
 C,0,-1.2788418713,-0.6876542831,-2.7693794118
 H,0,-0.7625532267,-2.0204553916,-1.1974154874
 H,0,-2.4548476304,-2.2284578865,-1.8993690389
 H,0,-2.0261965233,-0.3613336084,-3.4860415126
 H,0,-0.3339021196,-0.1533311135,-2.7840879611
 Recover connectivity data from disk.

 GradGradGradGradGradGradGradGradGradGradGradGradGradGradGradGradGradGrad
 Berny optimization.
 Initialization pass.
                           ----------------------------
                           !    Initial Parameters    !
                           ! (Angstroms and Degrees)  !
 --------------------------                            --------------------------
 ! Name  Definition              Value          Derivative Info.                !
 --------------------------------------------------------------------------------
 ! R1    R(1,2)                  1.3409         calculate D2E/DX2 analytically  !
 ! R2    R(1,3)                  1.0856         calculate D2E/DX2 analytically  !
 ! R3    R(1,4)                  1.0856         calculate D2E/DX2 analytically  !
 ! R4    R(2,5)                  1.0856         calculate D2E/DX2 analytically  !
 ! R5    R(2,6)                  1.0856         calculate D2E/DX2 analytically  !
 ! A1    A(2,1,3)              121.8748         calculate D2E/DX2 analytically  !
 ! A2    A(2,1,4)              121.8748         calculate D2E/DX2 analytically  !
 ! A3    A(3,1,4)              116.2505         calculate D2E/DX2 analytically  !
 ! A4    A(1,2,5)              121.8748         calculate D2E/DX2 analytically  !
 ! A5    A(1,2,6)              121.8748         calculate D2E/DX2 analytically  !
 ! A6    A(5,2,6)              116.2505         calculate D2E/DX2 analytically  !
 ! D1    D(3,1,2,5)            180.0            calculate D2E/DX2 analytically  !
 ! D2    D(3,1,2,6)              0.0            calculate D2E/DX2 analytically  !
 ! D3    D(4,1,2,5)              0.0            calculate D2E/DX2 analytically  !
 ! D4    D(4,1,2,6)            180.0            calculate D2E/DX2 analytically  !
 --------------------------------------------------------------------------------
 Trust Radius=3.00D-01 FncErr=1.00D-07 GrdErr=1.00D-07 EigMax=2.50D+02 EigMin=1.00D-04
 Number of steps in this run=      2 maximum allowed number of steps=      2.
 GradGradGradGradGradGradGradGradGradGradGradGradGradGradGradGradGradGrad

                          Input orientation:                          
 ---------------------------------------------------------------------
 Center     Atomic      Atomic             Coordinates (Angstroms)
 Number     Number       Type             X           Y           Z
 ---------------------------------------------------------------------
      1          6           0       -1.509908   -1.694135   -1.914078
      2          6           0       -1.278842   -0.687654   -2.769379
      3          1           0       -0.762553   -2.020455   -1.197415
      4          1           0       -2.454848   -2.228458   -1.899369
      5          1           0       -2.026197   -0.361334   -3.486042
      6          1           0       -0.333902   -0.153331   -2.784088
 ---------------------------------------------------------------------
                    Distance matrix (angstroms):
                    1          2          3          4          5
     1  C    0.000000
     2  C    1.340871   0.000000
     3  H    1.085647   2.124614   0.000000
     4  H    1.085647   2.124614   1.843872   0.000000
     5  H    2.124614   1.085647   3.096335   2.487453   0.000000
     6  H    2.124614   1.085647   2.487453   3.096335   1.843872
                    6
     6  H    0.000000
 Stoichiometry    C2H4
 Framework group  D2H[C2"(C.C),SG(H4)]
 Deg. of freedom     3
 Full point group                 D2H     NOp   8
 Largest Abelian subgroup         D2H     NOp   8
 Largest concise Abelian subgroup D2      NOp   4
                         Standard orientation:                         
 ---------------------------------------------------------------------
 Center     Atomic      Atomic             Coordinates (Angstroms)
 Number     Number       Type             X           Y           Z
 ---------------------------------------------------------------------
      1          6           0       -0.000000    0.000000    0.670436
      2          6           0        0.000000    0.000000   -0.670436
      3          1           0       -0.000000    0.921936    1.243727
      4          1           0        0.000000   -0.921936    1.243727
      5          1           0       -0.000000   -0.921936   -1.243727
      6          1           0        0.000000    0.921936   -1.243727
 ---------------------------------------------------------------------
 Rotational constants (GHZ):         147.4926875          29.6872180          24.7130032
 Standard basis: 3-21G (6D, 7F)
 There are     7 symmetry adapted cartesian basis functions of AG  symmetry.
 There are     0 symmetry adapted cartesian basis functions of B1G symmetry.
 There are     2 symmetry adapted cartesian basis functions of B2G symmetry.
 There are     4 symmetry adapted cartesian basis functions of B3G symmetry.
 There are     0 symmetry adapted cartesian basis functions of AU  symmetry.
 There are     7 symmetry adapted cartesian basis functions of B1U symmetry.
 There are     4 symmetry adapted cartesian basis functions of B2U symmetry.
 There are     2 symmetry adapted cartesian basis functions of B3U symmetry.
 There are     7 symmetry adapted basis functions of AG  symmetry.
 There are     0 symmetry adapted basis functions of B1G symmetry.
 There are     2 symmetry adapted basis functions of B2G symmetry.
 There are     4 symmetry adapted basis functions of B3G symmetry.
 There are     0 symmetry adapted basis functions of AU  symmetry.
 There are     7 symmetry adapted basis functions of B1U symmetry.
 There are     4 symmetry adapted basis functions of B2U symmetry.
 There are     2 symmetry adapted basis functions of B3U symmetry.
    26 basis functions,    42 primitive gaussians,    26 cartesian basis functions
     8 alpha electrons        8 beta electrons
       nuclear repulsion energy        33.2247410961 Hartrees.
 NAtoms=    6 NActive=    6 NUniq=    2 SFac= 4.00D+00 NAtFMM=   60 NAOKFM=F Big=F
 Integral buffers will be    131072 words long.
 Raffenetti 1 integral format.
 Two-electron integral symmetry is turned on.
 One-electron integrals computed using PRISM.
 NBasis=    26 RedAO= T EigKep=  1.67D-02  NBF=     7     0     2     4     0     7     4     2
 NBsUse=    26 1.00D-06 EigRej= -1.00D+00 NBFU=     7     0     2     4     0     7     4     2
 Initial guess from the checkpoint file:  "Ethylene.chk"
 B after Tr=    -0.000000   -0.000000   -0.000000
         Rot=    1.000000   -0.000000   -0.000000   -0.000000 Ang=   0.00 deg.
 Initial guess orbital symmetries:
       Occupied  (B1U) (AG) (AG) (B1U) (B2U) (AG) (B3G) (B3U)
       Virtual   (B2G) (AG) (B2U) (B1U) (B3G) (B1U) (AG) (B2U)
                 (B3U) (B2G) (B1U) (AG) (B3G) (B2U) (B1U) (B3G)
                 (AG) (B1U)
 Keep R1 ints in memory in symmetry-blocked form, NReq=1672981.
 Requested convergence on RMS density matrix=1.00D-08 within 128 cycles.
 Requested convergence on MAX density matrix=1.00D-06.
 Requested convergence on             energy=1.00D-06.
 No special actions if energy rises.
 SCF Done:  E(RHF) =  -77.5997056322     A.U. after    1 cycles
            NFock=  1  Conv=0.23D-09     -V/T= 2.0042
 ExpMin= 1.83D-01 ExpMax= 1.72D+02 ExpMxC= 1.72D+02 IAcc=3 IRadAn=         5 AccDes= 0.00D+00
 HarFok:  IExCor=  205 AccDes= 0.00D+00 IRadAn=         5 IDoV=-2 UseB2=F ITyADJ=14
 ICtDFT= 12500011 ScaDFX=  1.000000  1.000000  1.000000  1.000000
 Range of M.O.s used for correlation:     3    26
 NBasis=    26 NAE=     8 NBE=     8 NFC=     2 NFV=     0
 NROrb=     24 NOA=     6 NOB=     6 NVA=    18 NVB=    18
 Disk-based method using ON**2 memory for  6 occupieds at a time.
 Permanent disk used for amplitudes=       25020 words.
 Estimated scratch disk usage=      832252 words.
 Actual    scratch disk usage=      832252 words.
 JobTyp=1 Pass  1:  I=   3 to   8 NPSUse=  8 ParTrn=T ParDer=T DoDerP=T.
 (rs|ai) integrals will be sorted in core.
 Spin components of T(2) and E(2):
     alpha-alpha T2 =       0.7158899997D-02 E2=     -0.1843608959D-01
     alpha-beta  T2 =       0.5942972085D-01 E2=     -0.1447360850D+00
     beta-beta   T2 =       0.7158899997D-02 E2=     -0.1843608959D-01
 ANorm=    0.1036217893D+01
 E2 =    -0.1816082642D+00 EUMP2 =    -0.77781313896423D+02
 G2DrvN: will do     7 centers at a time, making    1 passes.
 Calling FoFCou, ICntrl=  3107 FMM=F I1Cent=   0 AccDes= 0.00D+00.
 End of G2Drv F.D. properties file   721 does not exist.
 End of G2Drv F.D. properties file   722 does not exist.
 End of G2Drv F.D. properties file   788 does not exist.
          IDoAtm=111111
          Differentiating once with respect to electric field.
                with respect to dipole field.
          Differentiating once with respect to nuclear coordinates.
 Keep R1 ints in memory in symmetry-blocked form, NReq=1673647.
          There are    21 degrees of freedom in the 1st order CPHF.  IDoFFX=6 NUNeed=    21.
     18 vectors produced by pass  0 Test12= 6.86D-16 4.76D-09 XBig12= 9.61D+00 2.52D+00.
 AX will form    18 AO Fock derivatives at one time.
     18 vectors produced by pass  1 Test12= 6.86D-16 4.76D-09 XBig12= 2.62D-01 2.41D-01.
     18 vectors produced by pass  2 Test12= 6.86D-16 4.76D-09 XBig12= 2.43D-03 2.30D-02.
     18 vectors produced by pass  3 Test12= 6.86D-16 4.76D-09 XBig12= 1.43D-05 1.51D-03.
     18 vectors produced by pass  4 Test12= 6.86D-16 4.76D-09 XBig12= 7.33D-08 1.01D-04.
     15 vectors produced by pass  5 Test12= 6.86D-16 4.76D-09 XBig12= 1.01D-10 4.25D-06.
      3 vectors produced by pass  6 Test12= 6.86D-16 4.76D-09 XBig12= 1.37D-13 1.36D-07.
      1 vectors produced by pass  7 Test12= 6.86D-16 4.76D-09 XBig12= 4.33D-16 9.45D-09.
 InvSVY:  IOpt=1 It=  1 EMax= 5.36D-16
 Solved reduced A of dimension   109 with    21 vectors.
 End of Minotr F.D. properties file   721 does not exist.
 End of Minotr F.D. properties file   722 does not exist.
 End of Minotr F.D. properties file   788 does not exist.
 MDV=  1073741824.
 Form MO integral derivatives with frozen-active canonical formalism.
 Discarding MO integrals.
 Reordered first order wavefunction length =        41472
 In DefCFB: NBatch=  1 ICI=  8 ICA= 18 LFMax= 18
            Large arrays: LIAPS=      389376 LIARS=      235872 words.
 Semi-Direct transformation.
 ModeAB=           4 MOrb=             8 LenV=    1073609640
 LASXX=        51490 LTotXX=       51490 LenRXX=      109486
 LTotAB=       57996 MaxLAS=       33696 LenRXY=           0
 NonZer=      160976 LenScr=      785920 LnRSAI=       33696
 LnScr1=      785920 LExtra=           0 Total=      1715022
 MaxDsk=          -1 SrtSym=           T ITran=            4
 JobTyp=0 Pass  1:  I=   1 to   8.
 (rs|ai) integrals will be sorted in core.
 Spin components of T(2) and E(2):
     alpha-alpha T2 =       0.7158899997D-02 E2=     -0.1843608959D-01
     alpha-beta  T2 =       0.5942972085D-01 E2=     -0.1447360850D+00
     beta-beta   T2 =       0.7158899997D-02 E2=     -0.1843608959D-01
 ANorm=    0.1465433397D+01
 E2 =    -0.1816082642D+00 EUMP2 =    -0.77781313896423D+02
          IDoAtm=111111
          Differentiating once with respect to electric field.
                with respect to dipole field.
          Differentiating once with respect to nuclear coordinates.
          There are     1 degrees of freedom in the 1st order CPHF.  IDoFFX=0 NUNeed=     1.
 LinEq1:  Iter=  0 NonCon=     1 RMS=7.55D-03 Max=7.67D-02 NDo=     1
 LinEq1:  Iter=  1 NonCon=     1 RMS=2.38D-03 Max=1.53D-02 NDo=     1
 LinEq1:  Iter=  2 NonCon=     1 RMS=1.99D-04 Max=1.43D-03 NDo=     1
 LinEq1:  Iter=  3 NonCon=     1 RMS=1.27D-05 Max=8.18D-05 NDo=     1
 LinEq1:  Iter=  4 NonCon=     1 RMS=8.40D-07 Max=4.85D-06 NDo=     1
 LinEq1:  Iter=  5 NonCon=     1 RMS=4.68D-08 Max=2.42D-07 NDo=     1
 LinEq1:  Iter=  6 NonCon=     1 RMS=2.60D-09 Max=1.34D-08 NDo=     1
 LinEq1:  Iter=  7 NonCon=     1 RMS=1.28D-10 Max=7.26D-10 NDo=     1
 LinEq1:  Iter=  8 NonCon=     0 RMS=1.17D-11 Max=6.41D-11 NDo=     1
 Linear equations converged to 1.000D-10 1.000D-09 after     8 iterations.
 End of Minotr F.D. properties file   721 does not exist.
 End of Minotr F.D. properties file   722 does not exist.
 End of Minotr F.D. properties file   788 does not exist.
 Symmetrizing basis deriv contribution to polar:
 IMax=3 JMax=2 DiffMx= 0.00D+00
 G2DrvN: will do     7 centers at a time, making    1 passes.
 Calling FoFCou, ICntrl=  3107 FMM=F I1Cent=   0 AccDes= 0.00D+00.
 End of G2Drv F.D. properties file   721 does not exist.
 End of G2Drv F.D. properties file   722 does not exist.
 End of G2Drv F.D. properties file   788 does not exist.
 R2 and R3 integrals will be kept in memory, NReq=      923552.
 DD1Dir will call FoFMem   1 times, MxPair=        72
 NAB=    36 NAA=     0 NBB=     0.
 Discarding MO integrals.

 **********************************************************************

            Population analysis using the SCF Density.

 **********************************************************************

 Orbital symmetries:
       Occupied  (B1U) (AG) (AG) (B1U) (B2U) (AG) (B3G) (B3U)
       Virtual   (B2G) (AG) (B2U) (B1U) (B3G) (B1U) (AG) (B2U)
                 (B3U) (B2G) (B1U) (AG) (B3G) (B2U) (B1U) (B3G)
                 (AG) (B1U)
 The electronic state is 1-AG.
 Alpha  occ. eigenvalues --  -11.17341 -11.17339  -1.02845  -0.78706  -0.63970
 Alpha  occ. eigenvalues --   -0.58474  -0.49937  -0.37407
 Alpha virt. eigenvalues --    0.17991   0.29538   0.31002   0.33658   0.43510
 Alpha virt. eigenvalues --    0.53619   0.88784   0.92599   0.99351   1.07509
 Alpha virt. eigenvalues --    1.09593   1.12550   1.31208   1.35144   1.39110
 Alpha virt. eigenvalues --    1.63180   1.65744   1.95764
          Condensed to atoms (all electrons):
               1          2          3          4          5          6
     1  C    5.204529   0.530819   0.391153   0.391153  -0.046650  -0.046650
     2  C    0.530819   5.204529  -0.046650  -0.046650   0.391153   0.391153
     3  H    0.391153  -0.046650   0.465642  -0.022382   0.001993  -0.001933
     4  H    0.391153  -0.046650  -0.022382   0.465642  -0.001933   0.001993
     5  H   -0.046650   0.391153   0.001993  -0.001933   0.465642  -0.022382
     6  H   -0.046650   0.391153  -0.001933   0.001993  -0.022382   0.465642
 Mulliken charges:
               1
     1  C   -0.424354
     2  C   -0.424354
     3  H    0.212177
     4  H    0.212177
     5  H    0.212177
     6  H    0.212177
 Sum of Mulliken charges =   0.00000
 Mulliken charges with hydrogens summed into heavy atoms:
               1
     1  C    0.000000
     2  C    0.000000
 APT charges:
               1
     1  C   -0.063205
     2  C   -0.063205
     3  H    0.031602
     4  H    0.031602
     5  H    0.031602
     6  H    0.031602
 Sum of APT charges =   0.00000
 APT charges with hydrogens summed into heavy atoms:
               1
     1  C   -0.000000
     2  C    0.000000
 Electronic spatial extent (au):  <R**2>=             83.3759
 Charge=              0.0000 electrons
 Dipole moment (field-independent basis, Debye):
    X=             -0.0000    Y=             -0.0000    Z=              0.0000  Tot=              0.0000
 Quadrupole moment (field-independent basis, Debye-Ang):
   XX=            -15.7675   YY=            -12.3505   ZZ=            -12.0682
   XY=              0.0000   XZ=              0.0000   YZ=             -0.0000
 Traceless Quadrupole moment (field-independent basis, Debye-Ang):
   XX=             -2.3721   YY=              1.0449   ZZ=              1.3272
   XY=              0.0000   XZ=              0.0000   YZ=             -0.0000
 Octapole moment (field-independent basis, Debye-Ang**2):
  XXX=             -0.0000  YYY=             -0.0000  ZZZ=              0.0000  XYY=             -0.0000
  XXY=             -0.0000  XXZ=              0.0000  XZZ=             -0.0000  YZZ=             -0.0000
  YYZ=              0.0000  XYZ=             -0.0000
 Hexadecapole moment (field-independent basis, Debye-Ang**3):
 XXXX=            -16.5544 YYYY=            -25.1716 ZZZZ=            -66.1956 XXXY=             -0.0000
 XXXZ=              0.0000 YYYX=             -0.0000 YYYZ=             -0.0000 ZZZX=              0.0000
 ZZZY=             -0.0000 XXYY=             -7.6101 XXZZ=            -15.0380 YYZZ=            -12.4630
 XXYZ=             -0.0000 YYXZ=              0.0000 ZZXY=              0.0000
 N-N= 3.322474109611D+01 E-N=-2.464016833724D+02  KE= 7.727317233985D+01
 Symmetry AG   KE= 3.724109679395D+01
 Symmetry B1G  KE= 0.000000000000D+00
 Symmetry B2G  KE= 3.844132936694D-31
 Symmetry B3G  KE= 2.056684138598D+00
 Symmetry AU   KE= 0.000000000000D+00
 Symmetry B1U  KE= 3.421391353885D+01
 Symmetry B2U  KE= 1.828328026710D+00
 Symmetry B3U  KE= 1.933149841740D+00
  Exact polarizability:       5.876       0.000      19.046      -0.000      -0.000      27.532
 Approx polarizability:       5.018       0.000      15.186      -0.000       0.000      26.854
 Calling FoFJK, ICntrl=  10100127 FMM=F ISym2X=1 I1Cent= 0 IOpClX= 0 NMat=1 NMatS=1 NMatT=0.
 Full mass-weighted force constant matrix:
 Low frequencies ---   -1.7715   -0.0009   -0.0008   -0.0008    0.8543    4.4647
 Low frequencies ---  893.1411  980.6391 1005.2585
 Diagonal vibrational polarizability:
        2.7721492       0.1268075       0.0827561
 Harmonic frequencies (cm**-1), IR intensities (KM/Mole), Raman scattering
 activities (A**4/AMU), depolarization ratios for plane and unpolarized
 incident light, reduced masses (AMU), force constants (mDyne/A),
 and normal coordinates:
                           1         2         3         4         5
                          B2U       B2G       B3U       AU        B3G
       Frequencies ---   893.1411  980.6391 1005.2585 1091.8923 1304.7454
    Reduced masses ---     1.0439    1.5168    1.1607    1.0078    1.5242
   Force constants ---     0.4906    0.8594    0.6911    0.7079    1.5288
    IR Intensities ---     1.8040    0.0000  104.0972    0.0000    0.0000
 Coord Atom Element:
   1     1     6         -0.00000   0.15215  -0.08340  -0.00000   0.00000
   2     1     6          0.04052   0.00000   0.00000   0.00000   0.15326
   3     1     6          0.00000  -0.00000  -0.00000  -0.00000  -0.00000
   1     2     6          0.00000  -0.15215  -0.08340   0.00000   0.00000
   2     2     6          0.04052  -0.00000  -0.00000  -0.00000  -0.15326
   3     2     6         -0.00000   0.00000  -0.00000   0.00000   0.00000
   1     3     1          0.00000  -0.48829   0.49651   0.50000  -0.00000
   2     3     1         -0.24122   0.00000  -0.00000  -0.00000  -0.14676
   3     3     1          0.43703   0.00000  -0.00000  -0.00000   0.46553
   1     4     1         -0.00000  -0.48829   0.49651  -0.50000   0.00000
   2     4     1         -0.24122  -0.00000  -0.00000   0.00000  -0.14676
   3     4     1         -0.43703  -0.00000  -0.00000  -0.00000  -0.46553
   1     5     1          0.00000   0.48829   0.49651   0.50000  -0.00000
   2     5     1         -0.24122   0.00000   0.00000   0.00000   0.14676
   3     5     1          0.43703   0.00000   0.00000   0.00000  -0.46553
   1     6     1         -0.00000   0.48829   0.49651  -0.50000  -0.00000
   2     6     1         -0.24122   0.00000   0.00000   0.00000   0.14676
   3     6     1         -0.43703   0.00000   0.00000   0.00000   0.46553
                           6         7         8         9        10
                          AG        B1U       AG        B1U       AG
       Frequencies ---  1434.0945 1572.0867 1694.0731 3174.2537 3193.2764
    Reduced masses ---     1.4984    1.1112    2.1376    1.0484    1.0723
   Force constants ---     1.8156    1.6181    3.6144    6.2237    6.4422
    IR Intensities ---     0.0000    4.5672    0.0000   12.3648    0.0000
 Coord Atom Element:
   1     1     6          0.00000   0.00000   0.00000  -0.00000  -0.00000
   2     1     6          0.00000   0.00000  -0.00000  -0.00000  -0.00000
   3     1     6          0.14938  -0.06858   0.22669  -0.04295  -0.05415
   1     2     6         -0.00000   0.00000  -0.00000   0.00000  -0.00000
   2     2     6         -0.00000   0.00000   0.00000   0.00000  -0.00000
   3     2     6         -0.14938  -0.06858  -0.22669  -0.04295   0.05415
   1     3     1          0.00000  -0.00000  -0.00000  -0.00000   0.00000
   2     3     1         -0.16282  -0.28448   0.35684   0.42861   0.42795
   3     3     1          0.46080   0.40831  -0.31140   0.25568   0.25572
   1     4     1         -0.00000  -0.00000  -0.00000   0.00000  -0.00000
   2     4     1          0.16282   0.28448  -0.35684  -0.42861  -0.42795
   3     4     1          0.46080   0.40831  -0.31140   0.25568   0.25572
   1     5     1          0.00000  -0.00000   0.00000  -0.00000   0.00000
   2     5     1          0.16282  -0.28448  -0.35684   0.42861  -0.42795
   3     5     1         -0.46080   0.40831   0.31140   0.25568  -0.25572
   1     6     1          0.00000  -0.00000   0.00000   0.00000  -0.00000
   2     6     1         -0.16282   0.28448   0.35684  -0.42861   0.42795
   3     6     1         -0.46080   0.40831   0.31140   0.25568  -0.25572
                          11        12
                          B3G       B2U
       Frequencies ---  3249.5174 3278.9852
    Reduced masses ---     1.1124    1.1163
   Force constants ---     6.9208    7.0714
    IR Intensities ---     0.0000   26.3483
 Coord Atom Element:
   1     1     6         -0.00000  -0.00000
   2     1     6         -0.06897  -0.07024
   3     1     6          0.00000   0.00000
   1     2     6         -0.00000   0.00000
   2     2     6          0.06897  -0.07024
   3     2     6          0.00000  -0.00000
   1     3     1          0.00000   0.00000
   2     3     1          0.41962   0.41817
   3     3     1          0.26747   0.26958
   1     4     1          0.00000   0.00000
   2     4     1          0.41962   0.41817
   3     4     1         -0.26747  -0.26958
   1     5     1          0.00000  -0.00000
   2     5     1         -0.41962   0.41817
   3     5     1         -0.26747   0.26958
   1     6     1          0.00000  -0.00000
   2     6     1         -0.41962   0.41817
   3     6     1          0.26747  -0.26958
 Harmonic frequencies (cm**-1), IR intensities (KM/Mole), Raman scattering
 activities (A**4/AMU), depolarization ratios for plane and unpolarized
 incident light, reduced masses (AMU), force constants (mDyne/A),
 and normal coordinates:
                      1                      2                      3
                     B2U                    B2G                    B3U
 Frequencies --    893.1411               980.6391              1005.2585
 Red. masses --      1.0439                 1.5168                 1.1607
 Frc consts  --      0.4906                 0.8594                 0.6911
 IR Inten    --      1.8040                 0.0000               104.0972
  Atom  AN      X      Y      Z        X      Y      Z        X      Y      Z
     1   6    -0.00   0.04   0.00     0.15   0.00  -0.00    -0.08   0.00  -0.00
     2   6     0.00   0.04  -0.00    -0.15  -0.00   0.00    -0.08  -0.00  -0.00
     3   1     0.00  -0.24   0.44    -0.49   0.00   0.00     0.50  -0.00  -0.00
     4   1    -0.00  -0.24  -0.44    -0.49  -0.00  -0.00     0.50  -0.00  -0.00
     5   1     0.00  -0.24   0.44     0.49   0.00   0.00     0.50   0.00   0.00
     6   1    -0.00  -0.24  -0.44     0.49   0.00   0.00     0.50   0.00   0.00
                      4                      5                      6
                     AU                     B3G                    AG
 Frequencies --   1091.8923              1304.7454              1434.0945
 Red. masses --      1.0078                 1.5242                 1.4984
 Frc consts  --      0.7079                 1.5288                 1.8156
 IR Inten    --      0.0000                 0.0000                 0.0000
  Atom  AN      X      Y      Z        X      Y      Z        X      Y      Z
     1   6    -0.00   0.00  -0.00     0.00   0.15  -0.00     0.00   0.00   0.15
     2   6     0.00  -0.00   0.00     0.00  -0.15   0.00    -0.00  -0.00  -0.15
     3   1     0.50  -0.00  -0.00    -0.00  -0.15   0.47     0.00  -0.16   0.46
     4   1    -0.50   0.00  -0.00     0.00  -0.15  -0.47    -0.00   0.16   0.46
     5   1     0.50   0.00   0.00    -0.00   0.15  -0.47     0.00   0.16  -0.46
     6   1    -0.50   0.00   0.00    -0.00   0.15   0.47     0.00  -0.16  -0.46
                      7                      8                      9
                     B1U                    AG                     B1U
 Frequencies --   1572.0867              1694.0731              3174.2537
 Red. masses --      1.1112                 2.1376                 1.0484
 Frc consts  --      1.6181                 3.6144                 6.2237
 IR Inten    --      4.5672                 0.0000                12.3648
  Atom  AN      X      Y      Z        X      Y      Z        X      Y      Z
     1   6     0.00   0.00  -0.07     0.00  -0.00   0.23    -0.00  -0.00  -0.04
     2   6     0.00   0.00  -0.07    -0.00   0.00  -0.23     0.00   0.00  -0.04
     3   1    -0.00  -0.28   0.41    -0.00   0.36  -0.31    -0.00   0.43   0.26
     4   1    -0.00   0.28   0.41    -0.00  -0.36  -0.31     0.00  -0.43   0.26
     5   1    -0.00  -0.28   0.41     0.00  -0.36   0.31    -0.00   0.43   0.26
     6   1    -0.00   0.28   0.41     0.00   0.36   0.31     0.00  -0.43   0.26
                     10                     11                     12
                     AG                     B3G                    B2U
 Frequencies --   3193.2764              3249.5174              3278.9852
 Red. masses --      1.0723                 1.1124                 1.1163
 Frc consts  --      6.4422                 6.9208                 7.0714
 IR Inten    --      0.0000                 0.0000                26.3483
  Atom  AN      X      Y      Z        X      Y      Z        X      Y      Z
     1   6    -0.00  -0.00  -0.05    -0.00  -0.07   0.00    -0.00  -0.07   0.00
     2   6    -0.00  -0.00   0.05    -0.00   0.07   0.00     0.00  -0.07  -0.00
     3   1     0.00   0.43   0.26     0.00   0.42   0.27     0.00   0.42   0.27
     4   1    -0.00  -0.43   0.26     0.00   0.42  -0.27     0.00   0.42  -0.27
     5   1     0.00  -0.43  -0.26     0.00  -0.42  -0.27    -0.00   0.42   0.27
     6   1    -0.00   0.43  -0.26     0.00  -0.42   0.27    -0.00   0.42  -0.27

 -------------------
 - Thermochemistry -
 -------------------
 Temperature   298.150 Kelvin.  Pressure   1.00000 Atm.
 Atom     1 has atomic number  6 and mass  12.00000
 Atom     2 has atomic number  6 and mass  12.00000
 Atom     3 has atomic number  1 and mass   1.00783
 Atom     4 has atomic number  1 and mass   1.00783
 Atom     5 has atomic number  1 and mass   1.00783
 Atom     6 has atomic number  1 and mass   1.00783
 Molecular mass:    28.03130 amu.
 Principal axes and moments of inertia in atomic units:
                           1         2         3
     Eigenvalues --    12.23614  60.79186  73.02800
           X           -0.00000  -0.00000   1.00000
           Y            0.00000   1.00000   0.00000
           Z            1.00000  -0.00000   0.00000
 This molecule is an asymmetric top.
 Rotational symmetry number  4.
 Rotational temperatures (Kelvin)      7.07853     1.42476     1.18604
 Rotational constants (GHZ):         147.49269    29.68722    24.71300
 Zero-point vibrational energy     136804.7 (Joules/Mol)
                                   32.69711 (Kcal/Mol)
 Vibrational temperatures:   1285.03  1410.92  1446.34  1570.99  1877.24
          (Kelvin)           2063.34  2261.88  2437.39  4567.04  4594.41
                             4675.33  4717.73
 
 Zero-point correction=                           0.052106 (Hartree/Particle)
 Thermal correction to Energy=                    0.055119
 Thermal correction to Enthalpy=                  0.056063
 Thermal correction to Gibbs Free Energy=         0.031230
 Sum of electronic and zero-point Energies=            -77.729208
 Sum of electronic and thermal Energies=               -77.726195
 Sum of electronic and thermal Enthalpies=             -77.725251
 Sum of electronic and thermal Free Energies=          -77.750083
 
                     E (Thermal)             CV                S
                      KCal/Mol        Cal/Mol-Kelvin    Cal/Mol-Kelvin
 Total                   34.588              7.864             52.265
 Electronic               0.000              0.000              0.000
 Translational            0.889              2.981             35.927
 Rotational               0.889              2.981             15.881
 Vibrational             32.810              1.903              0.457
                       Q            Log10(Q)             Ln(Q)
 Total Bot       0.431501D-14        -14.365018        -33.076676
 Total V=0       0.400068D+10          9.602134         22.109730
 Vib (Bot)       0.112147D-23        -23.950212        -55.147401
 Vib (V=0)       0.103978D+01          0.016940          0.039005
 Electronic      0.100000D+01          0.000000          0.000000
 Translational   0.583336D+07          6.765919         15.579104
 Rotational      0.659592D+03          2.819275          6.491621
 ***** Axes restored to original set *****
 -------------------------------------------------------------------
 Center     Atomic                   Forces (Hartrees/Bohr)
 Number     Number              X              Y              Z
 -------------------------------------------------------------------
      1        6          -0.000001016   -0.000004428    0.000003763
      2        6           0.000001016    0.000004428   -0.000003763
      3        1          -0.000001075    0.000000468   -0.000001029
      4        1           0.000001358    0.000000767   -0.000000020
      5        1           0.000001075   -0.000000468    0.000001029
      6        1          -0.000001358   -0.000000767    0.000000020
 -------------------------------------------------------------------
 Cartesian Forces:  Max     0.000004428 RMS     0.000002099
 FormGI is forming the generalized inverse of G from B-inverse, IUseBI=4.

 GradGradGradGradGradGradGradGradGradGradGradGradGradGradGradGradGradGrad
 Berny optimization.
 Internal  Forces:  Max     0.000004254 RMS     0.000001362
 Search for a local minimum.
 Step number   1 out of a maximum of    2
 All quantities printed in internal units (Hartrees-Bohrs-Radians)
 Second derivative matrix not updated -- analytic derivatives used.
 The second derivative matrix:
                          R1        R2        R3        R4        R5
           R1           0.61365
           R2           0.00553   0.36704
           R3           0.00553   0.00183   0.36704
           R4           0.00553  -0.00032   0.00102   0.36704
           R5           0.00553   0.00102  -0.00032   0.00183   0.36704
           A1           0.01361   0.00754  -0.01438   0.00368  -0.00286
           A2           0.01361  -0.01438   0.00754  -0.00286   0.00368
           A3          -0.02721   0.00684   0.00684  -0.00082  -0.00082
           A4           0.01361   0.00368  -0.00286   0.00754  -0.01438
           A5           0.01361  -0.00286   0.00368  -0.01438   0.00754
           A6          -0.02721  -0.00082  -0.00082   0.00684   0.00684
           D1          -0.00000  -0.00000  -0.00000  -0.00000   0.00000
           D2           0.00000  -0.00000  -0.00000  -0.00000  -0.00000
           D3          -0.00000  -0.00000   0.00000  -0.00000  -0.00000
           D4          -0.00000   0.00000   0.00000   0.00000  -0.00000
                          A1        A2        A3        A4        A5
           A1           0.09174
           A2          -0.05080   0.09174
           A3          -0.04095  -0.04095   0.08189
           A4           0.01032  -0.00893  -0.00139   0.09174
           A5          -0.00893   0.01032  -0.00139  -0.05080   0.09174
           A6          -0.00139  -0.00139   0.00278  -0.04095  -0.04095
           D1          -0.00000   0.00000   0.00000  -0.00000   0.00000
           D2          -0.00000   0.00000   0.00000   0.00000  -0.00000
           D3           0.00000  -0.00000   0.00000  -0.00000   0.00000
           D4           0.00000  -0.00000   0.00000   0.00000  -0.00000
                          A6        D1        D2        D3        D4
           A6           0.08189
           D1           0.00000   0.03367
           D2          -0.00000   0.00863   0.02626
           D3           0.00000   0.00863  -0.00901   0.02626
           D4          -0.00000  -0.01641   0.00863   0.00863   0.03367
 ITU=  0
     Eigenvalues ---    0.03450   0.03527   0.05008   0.11796   0.12196
     Eigenvalues ---    0.12233   0.15784   0.36752   0.36780   0.36887
     Eigenvalues ---    0.36969   0.61858
 Angle between quadratic step and forces=  21.48 degrees.
 Linear search not attempted -- first point.
 Iteration  1 RMS(Cart)=  0.00000193 RMS(Int)=  0.00000000
 Iteration  2 RMS(Cart)=  0.00000000 RMS(Int)=  0.00000001
 ClnCor:  largest displacement from symmetrization is 5.41D-09 for atom     6.
 Variable       Old X    -DE/DX   Delta X   Delta X   Delta X     New X
                                 (Linear)    (Quad)   (Total)
    R1        2.53388   0.00000   0.00000   0.00001   0.00001   2.53389
    R2        2.05157  -0.00000   0.00000  -0.00000  -0.00000   2.05157
    R3        2.05157  -0.00000   0.00000  -0.00000  -0.00000   2.05157
    R4        2.05157  -0.00000   0.00000  -0.00000  -0.00000   2.05157
    R5        2.05157  -0.00000   0.00000  -0.00000  -0.00000   2.05157
    A1        2.12712   0.00000   0.00000  -0.00000  -0.00000   2.12711
    A2        2.12712   0.00000   0.00000  -0.00000  -0.00000   2.12711
    A3        2.02895  -0.00000   0.00000   0.00000   0.00000   2.02896
    A4        2.12712   0.00000   0.00000  -0.00000  -0.00000   2.12711
    A5        2.12712   0.00000   0.00000  -0.00000  -0.00000   2.12711
    A6        2.02895  -0.00000   0.00000   0.00000   0.00000   2.02896
    D1        3.14159  -0.00000   0.00000  -0.00000   0.00000  -3.14159
    D2        0.00000  -0.00000   0.00000  -0.00000   0.00000   0.00000
    D3        0.00000  -0.00000   0.00000  -0.00000   0.00000   0.00000
    D4        3.14159  -0.00000   0.00000  -0.00000   0.00000   3.14159
         Item               Value     Threshold  Converged?
 Maximum Force            0.000004     0.000450     YES
 RMS     Force            0.000001     0.000300     YES
 Maximum Displacement     0.000003     0.001800     YES
 RMS     Displacement     0.000002     0.001200     YES
 Predicted change in Energy=-2.929108D-11
 Optimization completed.
    -- Stationary point found.
                           ----------------------------
                           !   Optimized Parameters   !
                           ! (Angstroms and Degrees)  !
 --------------------------                            --------------------------
 ! Name  Definition              Value          Derivative Info.                !
 --------------------------------------------------------------------------------
 ! R1    R(1,2)                  1.3409         -DE/DX =    0.0                 !
 ! R2    R(1,3)                  1.0856         -DE/DX =    0.0                 !
 ! R3    R(1,4)                  1.0856         -DE/DX =    0.0                 !
 ! R4    R(2,5)                  1.0856         -DE/DX =    0.0                 !
 ! R5    R(2,6)                  1.0856         -DE/DX =    0.0                 !
 ! A1    A(2,1,3)              121.8748         -DE/DX =    0.0                 !
 ! A2    A(2,1,4)              121.8748         -DE/DX =    0.0                 !
 ! A3    A(3,1,4)              116.2505         -DE/DX =    0.0                 !
 ! A4    A(1,2,5)              121.8748         -DE/DX =    0.0                 !
 ! A5    A(1,2,6)              121.8748         -DE/DX =    0.0                 !
 ! A6    A(5,2,6)              116.2505         -DE/DX =    0.0                 !
 ! D1    D(3,1,2,5)           -180.0            -DE/DX =    0.0                 !
 ! D2    D(3,1,2,6)              0.0            -DE/DX =    0.0                 !
 ! D3    D(4,1,2,5)              0.0            -DE/DX =    0.0                 !
 ! D4    D(4,1,2,6)            180.0            -DE/DX =    0.0                 !
 --------------------------------------------------------------------------------
 GradGradGradGradGradGradGradGradGradGradGradGradGradGradGradGradGradGrad

 Dipole is zero, so no output in dipole orientation.

 ----------------------------------------------------------------------

 Electric dipole moment (input orientation):
 (Debye = 10**-18 statcoulomb cm , SI units = C m)
                  (au)            (Debye)         (10**-30 SI)
   Tot        0.000000D+00      0.000000D+00      0.000000D+00
   x          0.000000D+00      0.000000D+00      0.000000D+00
   y          0.000000D+00      0.000000D+00      0.000000D+00
   z          0.000000D+00      0.000000D+00      0.000000D+00

 Dipole polarizability, Alpha (input orientation).
 (esu units = cm**3 , SI units = C**2 m**2 J**-1)
 Alpha(0;0):
               (au)            (10**-24 esu)      (10**-40 SI)
   iso        0.174847D+02      0.259096D+01      0.288284D+01
   aniso      0.188999D+02      0.280068D+01      0.311617D+01
   xx         0.176126D+02      0.260991D+01      0.290392D+01
   yx         0.416463D+01      0.617134D+00      0.686654D+00
   yy         0.182453D+02      0.270367D+01      0.300824D+01
   zx         0.222094D+01      0.329110D+00      0.366184D+00
   zy        -0.980306D+01     -0.145266D+01     -0.161631D+01
   zz         0.165962D+02      0.245930D+01      0.273634D+01

 ----------------------------------------------------------------------
 Unable to Open any file for archive entry.
 1\1\GINC-BS001\Freq\RMP2-FC\3-21G\C2H4\PNATT\14-Aug-2026\0\\#N Geom=Al
 lCheck Guess=TCheck SCRF=Check GenChk RMP2(FC)/3-21G Freq\\Ethylene C2
 H4 - size2to5_D2h\\0,1\C,-1.5099078787,-1.6941347169,-1.9140775882\C,-
 1.2788418713,-0.6876542831,-2.7693794118\H,-0.7625532267,-2.0204553916
 ,-1.1974154874\H,-2.4548476304,-2.2284578865,-1.8993690389\H,-2.026196
 5233,-0.3613336084,-3.4860415126\H,-0.3339021196,-0.1533311135,-2.7840
 879611\\Version=ES64L-G16RevC.01\State=1-AG\HF=-77.5997056\MP2=-77.781
 3139\RMSD=2.276e-10\RMSF=2.099e-06\ZeroPoint=0.0521062\Thermal=0.05511
 89\ETot=-77.726195\HTot=-77.7252508\GTot=-77.7500834\Dipole=0.,0.,0.\D
 ipoleDeriv=0.0544876,0.0825697,0.1110074,0.0825697,-0.1254186,-0.12910
 09,0.1110074,-0.1291009,-0.1186837,0.0544876,0.0825697,0.1110074,0.082
 5697,-0.1254186,-0.1291009,0.1110074,-0.1291009,-0.1186837,-0.007166,0
 .0054541,-0.0902276,0.0018991,0.0734585,0.0771713,-0.0867705,0.0790708
 ,0.0285148,-0.0473216,-0.0880238,-0.0207797,-0.0844688,0.05196,0.05192
 96,-0.0242368,0.0500301,0.0901689,-0.007166,0.0054541,-0.0902276,0.001
 8991,0.0734585,0.0771713,-0.0867705,0.0790708,0.0285148,-0.0473216,-0.
 0880238,-0.0207797,-0.0844688,0.0519601,0.0519296,-0.0242368,0.0500301
 ,0.0901689\Polar=17.612579,4.1646274,18.2452959,2.2209436,-9.8030573,1
 6.5962011\PG=D02H [C2"(C1.C1),SG(H4)]\NImag=0\\0.59124863,0.15123114,0
 .53424960,0.10848144,-0.32886184,0.49075140,-0.12590777,-0.07182553,0.
 02767683,0.59124863,-0.07182553,-0.32641593,0.23335984,0.15123114,0.53
 424960,0.02767683,0.23335984,-0.25912910,0.10848144,-0.32886184,0.4907
 5140,-0.19718601,0.05336055,-0.13691685,0.00828894,-0.00586273,0.00742
 734,0.20106814,0.04895270,-0.07583369,0.06289238,0.02019274,-0.0046477
 7,0.02022848,-0.05526658,0.07357330,-0.13263038,0.06524759,-0.17237560
 ,-0.01791065,0.00630649,-0.01064428,0.14759277,-0.07634935,0.17853713,
 -0.27578795,-0.12706555,-0.00345777,-0.00065585,0.00016211,-0.00321099
 ,-0.01457155,-0.01170208,0.00215540,0.28806772,-0.12265770,-0.11791558
 ,0.01212044,-0.02589336,-0.00943663,0.00026070,0.00944395,0.00687826,0
 .00097542,0.13955701,0.12015111,-0.00774424,0.00976523,-0.05169177,0.0
 2212700,0.01418268,0.00308937,-0.01840834,-0.01032334,0.00289543,0.004
 61968,-0.01754623,0.04495974,0.00828894,-0.00586273,0.00742734,-0.1971
 8601,0.05336055,-0.13691685,0.00232313,-0.00430421,-0.00195027,0.00007
 734,0.00262902,0.00225535,0.20106814,0.02019274,-0.00464777,0.02022848
 ,0.04895270,-0.07583369,0.06289238,-0.00430421,0.00312845,0.00808446,0
 .00212742,-0.00309855,-0.00453262,-0.05526658,0.07357330,-0.01791065,0
 .00630649,-0.01064428,-0.13263038,0.06524759,-0.17237560,-0.00195027,0
 .00808446,0.00490287,0.00274314,-0.00426461,-0.00331554,0.14759277,-0.
 07634935,0.17853713,-0.00065585,0.00016211,-0.00321099,-0.27578795,-0.
 12706555,-0.00345777,0.00007734,0.00212742,0.00274314,0.00287029,-0.00
 307892,-0.00284945,-0.01457155,-0.01170208,0.00215540,0.28806772,-0.02
 589336,-0.00943663,0.00026070,-0.12265770,-0.11791558,0.01212044,0.002
 62902,-0.00309855,-0.00426461,-0.00307892,0.00342138,0.00845428,0.0094
 4395,0.00687826,0.00097542,0.13955702,0.12015111,0.02212700,0.01418268
 ,0.00308937,-0.00774424,0.00976523,-0.05169177,0.00225535,-0.00453262,
 -0.00331554,-0.00284945,0.00845428,0.00406278,-0.01840834,-0.01032334,
 0.00289543,0.00461968,-0.01754623,0.04495974\\0.00000102,0.00000443,-0
 .00000376,-0.00000102,-0.00000443,0.00000376,0.00000107,-0.00000047,0.
 00000103,-0.00000136,-0.00000077,0.00000002,-0.00000107,0.00000047,-0.
 00000103,0.00000136,0.00000077,-0.00000002\\\@
 The archive entry for this job was punched.


 HOW IS IT THAT THE SKY FEEDS THE STARS?

                           -- LUCRETIUS
 Job cpu time:       0 days  0 hours  0 minutes 19.2 seconds.
 Elapsed time:       0 days  0 hours  0 minutes  2.5 seconds.
 File lengths (MBytes):  RWF=     21 Int=      0 D2E=      0 Chk=      1 Scr=      1
 Normal termination of Gaussian 16 at Fri Aug 14 18:18:41 2026.
