 Entering Gaussian System, Link 0=g16
 Input=HOCl.com
 Output=HOCl.log
 Initial command:
 /opt/g16/g16/l1.exe "/home/pnatt/scratch/Gau-2531132.inp" -scrdir="/home/pnatt/scratch/"
 Entering Link 1 = /opt/g16/g16/l1.exe PID=   2531139.
  
 Copyright (c) 1988-2019, Gaussian, Inc.  All Rights Reserved.
  
 This is part of the Gaussian(R) 16 program.  It is based on
 the Gaussian(R) 09 system (copyright 2009, Gaussian, Inc.),
 the Gaussian(R) 03 system (copyright 2003, Gaussian, Inc.),
 the Gaussian(R) 98 system (copyright 1998, Gaussian, Inc.),
 the Gaussian(R) 94 system (copyright 1995, Gaussian, Inc.),
 the Gaussian 92(TM) system (copyright 1992, Gaussian, Inc.),
 the Gaussian 90(TM) system (copyright 1990, Gaussian, Inc.),
 the Gaussian 88(TM) system (copyright 1988, Gaussian, Inc.),
 the Gaussian 86(TM) system (copyright 1986, Carnegie Mellon
 University), and the Gaussian 82(TM) system (copyright 1983,
 Carnegie Mellon University). Gaussian is a federally registered
 trademark of Gaussian, Inc.
  
 This software contains proprietary and confidential information,
 including trade secrets, belonging to Gaussian, Inc.
  
 This software is provided under written license and may be
 used, copied, transmitted, or stored only in accord with that
 written license.
  
 The following legend is applicable only to US Government
 contracts under FAR:
  
                    RESTRICTED RIGHTS LEGEND
  
 Use, reproduction and disclosure by the US Government is
 subject to restrictions as set forth in subparagraphs (a)
 and (c) of the Commercial Computer Software - Restricted
 Rights clause in FAR 52.227-19.
  
 Gaussian, Inc.
 340 Quinnipiac St., Bldg. 40, Wallingford CT 06492
  
  
 ---------------------------------------------------------------
 Warning -- This program may not be used in any manner that
 competes with the business of Gaussian, Inc. or will provide
 assistance to any competitor of Gaussian, Inc.  The licensee
 of this program is prohibited from giving any competitor of
 Gaussian, Inc. access to this program.  By using this program,
 the user acknowledges that Gaussian, Inc. is engaged in the
 business of creating and licensing software in the field of
 computational chemistry and represents and warrants to the
 licensee that it is not a competitor of Gaussian, Inc. and that
 it will not use this program in any manner prohibited above.
 ---------------------------------------------------------------
  

 Cite this work as:
 Gaussian 16, Revision C.01,
 M. J. Frisch, G. W. Trucks, H. B. Schlegel, G. E. Scuseria, 
 M. A. Robb, J. R. Cheeseman, G. Scalmani, V. Barone, 
 G. A. Petersson, H. Nakatsuji, X. Li, M. Caricato, A. V. Marenich, 
 J. Bloino, B. G. Janesko, R. Gomperts, B. Mennucci, H. P. Hratchian, 
 J. V. Ortiz, A. F. Izmaylov, J. L. Sonnenberg, D. Williams-Young, 
 F. Ding, F. Lipparini, F. Egidi, J. Goings, B. Peng, A. Petrone, 
 T. Henderson, D. Ranasinghe, V. G. Zakrzewski, J. Gao, N. Rega, 
 G. Zheng, W. Liang, M. Hada, M. Ehara, K. Toyota, R. Fukuda, 
 J. Hasegawa, M. Ishida, T. Nakajima, Y. Honda, O. Kitao, H. Nakai, 
 T. Vreven, K. Throssell, J. A. Montgomery, Jr., J. E. Peralta, 
 F. Ogliaro, M. J. Bearpark, J. J. Heyd, E. N. Brothers, K. N. Kudin, 
 V. N. Staroverov, T. A. Keith, R. Kobayashi, J. Normand, 
 K. Raghavachari, A. P. Rendell, J. C. Burant, S. S. Iyengar, 
 J. Tomasi, M. Cossi, J. M. Millam, M. Klene, C. Adamo, R. Cammi, 
 J. W. Ochterski, R. L. Martin, K. Morokuma, O. Farkas, 
 J. B. Foresman, and D. J. Fox, Gaussian, Inc., Wallingford CT, 2019.
 
 ******************************************
 Gaussian 16:  ES64L-G16RevC.01  3-Jul-2019
                14-Aug-2026 
 ******************************************
 %mem=8GB
 %nprocshared=8
 Will use up to    8 processors via shared memory.
 %chk=HOCl.chk
 ----------------------------------------------
 # opt freq=hpmodes mp2/3-21g geom=connectivity
 ----------------------------------------------
 1/18=20,19=15,38=1,57=2/1,3;
 2/9=110,12=2,17=6,18=5,40=1/2;
 3/5=5,11=9,25=1,30=1,71=1/1,2,3;
 4//1;
 5/5=2,38=5/2;
 8/6=4,10=1/1;
 9/15=2,16=-3/6;
 10/5=1/2;
 6/7=2,8=2,9=2,10=2/1;
 7/12=2/1,2,3,16;
 1/18=20,19=15/3(2);
 2/9=110/2;
 99//99;
 2/9=110/2;
 3/5=5,11=9,25=1,30=1,71=1/1,2,3;
 4/5=5,16=3,69=1/1;
 5/5=2,38=5/2;
 8/6=4,10=1/1;
 9/15=2,16=-3/6;
 10/5=1/2;
 7/12=2/1,2,3,16;
 1/18=20,19=15/3(-8);
 2/9=110/2;
 6/7=2,8=2,9=2,10=2/1;
 99/9=10/99;
 ---------------
 HOCl - size1_Cs
 ---------------
 Symbolic Z-matrix:
 Charge =  0 Multiplicity = 1
 O                     0.        0.        0. 
 H                     0.9393    0.2169    0. 
 Cl                    0.       -1.689     0. 
 

 GradGradGradGradGradGradGradGradGradGradGradGradGradGradGradGradGradGrad
 Berny optimization.
 Initialization pass.
                           ----------------------------
                           !    Initial Parameters    !
                           ! (Angstroms and Degrees)  !
 --------------------------                            --------------------------
 ! Name  Definition              Value          Derivative Info.                !
 --------------------------------------------------------------------------------
 ! R1    R(1,2)                  0.964          estimate D2E/DX2                !
 ! R2    R(1,3)                  1.689          estimate D2E/DX2                !
 ! A1    A(2,1,3)              103.0026         estimate D2E/DX2                !
 --------------------------------------------------------------------------------
 Trust Radius=3.00D-01 FncErr=1.00D-07 GrdErr=1.00D-07 EigMax=2.50D+02 EigMin=1.00D-04
 Number of steps in this run=     20 maximum allowed number of steps=    100.
 GradGradGradGradGradGradGradGradGradGradGradGradGradGradGradGradGradGrad

                          Input orientation:                          
 ---------------------------------------------------------------------
 Center     Atomic      Atomic             Coordinates (Angstroms)
 Number     Number       Type             X           Y           Z
 ---------------------------------------------------------------------
      1          8           0        0.000000    0.000000    0.000000
      2          1           0        0.939300    0.216900    0.000000
      3         17           0        0.000000   -1.689000    0.000000
 ---------------------------------------------------------------------
                    Distance matrix (angstroms):
                    1          2          3
     1  O    0.000000
     2  H    0.964018   0.000000
     3  Cl   1.689000   2.124792   0.000000
 Stoichiometry    ClHO
 Framework group  CS[SG(ClHO)]
 Deg. of freedom     3
 Full point group                 CS      NOp   2
 Largest Abelian subgroup         CS      NOp   2
 Largest concise Abelian subgroup C1      NOp   1
                         Standard orientation:                         
 ---------------------------------------------------------------------
 Center     Atomic      Atomic             Coordinates (Angstroms)
 Number     Number       Type             X           Y           Z
 ---------------------------------------------------------------------
      1          8           0        0.036127    1.096004    0.000000
      2          1           0       -0.903173    1.312904    0.000000
      3         17           0        0.036127   -0.592996    0.000000
 ---------------------------------------------------------------------
 Rotational constants (GHZ):         615.1635067          15.2087479          14.8418123
 Standard basis: 3-21G (6D, 7F)
 There are    19 symmetry adapted cartesian basis functions of A'  symmetry.
 There are     5 symmetry adapted cartesian basis functions of A"  symmetry.
 There are    19 symmetry adapted basis functions of A'  symmetry.
 There are     5 symmetry adapted basis functions of A"  symmetry.
    24 basis functions,    45 primitive gaussians,    24 cartesian basis functions
    13 alpha electrons       13 beta electrons
       nuclear repulsion energy        51.2351523892 Hartrees.
 NAtoms=    3 NActive=    3 NUniq=    3 SFac= 1.00D+00 NAtFMM=   60 NAOKFM=F Big=F
 Integral buffers will be    131072 words long.
 Raffenetti 1 integral format.
 Two-electron integral symmetry is turned on.
 One-electron integrals computed using PRISM.
 NBasis=    24 RedAO= T EigKep=  9.15D-02  NBF=    19     5
 NBsUse=    24 1.00D-06 EigRej= -1.00D+00 NBFU=    19     5
 ExpMin= 1.67D-01 ExpMax= 1.38D+03 ExpMxC= 1.38D+03 IAcc=3 IRadAn=         5 AccDes= 0.00D+00
 Harris functional with IExCor=  205 and IRadAn=       5 diagonalized for initial guess.
 HarFok:  IExCor=  205 AccDes= 0.00D+00 IRadAn=         5 IDoV= 1 UseB2=F ITyADJ=14
 ICtDFT=  3500011 ScaDFX=  1.000000  1.000000  1.000000  1.000000
 FoFCou: FMM=F IPFlag=           0 FMFlag=      100000 FMFlg1=           0
         NFxFlg=           0 DoJE=T BraDBF=F KetDBF=T FulRan=T
         wScrn=  0.000000 ICntrl=       500 IOpCl=  0 I1Cent=   200000004 NGrid=           0
         NMat0=    1 NMatS0=      1 NMatT0=    0 NMatD0=    1 NMtDS0=    0 NMtDT0=    0
 Petite list used in FoFCou.
 Initial guess orbital symmetries:
       Occupied  (A') (A') (A') (A') (A') (A") (A') (A') (A') (A')
                 (A") (A') (A")
       Virtual   (A') (A') (A') (A') (A") (A') (A') (A") (A') (A')
                 (A')
 The electronic state of the initial guess is 1-A'.
 Keep R1 ints in memory in symmetry-blocked form, NReq=1651324.
 Requested convergence on RMS density matrix=1.00D-08 within 128 cycles.
 Requested convergence on MAX density matrix=1.00D-06.
 Requested convergence on             energy=1.00D-06.
 No special actions if energy rises.
 SCF Done:  E(RHF) =  -532.242175661     A.U. after   12 cycles
            NFock= 12  Conv=0.49D-08     -V/T= 2.0007
 ExpMin= 1.67D-01 ExpMax= 1.38D+03 ExpMxC= 1.38D+03 IAcc=3 IRadAn=         5 AccDes= 0.00D+00
 HarFok:  IExCor=  205 AccDes= 0.00D+00 IRadAn=         5 IDoV=-2 UseB2=F ITyADJ=14
 ICtDFT= 12500011 ScaDFX=  1.000000  1.000000  1.000000  1.000000
 Range of M.O.s used for correlation:     7    24
 NBasis=    24 NAE=    13 NBE=    13 NFC=     6 NFV=     0
 NROrb=     18 NOA=     7 NOB=     7 NVA=    11 NVB=    11
 Fully direct method using O(ONN) memory.
 JobTyp=1 Pass  1:  I=   7 to  13 NPSUse=  8 ParTrn=T ParDer=T DoDerP=T.
 Spin components of T(2) and E(2):
     alpha-alpha T2 =       0.5731953421D-02 E2=     -0.1941077726D-01
     alpha-beta  T2 =       0.4336501197D-01 E2=     -0.1288236009D+00
     beta-beta   T2 =       0.5731953421D-02 E2=     -0.1941077726D-01
 ANorm=    0.1027048645D+01
 E2 =    -0.1676451554D+00 EUMP2 =    -0.53240982081621D+03
          IDoAtm=111
          Differentiating once with respect to electric field.
                with respect to dipole field.
          Differentiating once with respect to nuclear coordinates.
 Keep R1 ints in memory in symmetry-blocked form, NReq=1651849.
          There are     1 degrees of freedom in the 1st order CPHF.  IDoFFX=0 NUNeed=     1.
 LinEq1:  Iter=  0 NonCon=     1 RMS=7.18D-03 Max=3.67D-02 NDo=     1
 AX will form     1 AO Fock derivatives at one time.
 LinEq1:  Iter=  1 NonCon=     1 RMS=2.12D-03 Max=1.34D-02 NDo=     1
 LinEq1:  Iter=  2 NonCon=     1 RMS=8.05D-04 Max=5.74D-03 NDo=     1
 LinEq1:  Iter=  3 NonCon=     1 RMS=1.11D-04 Max=7.13D-04 NDo=     1
 LinEq1:  Iter=  4 NonCon=     1 RMS=2.01D-05 Max=1.07D-04 NDo=     1
 LinEq1:  Iter=  5 NonCon=     1 RMS=5.41D-06 Max=2.95D-05 NDo=     1
 LinEq1:  Iter=  6 NonCon=     1 RMS=7.38D-07 Max=3.19D-06 NDo=     1
 LinEq1:  Iter=  7 NonCon=     1 RMS=8.33D-08 Max=4.62D-07 NDo=     1
 LinEq1:  Iter=  8 NonCon=     1 RMS=1.24D-08 Max=5.18D-08 NDo=     1
 LinEq1:  Iter=  9 NonCon=     1 RMS=1.20D-09 Max=5.32D-09 NDo=     1
 LinEq1:  Iter= 10 NonCon=     0 RMS=8.99D-11 Max=3.27D-10 NDo=     1
 Linear equations converged to 1.000D-10 1.000D-09 after    10 iterations.
 End of Minotr F.D. properties file   721 does not exist.
 End of Minotr F.D. properties file   722 does not exist.
 End of Minotr F.D. properties file   788 does not exist.

 **********************************************************************

            Population analysis using the SCF Density.

 **********************************************************************

 Orbital symmetries:
       Occupied  (A') (A') (A') (A') (A') (A") (A') (A') (A') (A")
                 (A') (A') (A")
       Virtual   (A') (A') (A') (A') (A") (A') (A') (A") (A') (A')
                 (A')
 The electronic state is 1-A'.
 Alpha  occ. eigenvalues -- -104.14706 -20.53598 -10.54082  -8.00477  -7.99987
 Alpha  occ. eigenvalues --   -7.99959  -1.41903  -1.05967  -0.70524  -0.60797
 Alpha  occ. eigenvalues --   -0.57933  -0.46573  -0.44240
 Alpha virt. eigenvalues --    0.12571   0.27841   0.68445   0.77787   0.78258
 Alpha virt. eigenvalues --    0.78940   1.21028   1.74050   1.84334   1.98105
 Alpha virt. eigenvalues --    2.99588
          Condensed to atoms (all electrons):
               1          2          3
     1  O    8.283672   0.252863   0.072777
     2  H    0.252863   0.371550  -0.045096
     3  Cl   0.072777  -0.045096  16.783690
 Mulliken charges:
               1
     1  O   -0.609312
     2  H    0.420683
     3  Cl   0.188629
 Sum of Mulliken charges =  -0.00000
 Mulliken charges with hydrogens summed into heavy atoms:
               1
     1  O   -0.188629
     3  Cl   0.188629
 Electronic spatial extent (au):  <R**2>=            104.2756
 Charge=             -0.0000 electrons
 Dipole moment (field-independent basis, Debye):
    X=             -2.1093    Y=              0.2760    Z=              0.0000  Tot=              2.1273
 Quadrupole moment (field-independent basis, Debye-Ang):
   XX=            -16.8394   YY=            -17.2671   ZZ=            -18.9224
   XY=             -2.8551   XZ=              0.0000   YZ=              0.0000
 Traceless Quadrupole moment (field-independent basis, Debye-Ang):
   XX=              0.8369   YY=              0.4092   ZZ=             -1.2461
   XY=             -2.8551   XZ=              0.0000   YZ=              0.0000
 Octapole moment (field-independent basis, Debye-Ang**2):
  XXX=             -2.4769  YYY=              1.6489  ZZZ=              0.0000  XYY=             -4.0606
  XXY=              3.8443  XXZ=              0.0000  XZZ=             -0.3204  YZZ=              1.2450
  YYZ=              0.0000  XYZ=              0.0000
 Hexadecapole moment (field-independent basis, Debye-Ang**3):
 XXXX=            -17.8057 YYYY=            -77.2304 ZZZZ=            -17.8008 XXXY=             -0.5537
 XXXZ=              0.0000 YYYX=             -3.4920 YYYZ=              0.0000 ZZZX=              0.0000
 ZZZY=              0.0000 XXYY=            -14.7124 XXZZ=             -6.2027 YYZZ=            -17.6812
 XXYZ=              0.0000 YYXZ=              0.0000 ZZXY=              0.4697
 N-N= 5.123515238923D+01 E-N=-1.369810619679D+03  KE= 5.318708773294D+02
 Symmetry A'   KE= 4.815157982361D+02
 Symmetry A"   KE= 5.035507909326D+01
 Calling FoFJK, ICntrl=  10002127 FMM=F ISym2X=1 I1Cent= 0 IOpClX= 0 NMat=1 NMatS=1 NMatT=0.
 ***** Axes restored to original set *****
 -------------------------------------------------------------------
 Center     Atomic                   Forces (Hartrees/Bohr)
 Number     Number              X              Y              Z
 -------------------------------------------------------------------
      1        8          -0.026492950    0.067011820   -0.000000000
      2        1           0.029918819    0.013068970   -0.000000000
      3       17          -0.003425868   -0.080080790    0.000000000
 -------------------------------------------------------------------
 Cartesian Forces:  Max     0.080080790 RMS     0.037539703

 GradGradGradGradGradGradGradGradGradGradGradGradGradGradGradGradGradGrad
 Berny optimization.
 FormGI is forming the generalized inverse of G from B-inverse, IUseBI=4.
 Internal  Forces:  Max     0.080080790 RMS     0.050207579
 Search for a local minimum.
 Step number   1 out of a maximum of   20
 All quantities printed in internal units (Hartrees-Bohrs-Radians)
 Mixed Optimization -- RFO/linear search
 Second derivative matrix not updated -- first step.
 The second derivative matrix:
                          R1        R2        A1
           R1           0.54618
           R2           0.00000   0.37247
           A1           0.00000   0.00000   0.16000
 ITU=  0
     Eigenvalues ---    0.16000   0.37247   0.54618
 RFO step:  Lambda=-1.88776643D-02 EMin= 1.60000000D-01
 Linear search not attempted -- first point.
 Iteration  1 RMS(Cart)=  0.12665938 RMS(Int)=  0.00294922
 Iteration  2 RMS(Cart)=  0.00312143 RMS(Int)=  0.00000165
 Iteration  3 RMS(Cart)=  0.00000121 RMS(Int)=  0.00000000
 Iteration  4 RMS(Cart)=  0.00000000 RMS(Int)=  0.00000000
 ClnCor:  largest displacement from symmetrization is 1.11D-16 for atom     2.
 Variable       Old X    -DE/DX   Delta X   Delta X   Delta X     New X
                                 (Linear)    (Quad)   (Total)
    R1        1.82173   0.03209   0.00000   0.05679   0.05679   1.87852
    R2        3.19175   0.08008   0.00000   0.20463   0.20463   3.39637
    A1        1.79774   0.01093   0.00000   0.06113   0.06113   1.85886
         Item               Value     Threshold  Converged?
 Maximum Force            0.080081     0.000450     NO 
 RMS     Force            0.050208     0.000300     NO 
 Maximum Displacement     0.163833     0.001800     NO 
 RMS     Displacement     0.129536     0.001200     NO 
 Predicted change in Energy=-9.899765D-03
 GradGradGradGradGradGradGradGradGradGradGradGradGradGradGradGradGradGrad

                          Input orientation:                          
 ---------------------------------------------------------------------
 Center     Atomic      Atomic             Coordinates (Angstroms)
 Number     Number       Type             X           Y           Z
 ---------------------------------------------------------------------
      1          8           0        0.006625    0.021149   -0.000000
      2          1           0        0.965740    0.282448   -0.000000
      3         17           0       -0.033064   -1.775696    0.000000
 ---------------------------------------------------------------------
                    Distance matrix (angstroms):
                    1          2          3
     1  O    0.000000
     2  H    0.994072   0.000000
     3  Cl   1.797283   2.287699   0.000000
 Stoichiometry    ClHO
 Framework group  CS[SG(ClHO)]
 Deg. of freedom     3
 Full point group                 CS      NOp   2
 Largest Abelian subgroup         CS      NOp   2
 Largest concise Abelian subgroup C1      NOp   1
                         Standard orientation:                         
 ---------------------------------------------------------------------
 Center     Atomic      Atomic             Coordinates (Angstroms)
 Number     Number       Type             X           Y           Z
 ---------------------------------------------------------------------
      1          8           0        0.036658    1.164285    0.000000
      2          1           0       -0.916453    1.446700    0.000000
      3         17           0        0.036658   -0.632999   -0.000000
 ---------------------------------------------------------------------
 Rotational constants (GHZ):         599.8490659          13.3779614          13.0861122
 Standard basis: 3-21G (6D, 7F)
 There are    19 symmetry adapted cartesian basis functions of A'  symmetry.
 There are     5 symmetry adapted cartesian basis functions of A"  symmetry.
 There are    19 symmetry adapted basis functions of A'  symmetry.
 There are     5 symmetry adapted basis functions of A"  symmetry.
    24 basis functions,    45 primitive gaussians,    24 cartesian basis functions
    13 alpha electrons       13 beta electrons
       nuclear repulsion energy        48.2337172874 Hartrees.
 NAtoms=    3 NActive=    3 NUniq=    3 SFac= 1.00D+00 NAtFMM=   60 NAOKFM=F Big=F
 Integral buffers will be    131072 words long.
 Raffenetti 1 integral format.
 Two-electron integral symmetry is turned on.
 One-electron integrals computed using PRISM.
 NBasis=    24 RedAO= T EigKep=  9.74D-02  NBF=    19     5
 NBsUse=    24 1.00D-06 EigRej= -1.00D+00 NBFU=    19     5
 Initial guess from the checkpoint file:  "HOCl.chk"
 B after Tr=    -0.000000    0.000000    0.000000
         Rot=    0.999996   -0.000000    0.000000    0.002779 Ang=   0.32 deg.
 Initial guess orbital symmetries:
       Occupied  (A') (A') (A') (A') (A') (A") (A') (A') (A') (A")
                 (A') (A') (A")
       Virtual   (A') (A') (A') (A') (A") (A') (A') (A") (A') (A')
                 (A')
 ExpMin= 1.67D-01 ExpMax= 1.38D+03 ExpMxC= 1.38D+03 IAcc=3 IRadAn=         5 AccDes= 0.00D+00
 Harris functional with IExCor=  205 and IRadAn=       5 diagonalized for initial guess.
 HarFok:  IExCor=  205 AccDes= 0.00D+00 IRadAn=         5 IDoV= 1 UseB2=F ITyADJ=14
 ICtDFT=  3500011 ScaDFX=  1.000000  1.000000  1.000000  1.000000
 FoFCou: FMM=F IPFlag=           0 FMFlag=      100000 FMFlg1=           0
         NFxFlg=           0 DoJE=T BraDBF=F KetDBF=T FulRan=T
         wScrn=  0.000000 ICntrl=       500 IOpCl=  0 I1Cent=   200000004 NGrid=           0
         NMat0=    1 NMatS0=      1 NMatT0=    0 NMatD0=    1 NMtDS0=    0 NMtDT0=    0
 Petite list used in FoFCou.
 Keep R1 ints in memory in symmetry-blocked form, NReq=1651282.
 Requested convergence on RMS density matrix=1.00D-08 within 128 cycles.
 Requested convergence on MAX density matrix=1.00D-06.
 Requested convergence on             energy=1.00D-06.
 No special actions if energy rises.
 SCF Done:  E(RHF) =  -532.244960736     A.U. after   12 cycles
            NFock= 12  Conv=0.22D-08     -V/T= 2.0012
 ExpMin= 1.67D-01 ExpMax= 1.38D+03 ExpMxC= 1.38D+03 IAcc=3 IRadAn=         5 AccDes= 0.00D+00
 HarFok:  IExCor=  205 AccDes= 0.00D+00 IRadAn=         5 IDoV=-2 UseB2=F ITyADJ=14
 ICtDFT= 12500011 ScaDFX=  1.000000  1.000000  1.000000  1.000000
 Range of M.O.s used for correlation:     7    24
 NBasis=    24 NAE=    13 NBE=    13 NFC=     6 NFV=     0
 NROrb=     18 NOA=     7 NOB=     7 NVA=    11 NVB=    11
 Fully direct method using O(ONN) memory.
 JobTyp=1 Pass  1:  I=   7 to  13 NPSUse=  8 ParTrn=T ParDer=T DoDerP=T.
 Spin components of T(2) and E(2):
     alpha-alpha T2 =       0.6176030647D-02 E2=     -0.1999403182D-01
     alpha-beta  T2 =       0.4939387239D-01 E2=     -0.1345779099D+00
     beta-beta   T2 =       0.6176030647D-02 E2=     -0.1999403182D-01
 ANorm=    0.1030410566D+01
 E2 =    -0.1745659736D+00 EUMP2 =    -0.53241952670935D+03
          IDoAtm=111
          Differentiating once with respect to electric field.
                with respect to dipole field.
          Differentiating once with respect to nuclear coordinates.
 Keep R1 ints in memory in symmetry-blocked form, NReq=1651828.
          There are     1 degrees of freedom in the 1st order CPHF.  IDoFFX=0 NUNeed=     1.
 LinEq1:  Iter=  0 NonCon=     1 RMS=8.52D-03 Max=4.21D-02 NDo=     1
 AX will form     1 AO Fock derivatives at one time.
 LinEq1:  Iter=  1 NonCon=     1 RMS=2.71D-03 Max=1.81D-02 NDo=     1
 LinEq1:  Iter=  2 NonCon=     1 RMS=1.13D-03 Max=8.57D-03 NDo=     1
 LinEq1:  Iter=  3 NonCon=     1 RMS=1.64D-04 Max=1.02D-03 NDo=     1
 LinEq1:  Iter=  4 NonCon=     1 RMS=3.06D-05 Max=1.79D-04 NDo=     1
 LinEq1:  Iter=  5 NonCon=     1 RMS=7.47D-06 Max=3.53D-05 NDo=     1
 LinEq1:  Iter=  6 NonCon=     1 RMS=1.28D-06 Max=6.55D-06 NDo=     1
 LinEq1:  Iter=  7 NonCon=     1 RMS=2.40D-07 Max=1.38D-06 NDo=     1
 LinEq1:  Iter=  8 NonCon=     1 RMS=2.43D-08 Max=1.15D-07 NDo=     1
 LinEq1:  Iter=  9 NonCon=     1 RMS=2.16D-09 Max=1.06D-08 NDo=     1
 LinEq1:  Iter= 10 NonCon=     1 RMS=1.81D-10 Max=7.19D-10 NDo=     1
 LinEq1:  Iter= 11 NonCon=     0 RMS=1.66D-11 Max=9.66D-11 NDo=     1
 Linear equations converged to 1.000D-10 1.000D-09 after    11 iterations.
 End of Minotr F.D. properties file   721 does not exist.
 End of Minotr F.D. properties file   722 does not exist.
 End of Minotr F.D. properties file   788 does not exist.
 Calling FoFJK, ICntrl=  10002127 FMM=F ISym2X=1 I1Cent= 0 IOpClX= 0 NMat=1 NMatS=1 NMatT=0.
 ***** Axes restored to original set *****
 -------------------------------------------------------------------
 Center     Atomic                   Forces (Hartrees/Bohr)
 Number     Number              X              Y              Z
 -------------------------------------------------------------------
      1        8          -0.014077260    0.019586244   -0.000000000
      2        1           0.009332332   -0.006872948    0.000000000
      3       17           0.004744928   -0.012713296    0.000000000
 -------------------------------------------------------------------
 Cartesian Forces:  Max     0.019586244 RMS     0.010001457

 GradGradGradGradGradGradGradGradGradGradGradGradGradGradGradGradGradGrad
 Berny optimization.
 Using GEDIIS/GDIIS optimizer.
 FormGI is forming the generalized inverse of G from B-inverse, IUseBI=4.
 Internal  Forces:  Max     0.017065133 RMS     0.012934708
 Search for a local minimum.
 Step number   2 out of a maximum of   20
 All quantities printed in internal units (Hartrees-Bohrs-Radians)
 Mixed Optimization -- RFO/linear search
 Update second derivatives using D2CorX and points    1    2
 DE= -9.71D-03 DEPred=-9.90D-03 R= 9.80D-01
 TightC=F SS=  1.41D+00  RLast= 2.21D-01 DXNew= 5.0454D-01 6.6295D-01
 Trust test= 9.80D-01 RLast= 2.21D-01 DXMaxT set to 5.05D-01
 The second derivative matrix:
                          R1        R2        A1
           R1           0.52919
           R2          -0.03247   0.31783
           A1           0.02427   0.07006   0.20097
 ITU=  1  0
 Use linear search instead of GDIIS.
     Eigenvalues ---    0.16465   0.34868   0.53466
 RFO step:  Lambda=-2.70048132D-03 EMin= 1.64650385D-01
 Quartic linear search produced a step of  0.15812.
 Iteration  1 RMS(Cart)=  0.06838294 RMS(Int)=  0.00370670
 Iteration  2 RMS(Cart)=  0.00364435 RMS(Int)=  0.00000503
 Iteration  3 RMS(Cart)=  0.00000518 RMS(Int)=  0.00000000
 Iteration  4 RMS(Cart)=  0.00000000 RMS(Int)=  0.00000000
 ClnCor:  largest displacement from symmetrization is 7.02D-16 for atom     2.
 Variable       Old X    -DE/DX   Delta X   Delta X   Delta X     New X
                                 (Linear)    (Quad)   (Total)
    R1        1.87852   0.00720   0.00898   0.01572   0.02470   1.90323
    R2        3.39637   0.01261   0.03236   0.04293   0.07528   3.47165
    A1        1.85886  -0.01707   0.00967  -0.11766  -0.10800   1.75087
         Item               Value     Threshold  Converged?
 Maximum Force            0.017065     0.000450     NO 
 RMS     Force            0.012935     0.000300     NO 
 Maximum Displacement     0.073851     0.001800     NO 
 RMS     Displacement     0.069921     0.001200     NO 
 Predicted change in Energy=-1.430374D-03
 GradGradGradGradGradGradGradGradGradGradGradGradGradGradGradGradGradGrad

                          Input orientation:                          
 ---------------------------------------------------------------------
 Center     Atomic      Atomic             Coordinates (Angstroms)
 Number     Number       Type             X           Y           Z
 ---------------------------------------------------------------------
      1          8           0       -0.019381    0.060229   -0.000000
      2          1           0        0.970753    0.244548   -0.000000
      3         17           0       -0.012072   -1.776877    0.000000
 ---------------------------------------------------------------------
                    Distance matrix (angstroms):
                    1          2          3
     1  O    0.000000
     2  H    1.007144   0.000000
     3  Cl   1.837120   2.247688   0.000000
 Stoichiometry    ClHO
 Framework group  CS[SG(ClHO)]
 Deg. of freedom     3
 Full point group                 CS      NOp   2
 Largest Abelian subgroup         CS      NOp   2
 Largest concise Abelian subgroup C1      NOp   1
                         Standard orientation:                         
 ---------------------------------------------------------------------
 Center     Atomic      Atomic             Coordinates (Angstroms)
 Number     Number       Type             X           Y           Z
 ---------------------------------------------------------------------
      1          8           0        0.038110    1.194256   -0.000000
      2          1           0       -0.952749    1.374635   -0.000000
      3         17           0        0.038110   -0.642864    0.000000
 ---------------------------------------------------------------------
 Rotational constants (GHZ):         550.4367683          12.9105755          12.6146959
 Standard basis: 3-21G (6D, 7F)
 There are    19 symmetry adapted cartesian basis functions of A'  symmetry.
 There are     5 symmetry adapted cartesian basis functions of A"  symmetry.
 There are    19 symmetry adapted basis functions of A'  symmetry.
 There are     5 symmetry adapted basis functions of A"  symmetry.
    24 basis functions,    45 primitive gaussians,    24 cartesian basis functions
    13 alpha electrons       13 beta electrons
       nuclear repulsion energy        47.3801448401 Hartrees.
 NAtoms=    3 NActive=    3 NUniq=    3 SFac= 1.00D+00 NAtFMM=   60 NAOKFM=F Big=F
 Integral buffers will be    131072 words long.
 Raffenetti 1 integral format.
 Two-electron integral symmetry is turned on.
 One-electron integrals computed using PRISM.
 NBasis=    24 RedAO= T EigKep=  9.84D-02  NBF=    19     5
 NBsUse=    24 1.00D-06 EigRej= -1.00D+00 NBFU=    19     5
 Initial guess from the checkpoint file:  "HOCl.chk"
 B after Tr=     0.000000   -0.000000   -0.000000
         Rot=    0.999996   -0.000000   -0.000000   -0.002944 Ang=  -0.34 deg.
 Initial guess orbital symmetries:
       Occupied  (A') (A') (A') (A') (A') (A") (A') (A') (A') (A")
                 (A') (A') (A")
       Virtual   (A') (A') (A') (A') (A") (A') (A') (A") (A') (A')
                 (A')
 ExpMin= 1.67D-01 ExpMax= 1.38D+03 ExpMxC= 1.38D+03 IAcc=3 IRadAn=         5 AccDes= 0.00D+00
 Harris functional with IExCor=  205 and IRadAn=       5 diagonalized for initial guess.
 HarFok:  IExCor=  205 AccDes= 0.00D+00 IRadAn=         5 IDoV= 1 UseB2=F ITyADJ=14
 ICtDFT=  3500011 ScaDFX=  1.000000  1.000000  1.000000  1.000000
 FoFCou: FMM=F IPFlag=           0 FMFlag=      100000 FMFlg1=           0
         NFxFlg=           0 DoJE=T BraDBF=F KetDBF=T FulRan=T
         wScrn=  0.000000 ICntrl=       500 IOpCl=  0 I1Cent=   200000004 NGrid=           0
         NMat0=    1 NMatS0=      1 NMatT0=    0 NMatD0=    1 NMtDS0=    0 NMtDT0=    0
 Petite list used in FoFCou.
 Keep R1 ints in memory in symmetry-blocked form, NReq=1651261.
 Requested convergence on RMS density matrix=1.00D-08 within 128 cycles.
 Requested convergence on MAX density matrix=1.00D-06.
 Requested convergence on             energy=1.00D-06.
 No special actions if energy rises.
 SCF Done:  E(RHF) =  -532.243025978     A.U. after   11 cycles
            NFock= 11  Conv=0.64D-08     -V/T= 2.0014
 ExpMin= 1.67D-01 ExpMax= 1.38D+03 ExpMxC= 1.38D+03 IAcc=3 IRadAn=         5 AccDes= 0.00D+00
 HarFok:  IExCor=  205 AccDes= 0.00D+00 IRadAn=         5 IDoV=-2 UseB2=F ITyADJ=14
 ICtDFT= 12500011 ScaDFX=  1.000000  1.000000  1.000000  1.000000
 Range of M.O.s used for correlation:     7    24
 NBasis=    24 NAE=    13 NBE=    13 NFC=     6 NFV=     0
 NROrb=     18 NOA=     7 NOB=     7 NVA=    11 NVB=    11
 Fully direct method using O(ONN) memory.
 JobTyp=1 Pass  1:  I=   7 to  13 NPSUse=  8 ParTrn=T ParDer=T DoDerP=T.
 Spin components of T(2) and E(2):
     alpha-alpha T2 =       0.6413248369D-02 E2=     -0.2028249506D-01
     alpha-beta  T2 =       0.5239635833D-01 E2=     -0.1374314551D+00
     beta-beta   T2 =       0.6413248369D-02 E2=     -0.2028249506D-01
 ANorm=    0.1032096340D+01
 E2 =    -0.1779964453D+00 EUMP2 =    -0.53242102242337D+03
          IDoAtm=111
          Differentiating once with respect to electric field.
                with respect to dipole field.
          Differentiating once with respect to nuclear coordinates.
 Keep R1 ints in memory in symmetry-blocked form, NReq=1651828.
          There are     1 degrees of freedom in the 1st order CPHF.  IDoFFX=0 NUNeed=     1.
 LinEq1:  Iter=  0 NonCon=     1 RMS=9.29D-03 Max=4.41D-02 NDo=     1
 AX will form     1 AO Fock derivatives at one time.
 LinEq1:  Iter=  1 NonCon=     1 RMS=3.05D-03 Max=1.91D-02 NDo=     1
 LinEq1:  Iter=  2 NonCon=     1 RMS=1.30D-03 Max=9.02D-03 NDo=     1
 LinEq1:  Iter=  3 NonCon=     1 RMS=1.88D-04 Max=1.19D-03 NDo=     1
 LinEq1:  Iter=  4 NonCon=     1 RMS=4.06D-05 Max=2.40D-04 NDo=     1
 LinEq1:  Iter=  5 NonCon=     1 RMS=1.16D-05 Max=6.27D-05 NDo=     1
 LinEq1:  Iter=  6 NonCon=     1 RMS=1.49D-06 Max=6.28D-06 NDo=     1
 LinEq1:  Iter=  7 NonCon=     1 RMS=2.64D-07 Max=1.45D-06 NDo=     1
 LinEq1:  Iter=  8 NonCon=     1 RMS=2.93D-08 Max=1.19D-07 NDo=     1
 LinEq1:  Iter=  9 NonCon=     1 RMS=2.73D-09 Max=1.16D-08 NDo=     1
 LinEq1:  Iter= 10 NonCon=     1 RMS=2.78D-10 Max=1.23D-09 NDo=     1
 LinEq1:  Iter= 11 NonCon=     0 RMS=2.97D-11 Max=1.63D-10 NDo=     1
 Linear equations converged to 1.000D-10 1.000D-09 after    11 iterations.
 End of Minotr F.D. properties file   721 does not exist.
 End of Minotr F.D. properties file   722 does not exist.
 End of Minotr F.D. properties file   788 does not exist.
 Calling FoFJK, ICntrl=  10002127 FMM=F ISym2X=1 I1Cent= 0 IOpClX= 0 NMat=1 NMatS=1 NMatT=0.
 ***** Axes restored to original set *****
 -------------------------------------------------------------------
 Center     Atomic                   Forces (Hartrees/Bohr)
 Number     Number              X              Y              Z
 -------------------------------------------------------------------
      1        8           0.001127658    0.001834206   -0.000000000
      2        1          -0.000952515    0.000162389   -0.000000000
      3       17          -0.000175143   -0.001996595    0.000000000
 -------------------------------------------------------------------
 Cartesian Forces:  Max     0.001996595 RMS     0.001032077

 GradGradGradGradGradGradGradGradGradGradGradGradGradGradGradGradGradGrad
 Berny optimization.
 Using GEDIIS/GDIIS optimizer.
 FormGI is forming the generalized inverse of G from B-inverse, IUseBI=4.
 Internal  Forces:  Max     0.001995882 RMS     0.001317784
 Search for a local minimum.
 Step number   3 out of a maximum of   20
 All quantities printed in internal units (Hartrees-Bohrs-Radians)
 Mixed Optimization -- RFO/linear search
 Update second derivatives using D2CorX and points    1    2    3
 DE= -1.50D-03 DEPred=-1.43D-03 R= 1.05D+00
 TightC=F SS=  1.41D+00  RLast= 1.34D-01 DXNew= 8.4853D-01 4.0183D-01
 Trust test= 1.05D+00 RLast= 1.34D-01 DXMaxT set to 5.05D-01
 The second derivative matrix:
                          R1        R2        A1
           R1           0.53241
           R2          -0.04324   0.26620
           A1           0.01659   0.07743   0.22167
 ITU=  1  1  0
 Use linear search instead of GDIIS.
     Eigenvalues ---    0.15920   0.32177   0.53932
 RFO step:  Lambda=-1.44712192D-05 EMin= 1.59196413D-01
 Quartic linear search produced a step of  0.02117.
 Iteration  1 RMS(Cart)=  0.00338140 RMS(Int)=  0.00000083
 Iteration  2 RMS(Cart)=  0.00000105 RMS(Int)=  0.00000000
 Iteration  3 RMS(Cart)=  0.00000000 RMS(Int)=  0.00000000
 ClnCor:  largest displacement from symmetrization is 1.30D-15 for atom     2.
 Variable       Old X    -DE/DX   Delta X   Delta X   Delta X     New X
                                 (Linear)    (Quad)   (Total)
    R1        1.90323  -0.00091   0.00052  -0.00164  -0.00112   1.90211
    R2        3.47165   0.00200   0.00159   0.00566   0.00725   3.47890
    A1        1.75087   0.00064  -0.00229   0.00264   0.00035   1.75122
         Item               Value     Threshold  Converged?
 Maximum Force            0.001996     0.000450     NO 
 RMS     Force            0.001318     0.000300     NO 
 Maximum Displacement     0.004615     0.001800     NO 
 RMS     Displacement     0.003382     0.001200     NO 
 Predicted change in Energy=-7.823361D-06
 GradGradGradGradGradGradGradGradGradGradGradGradGradGradGradGradGradGrad

                          Input orientation:                          
 ---------------------------------------------------------------------
 Center     Atomic      Atomic             Coordinates (Angstroms)
 Number     Number       Type             X           Y           Z
 ---------------------------------------------------------------------
      1          8           0       -0.018837    0.061628   -0.000000
      2          1           0        0.970761    0.245591   -0.000000
      3         17           0       -0.012624   -1.779319    0.000000
 ---------------------------------------------------------------------
                    Distance matrix (angstroms):
                    1          2          3
     1  O    0.000000
     2  H    1.006552   0.000000
     3  Cl   1.840957   2.251067   0.000000
 Stoichiometry    ClHO
 Framework group  CS[SG(ClHO)]
 Deg. of freedom     3
 Full point group                 CS      NOp   2
 Largest Abelian subgroup         CS      NOp   2
 Largest concise Abelian subgroup C1      NOp   1
                         Standard orientation:                         
 ---------------------------------------------------------------------
 Center     Atomic      Atomic             Coordinates (Angstroms)
 Number     Number       Type             X           Y           Z
 ---------------------------------------------------------------------
      1          8           0        0.038085    1.196756   -0.000000
      2          1           0       -0.952128    1.377377    0.000000
      3         17           0        0.038085   -0.644201   -0.000000
 ---------------------------------------------------------------------
 Rotational constants (GHZ):         551.1456911          12.8570363          12.5639466
 Standard basis: 3-21G (6D, 7F)
 There are    19 symmetry adapted cartesian basis functions of A'  symmetry.
 There are     5 symmetry adapted cartesian basis functions of A"  symmetry.
 There are    19 symmetry adapted basis functions of A'  symmetry.
 There are     5 symmetry adapted basis functions of A"  symmetry.
    24 basis functions,    45 primitive gaussians,    24 cartesian basis functions
    13 alpha electrons       13 beta electrons
       nuclear repulsion energy        47.2949588500 Hartrees.
 NAtoms=    3 NActive=    3 NUniq=    3 SFac= 1.00D+00 NAtFMM=   60 NAOKFM=F Big=F
 Integral buffers will be    131072 words long.
 Raffenetti 1 integral format.
 Two-electron integral symmetry is turned on.
 One-electron integrals computed using PRISM.
 NBasis=    24 RedAO= T EigKep=  9.86D-02  NBF=    19     5
 NBsUse=    24 1.00D-06 EigRej= -1.00D+00 NBFU=    19     5
 Initial guess from the checkpoint file:  "HOCl.chk"
 B after Tr=    -0.000000    0.000000   -0.000000
         Rot=    1.000000    0.000000    0.000000    0.000085 Ang=   0.01 deg.
 Initial guess orbital symmetries:
       Occupied  (A') (A') (A') (A') (A') (A") (A') (A') (A') (A")
                 (A') (A') (A")
       Virtual   (A') (A') (A') (A") (A') (A') (A') (A") (A') (A')
                 (A')
 Keep R1 ints in memory in symmetry-blocked form, NReq=1651261.
 Requested convergence on RMS density matrix=1.00D-08 within 128 cycles.
 Requested convergence on MAX density matrix=1.00D-06.
 Requested convergence on             energy=1.00D-06.
 No special actions if energy rises.
 SCF Done:  E(RHF) =  -532.242855167     A.U. after   10 cycles
            NFock= 10  Conv=0.41D-08     -V/T= 2.0014
 ExpMin= 1.67D-01 ExpMax= 1.38D+03 ExpMxC= 1.38D+03 IAcc=3 IRadAn=         5 AccDes= 0.00D+00
 HarFok:  IExCor=  205 AccDes= 0.00D+00 IRadAn=         5 IDoV=-2 UseB2=F ITyADJ=14
 ICtDFT= 12500011 ScaDFX=  1.000000  1.000000  1.000000  1.000000
 Range of M.O.s used for correlation:     7    24
 NBasis=    24 NAE=    13 NBE=    13 NFC=     6 NFV=     0
 NROrb=     18 NOA=     7 NOB=     7 NVA=    11 NVB=    11
 Fully direct method using O(ONN) memory.
 JobTyp=1 Pass  1:  I=   7 to  13 NPSUse=  8 ParTrn=T ParDer=T DoDerP=T.
 Spin components of T(2) and E(2):
     alpha-alpha T2 =       0.6423762331D-02 E2=     -0.2029360610D-01
     alpha-beta  T2 =       0.5260028556D-01 E2=     -0.1375898244D+00
     beta-beta   T2 =       0.6423762331D-02 E2=     -0.2029360610D-01
 ANorm=    0.1032205314D+01
 E2 =    -0.1781770366D+00 EUMP2 =    -0.53242103220328D+03
          IDoAtm=111
          Differentiating once with respect to electric field.
                with respect to dipole field.
          Differentiating once with respect to nuclear coordinates.
 Keep R1 ints in memory in symmetry-blocked form, NReq=1651828.
          There are     1 degrees of freedom in the 1st order CPHF.  IDoFFX=0 NUNeed=     1.
 LinEq1:  Iter=  0 NonCon=     1 RMS=9.34D-03 Max=4.42D-02 NDo=     1
 AX will form     1 AO Fock derivatives at one time.
 LinEq1:  Iter=  1 NonCon=     1 RMS=3.08D-03 Max=1.93D-02 NDo=     1
 LinEq1:  Iter=  2 NonCon=     1 RMS=1.31D-03 Max=9.09D-03 NDo=     1
 LinEq1:  Iter=  3 NonCon=     1 RMS=1.90D-04 Max=1.20D-03 NDo=     1
 LinEq1:  Iter=  4 NonCon=     1 RMS=4.15D-05 Max=2.45D-04 NDo=     1
 LinEq1:  Iter=  5 NonCon=     1 RMS=1.20D-05 Max=6.51D-05 NDo=     1
 LinEq1:  Iter=  6 NonCon=     1 RMS=1.51D-06 Max=6.38D-06 NDo=     1
 LinEq1:  Iter=  7 NonCon=     1 RMS=2.71D-07 Max=1.49D-06 NDo=     1
 LinEq1:  Iter=  8 NonCon=     1 RMS=2.98D-08 Max=1.21D-07 NDo=     1
 LinEq1:  Iter=  9 NonCon=     1 RMS=2.78D-09 Max=1.17D-08 NDo=     1
 LinEq1:  Iter= 10 NonCon=     1 RMS=2.86D-10 Max=1.32D-09 NDo=     1
 LinEq1:  Iter= 11 NonCon=     0 RMS=3.04D-11 Max=1.66D-10 NDo=     1
 Linear equations converged to 1.000D-10 1.000D-09 after    11 iterations.
 End of Minotr F.D. properties file   721 does not exist.
 End of Minotr F.D. properties file   722 does not exist.
 End of Minotr F.D. properties file   788 does not exist.
 Calling FoFJK, ICntrl=  10002127 FMM=F ISym2X=1 I1Cent= 0 IOpClX= 0 NMat=1 NMatS=1 NMatT=0.
 ***** Axes restored to original set *****
 -------------------------------------------------------------------
 Center     Atomic                   Forces (Hartrees/Bohr)
 Number     Number              X              Y              Z
 -------------------------------------------------------------------
      1        8           0.000408066    0.000449644   -0.000000000
      2        1          -0.000360748    0.000023941   -0.000000000
      3       17          -0.000047318   -0.000473586    0.000000000
 -------------------------------------------------------------------
 Cartesian Forces:  Max     0.000473586 RMS     0.000284006

 GradGradGradGradGradGradGradGradGradGradGradGradGradGradGradGradGradGrad
 Berny optimization.
 Using GEDIIS/GDIIS optimizer.
 FormGI is forming the generalized inverse of G from B-inverse, IUseBI=4.
 Internal  Forces:  Max     0.000473423 RMS     0.000353929
 Search for a local minimum.
 Step number   4 out of a maximum of   20
 All quantities printed in internal units (Hartrees-Bohrs-Radians)
 Mixed Optimization -- En-DIIS/RFO-DIIS
 Update second derivatives using D2CorX and points    1    2    3    4
 DE= -9.78D-06 DEPred=-7.82D-06 R= 1.25D+00
 TightC=F SS=  1.41D+00  RLast= 7.35D-03 DXNew= 8.4853D-01 2.2036D-02
 Trust test= 1.25D+00 RLast= 7.35D-03 DXMaxT set to 5.05D-01
 The second derivative matrix:
                          R1        R2        A1
           R1           0.50628
           R2          -0.00003   0.20713
           A1           0.02904   0.05812   0.21697
 ITU=  1  1  1  0
 Use linear search instead of GDIIS.
     Eigenvalues ---    0.15262   0.26849   0.50927
 RFO step:  Lambda=-6.33562192D-08 EMin= 1.52615116D-01
 Quartic linear search produced a step of  0.33248.
 Iteration  1 RMS(Cart)=  0.00110497 RMS(Int)=  0.00000010
 Iteration  2 RMS(Cart)=  0.00000012 RMS(Int)=  0.00000000
 ClnCor:  largest displacement from symmetrization is 5.55D-16 for atom     2.
 Variable       Old X    -DE/DX   Delta X   Delta X   Delta X     New X
                                 (Linear)    (Quad)   (Total)
    R1        1.90211  -0.00035  -0.00037  -0.00034  -0.00071   1.90140
    R2        3.47890   0.00047   0.00241  -0.00017   0.00224   3.48114
    A1        1.75122   0.00017   0.00012   0.00016   0.00028   1.75150
         Item               Value     Threshold  Converged?
 Maximum Force            0.000473     0.000450     NO 
 RMS     Force            0.000354     0.000300     NO 
 Maximum Displacement     0.001460     0.001800     YES
 RMS     Displacement     0.001105     0.001200     YES
 Predicted change in Energy=-6.703467D-07
 GradGradGradGradGradGradGradGradGradGradGradGradGradGradGradGradGradGrad

                          Input orientation:                          
 ---------------------------------------------------------------------
 Center     Atomic      Atomic             Coordinates (Angstroms)
 Number     Number       Type             X           Y           Z
 ---------------------------------------------------------------------
      1          8           0       -0.018551    0.062041   -0.000000
      2          1           0        0.970674    0.245950   -0.000000
      3         17           0       -0.012823   -1.780091    0.000000
 ---------------------------------------------------------------------
                    Distance matrix (angstroms):
                    1          2          3
     1  O    0.000000
     2  H    1.006176   0.000000
     3  Cl   1.842141   2.252135   0.000000
 Stoichiometry    ClHO
 Framework group  CS[SG(ClHO)]
 Deg. of freedom     3
 Full point group                 CS      NOp   2
 Largest Abelian subgroup         CS      NOp   2
 Largest concise Abelian subgroup C1      NOp   1
                         Standard orientation:                         
 ---------------------------------------------------------------------
 Center     Atomic      Atomic             Coordinates (Angstroms)
 Number     Number       Type             X           Y           Z
 ---------------------------------------------------------------------
      1          8           0        0.038069    1.197522    0.000000
      2          1           0       -0.951724    1.378354    0.000000
      3         17           0        0.038069   -0.644619    0.000000
 ---------------------------------------------------------------------
 Rotational constants (GHZ):         551.6162791          12.8404630          12.5483636
 Standard basis: 3-21G (6D, 7F)
 There are    19 symmetry adapted cartesian basis functions of A'  symmetry.
 There are     5 symmetry adapted cartesian basis functions of A"  symmetry.
 There are    19 symmetry adapted basis functions of A'  symmetry.
 There are     5 symmetry adapted basis functions of A"  symmetry.
    24 basis functions,    45 primitive gaussians,    24 cartesian basis functions
    13 alpha electrons       13 beta electrons
       nuclear repulsion energy        47.2695108236 Hartrees.
 NAtoms=    3 NActive=    3 NUniq=    3 SFac= 1.00D+00 NAtFMM=   60 NAOKFM=F Big=F
 Integral buffers will be    131072 words long.
 Raffenetti 1 integral format.
 Two-electron integral symmetry is turned on.
 One-electron integrals computed using PRISM.
 NBasis=    24 RedAO= T EigKep=  9.86D-02  NBF=    19     5
 NBsUse=    24 1.00D-06 EigRej= -1.00D+00 NBFU=    19     5
 Initial guess from the checkpoint file:  "HOCl.chk"
 B after Tr=    -0.000000   -0.000000    0.000000
         Rot=    1.000000    0.000000    0.000000    0.000036 Ang=   0.00 deg.
 Initial guess orbital symmetries:
       Occupied  (A') (A') (A') (A') (A') (A") (A') (A') (A') (A")
                 (A') (A') (A")
       Virtual   (A') (A') (A') (A") (A') (A') (A') (A") (A') (A')
                 (A')
 Keep R1 ints in memory in symmetry-blocked form, NReq=1651261.
 Requested convergence on RMS density matrix=1.00D-08 within 128 cycles.
 Requested convergence on MAX density matrix=1.00D-06.
 Requested convergence on             energy=1.00D-06.
 No special actions if energy rises.
 SCF Done:  E(RHF) =  -532.242810586     A.U. after    9 cycles
            NFock=  9  Conv=0.31D-08     -V/T= 2.0014
 ExpMin= 1.67D-01 ExpMax= 1.38D+03 ExpMxC= 1.38D+03 IAcc=3 IRadAn=         5 AccDes= 0.00D+00
 HarFok:  IExCor=  205 AccDes= 0.00D+00 IRadAn=         5 IDoV=-2 UseB2=F ITyADJ=14
 ICtDFT= 12500011 ScaDFX=  1.000000  1.000000  1.000000  1.000000
 Range of M.O.s used for correlation:     7    24
 NBasis=    24 NAE=    13 NBE=    13 NFC=     6 NFV=     0
 NROrb=     18 NOA=     7 NOB=     7 NVA=    11 NVB=    11
 Fully direct method using O(ONN) memory.
 JobTyp=1 Pass  1:  I=   7 to  13 NPSUse=  8 ParTrn=T ParDer=T DoDerP=T.
 Spin components of T(2) and E(2):
     alpha-alpha T2 =       0.6426154646D-02 E2=     -0.2029580862D-01
     alpha-beta  T2 =       0.5265705673D-01 E2=     -0.1376306815D+00
     beta-beta   T2 =       0.6426154646D-02 E2=     -0.2029580862D-01
 ANorm=    0.1032235131D+01
 E2 =    -0.1782222988D+00 EUMP2 =    -0.53242103288521D+03
          IDoAtm=111
          Differentiating once with respect to electric field.
                with respect to dipole field.
          Differentiating once with respect to nuclear coordinates.
 Keep R1 ints in memory in symmetry-blocked form, NReq=1651828.
          There are     1 degrees of freedom in the 1st order CPHF.  IDoFFX=0 NUNeed=     1.
 LinEq1:  Iter=  0 NonCon=     1 RMS=9.35D-03 Max=4.43D-02 NDo=     1
 AX will form     1 AO Fock derivatives at one time.
 LinEq1:  Iter=  1 NonCon=     1 RMS=3.08D-03 Max=1.93D-02 NDo=     1
 LinEq1:  Iter=  2 NonCon=     1 RMS=1.31D-03 Max=9.11D-03 NDo=     1
 LinEq1:  Iter=  3 NonCon=     1 RMS=1.91D-04 Max=1.20D-03 NDo=     1
 LinEq1:  Iter=  4 NonCon=     1 RMS=4.17D-05 Max=2.46D-04 NDo=     1
 LinEq1:  Iter=  5 NonCon=     1 RMS=1.21D-05 Max=6.59D-05 NDo=     1
 LinEq1:  Iter=  6 NonCon=     1 RMS=1.52D-06 Max=6.41D-06 NDo=     1
 LinEq1:  Iter=  7 NonCon=     1 RMS=2.73D-07 Max=1.50D-06 NDo=     1
 LinEq1:  Iter=  8 NonCon=     1 RMS=2.99D-08 Max=1.21D-07 NDo=     1
 LinEq1:  Iter=  9 NonCon=     1 RMS=2.80D-09 Max=1.18D-08 NDo=     1
 LinEq1:  Iter= 10 NonCon=     1 RMS=2.88D-10 Max=1.35D-09 NDo=     1
 LinEq1:  Iter= 11 NonCon=     0 RMS=3.06D-11 Max=1.67D-10 NDo=     1
 Linear equations converged to 1.000D-10 1.000D-09 after    11 iterations.
 End of Minotr F.D. properties file   721 does not exist.
 End of Minotr F.D. properties file   722 does not exist.
 End of Minotr F.D. properties file   788 does not exist.
 Calling FoFJK, ICntrl=  10002127 FMM=F ISym2X=1 I1Cent= 0 IOpClX= 0 NMat=1 NMatS=1 NMatT=0.
 ***** Axes restored to original set *****
 -------------------------------------------------------------------
 Center     Atomic                   Forces (Hartrees/Bohr)
 Number     Number              X              Y              Z
 -------------------------------------------------------------------
      1        8           0.000030061    0.000002140   -0.000000000
      2        1          -0.000031037   -0.000007607    0.000000000
      3       17           0.000000976    0.000005467   -0.000000000
 -------------------------------------------------------------------
 Cartesian Forces:  Max     0.000031037 RMS     0.000014758

 GradGradGradGradGradGradGradGradGradGradGradGradGradGradGradGradGradGrad
 Berny optimization.
 Using GEDIIS/GDIIS optimizer.
 FormGI is forming the generalized inverse of G from B-inverse, IUseBI=4.
 Internal  Forces:  Max     0.000031902 RMS     0.000018792
 Search for a local minimum.
 Step number   5 out of a maximum of   20
 All quantities printed in internal units (Hartrees-Bohrs-Radians)
 Mixed Optimization -- En-DIIS/RFO-DIIS
 Swapping is turned off.
 Update second derivatives using D2CorX and points    2    3    4    5
 DE= -6.82D-07 DEPred=-6.70D-07 R= 1.02D+00
 Trust test= 1.02D+00 RLast= 2.36D-03 DXMaxT set to 5.05D-01
 The second derivative matrix:
                          R1        R2        A1
           R1           0.48896
           R2           0.00828   0.20889
           A1           0.03613   0.06199   0.21518
 ITU=  0  1  1  1
     Eigenvalues ---    0.14889   0.26954   0.49461
 En-DIIS/RFO-DIIS/Sim-DIIS IScMMF=       -3 using points:     5    4
 RFO step:  Lambda= 0.00000000D+00.
 DidBck=F Rises=F RFO-DIIS coefs:    0.99868    0.00132
 Iteration  1 RMS(Cart)=  0.00003149 RMS(Int)=  0.00000000
 Iteration  2 RMS(Cart)=  0.00000000 RMS(Int)=  0.00000000
 ClnCor:  largest displacement from symmetrization is 4.86D-16 for atom     1.
 Variable       Old X    -DE/DX   Delta X   Delta X   Delta X     New X
                                 (Linear)    (Quad)   (Total)
    R1        1.90140  -0.00003   0.00000  -0.00007  -0.00006   1.90133
    R2        3.48114  -0.00001  -0.00000  -0.00002  -0.00002   3.48112
    A1        1.75150  -0.00000  -0.00000   0.00000   0.00000   1.75150
         Item               Value     Threshold  Converged?
 Maximum Force            0.000032     0.000450     YES
 RMS     Force            0.000019     0.000300     YES
 Maximum Displacement     0.000035     0.001800     YES
 RMS     Displacement     0.000031     0.001200     YES
 Predicted change in Energy=-1.099176D-09
 Optimization completed.
    -- Stationary point found.
                           ----------------------------
                           !   Optimized Parameters   !
                           ! (Angstroms and Degrees)  !
 --------------------------                            --------------------------
 ! Name  Definition              Value          Derivative Info.                !
 --------------------------------------------------------------------------------
 ! R1    R(1,2)                  1.0062         -DE/DX =    0.0                 !
 ! R2    R(1,3)                  1.8421         -DE/DX =    0.0                 !
 ! A1    A(2,1,3)              100.3536         -DE/DX =    0.0                 !
 --------------------------------------------------------------------------------
 GradGradGradGradGradGradGradGradGradGradGradGradGradGradGradGradGradGrad

                          Input orientation:                          
 ---------------------------------------------------------------------
 Center     Atomic      Atomic             Coordinates (Angstroms)
 Number     Number       Type             X           Y           Z
 ---------------------------------------------------------------------
      1          8           0       -0.018551    0.062041   -0.000000
      2          1           0        0.970674    0.245950   -0.000000
      3         17           0       -0.012823   -1.780091    0.000000
 ---------------------------------------------------------------------
                    Distance matrix (angstroms):
                    1          2          3
     1  O    0.000000
     2  H    1.006176   0.000000
     3  Cl   1.842141   2.252135   0.000000
 Stoichiometry    ClHO
 Framework group  CS[SG(ClHO)]
 Deg. of freedom     3
 Full point group                 CS      NOp   2
 Largest Abelian subgroup         CS      NOp   2
 Largest concise Abelian subgroup C1      NOp   1
                         Standard orientation:                         
 ---------------------------------------------------------------------
 Center     Atomic      Atomic             Coordinates (Angstroms)
 Number     Number       Type             X           Y           Z
 ---------------------------------------------------------------------
      1          8           0        0.038069    1.197522    0.000000
      2          1           0       -0.951724    1.378354    0.000000
      3         17           0        0.038069   -0.644619    0.000000
 ---------------------------------------------------------------------
 Rotational constants (GHZ):         551.6162791          12.8404630          12.5483636

 **********************************************************************

            Population analysis using the SCF Density.

 **********************************************************************

 Orbital symmetries:
       Occupied  (A') (A') (A') (A') (A') (A") (A') (A') (A') (A")
                 (A') (A') (A")
       Virtual   (A') (A') (A') (A") (A') (A') (A') (A") (A') (A')
                 (A')
 The electronic state is 1-A'.
 Alpha  occ. eigenvalues -- -104.14916 -20.55916 -10.53937  -8.00284  -7.99884
 Alpha  occ. eigenvalues --   -7.99864  -1.37436  -1.06207  -0.68171  -0.59008
 Alpha  occ. eigenvalues --   -0.54923  -0.47214  -0.45748
 Alpha virt. eigenvalues --    0.06983   0.25149   0.68906   0.78608   0.78700
 Alpha virt. eigenvalues --    0.81805   1.17417   1.72952   1.83944   1.94944
 Alpha virt. eigenvalues --    2.92795
          Condensed to atoms (all electrons):
               1          2          3
     1  O    8.138476   0.237170   0.117266
     2  H    0.237170   0.379941  -0.035057
     3  Cl   0.117266  -0.035057  16.842825
 Mulliken charges:
               1
     1  O   -0.492911
     2  H    0.417946
     3  Cl   0.074966
 Sum of Mulliken charges =  -0.00000
 Mulliken charges with hydrogens summed into heavy atoms:
               1
     1  O   -0.074966
     3  Cl   0.074966
 Electronic spatial extent (au):  <R**2>=            115.6719
 Charge=             -0.0000 electrons
 Dipole moment (field-independent basis, Debye):
    X=             -2.1476    Y=              0.5293    Z=             -0.0000  Tot=              2.2119
 Quadrupole moment (field-independent basis, Debye-Ang):
   XX=            -16.8650   YY=            -16.9103   ZZ=            -19.1224
   XY=             -3.0094   XZ=              0.0000   YZ=             -0.0000
 Traceless Quadrupole moment (field-independent basis, Debye-Ang):
   XX=              0.7676   YY=              0.7223   ZZ=             -1.4898
   XY=             -3.0094   XZ=              0.0000   YZ=             -0.0000
 Octapole moment (field-independent basis, Debye-Ang**2):
  XXX=             -2.6865  YYY=              2.8062  ZZZ=             -0.0000  XYY=             -4.4472
  XXY=              4.2518  XXZ=             -0.0000  XZZ=             -0.3074  YZZ=              1.2415
  YYZ=             -0.0000  XYZ=              0.0000
 Hexadecapole moment (field-independent basis, Debye-Ang**3):
 XXXX=            -18.1232 YYYY=            -88.3491 ZZZZ=            -18.0688 XXXY=             -0.6641
 XXXZ=              0.0000 YYYX=             -3.9665 YYYZ=              0.0000 ZZZX=             -0.0000
 ZZZY=              0.0000 XXYY=            -16.3463 XXZZ=             -6.3604 YYZZ=            -19.9884
 XXYZ=              0.0000 YYXZ=              0.0000 ZZXY=              0.5850
 N-N= 4.726951082360D+01 E-N=-1.361656680143D+03  KE= 5.315021790909D+02
 Symmetry A'   KE= 4.811707753144D+02
 Symmetry A"   KE= 5.033140377650D+01
 Unable to Open any file for archive entry.
 1\1\GINC-BS001\FOpt\RMP2-FC\3-21G\Cl1H1O1\PNATT\14-Aug-2026\0\\# opt f
 req=hpmodes mp2/3-21g geom=connectivity\\HOCl - size1_Cs\\0,1\O,-0.018
 5512094,0.0620408033,0.\H,0.9706744292,0.2459504314,0.\Cl,-0.012823219
 8,-1.7800912348,0.\\Version=ES64L-G16RevC.01\State=1-A'\HF=-532.242810
 6\MP2=-532.4210329\RMSD=3.061e-09\RMSF=1.476e-05\Dipole=0.7710848,0.13
 37106,0.\PG=CS [SG(Cl1H1O1)]\\@
 The archive entry for this job was punched.


 DO NOT LET SELFISH MEN OR GREEDY INTERESTS SKIN YOUR COUNTRY OF ITS
 BEAUTY, ITS RICHES, OR ITS ROMANCE. -- THEODORE ROOSEVELT
 Job cpu time:       0 days  0 hours  0 minutes 42.2 seconds.
 Elapsed time:       0 days  0 hours  0 minutes  5.5 seconds.
 File lengths (MBytes):  RWF=      6 Int=      0 D2E=      0 Chk=      1 Scr=      1
 Normal termination of Gaussian 16 at Fri Aug 14 18:18:40 2026.
 Link1:  Proceeding to internal job step number  2.
 -------------------------------------------------------------------
 #N Geom=AllCheck Guess=TCheck SCRF=Check GenChk RMP2(FC)/3-21G Freq
 -------------------------------------------------------------------
 1/10=4,29=7,30=1,38=1,40=1/1,3;
 2/12=2,40=1/2;
 3/5=5,11=1,14=-4,25=1,30=1,70=2,71=2,116=1,140=1/1,2,3;
 4/5=101/1;
 5/5=2,38=6,98=1/2;
 8/6=3,8=1,10=1,19=11,30=-1/1;
 9/15=3,16=-3/6;
 11/6=1,8=1,15=11,17=12,24=-1,27=1,28=-2,29=300,32=6,42=3/1,2,10;
 10/6=2,21=1/2;
 8/6=4,8=1,10=1,19=11,30=-1/11,4;
 10/5=1,20=4/2;
 11/12=2,14=11,16=1,17=2,28=-2,42=3,76=2/2,10,12;
 6/7=2,8=2,9=2,10=2/1;
 7/8=11,10=1,12=2,25=1,44=2/1,2,3,16;
 1/10=4,30=1/3;
 99//99;
 Structure from the checkpoint file:  "HOCl.chk"
 ---------------
 HOCl - size1_Cs
 ---------------
 Charge =  0 Multiplicity = 1
 Redundant internal coordinates found in file.  (old form).
 O,0,-0.0185512094,0.0620408033,0.
 H,0,0.9706744292,0.2459504314,0.
 Cl,0,-0.0128232198,-1.7800912348,0.
 Recover connectivity data from disk.

 GradGradGradGradGradGradGradGradGradGradGradGradGradGradGradGradGradGrad
 Berny optimization.
 Initialization pass.
                           ----------------------------
                           !    Initial Parameters    !
                           ! (Angstroms and Degrees)  !
 --------------------------                            --------------------------
 ! Name  Definition              Value          Derivative Info.                !
 --------------------------------------------------------------------------------
 ! R1    R(1,2)                  1.0062         calculate D2E/DX2 analytically  !
 ! R2    R(1,3)                  1.8421         calculate D2E/DX2 analytically  !
 ! A1    A(2,1,3)              100.3536         calculate D2E/DX2 analytically  !
 --------------------------------------------------------------------------------
 Trust Radius=3.00D-01 FncErr=1.00D-07 GrdErr=1.00D-07 EigMax=2.50D+02 EigMin=1.00D-04
 Number of steps in this run=      2 maximum allowed number of steps=      2.
 GradGradGradGradGradGradGradGradGradGradGradGradGradGradGradGradGradGrad

                          Input orientation:                          
 ---------------------------------------------------------------------
 Center     Atomic      Atomic             Coordinates (Angstroms)
 Number     Number       Type             X           Y           Z
 ---------------------------------------------------------------------
      1          8           0       -0.018551    0.062041   -0.000000
      2          1           0        0.970674    0.245950   -0.000000
      3         17           0       -0.012823   -1.780091    0.000000
 ---------------------------------------------------------------------
                    Distance matrix (angstroms):
                    1          2          3
     1  O    0.000000
     2  H    1.006176   0.000000
     3  Cl   1.842141   2.252135   0.000000
 Stoichiometry    ClHO
 Framework group  CS[SG(ClHO)]
 Deg. of freedom     3
 Full point group                 CS      NOp   2
 Largest Abelian subgroup         CS      NOp   2
 Largest concise Abelian subgroup C1      NOp   1
                         Standard orientation:                         
 ---------------------------------------------------------------------
 Center     Atomic      Atomic             Coordinates (Angstroms)
 Number     Number       Type             X           Y           Z
 ---------------------------------------------------------------------
      1          8           0        0.038069    1.197522    0.000000
      2          1           0       -0.951724    1.378354    0.000000
      3         17           0        0.038069   -0.644619    0.000000
 ---------------------------------------------------------------------
 Rotational constants (GHZ):         551.6162791          12.8404630          12.5483636
 Standard basis: 3-21G (6D, 7F)
 There are    19 symmetry adapted cartesian basis functions of A'  symmetry.
 There are     5 symmetry adapted cartesian basis functions of A"  symmetry.
 There are    19 symmetry adapted basis functions of A'  symmetry.
 There are     5 symmetry adapted basis functions of A"  symmetry.
    24 basis functions,    45 primitive gaussians,    24 cartesian basis functions
    13 alpha electrons       13 beta electrons
       nuclear repulsion energy        47.2695108236 Hartrees.
 NAtoms=    3 NActive=    3 NUniq=    3 SFac= 1.00D+00 NAtFMM=   60 NAOKFM=F Big=F
 Integral buffers will be    131072 words long.
 Raffenetti 1 integral format.
 Two-electron integral symmetry is turned on.
 One-electron integrals computed using PRISM.
 NBasis=    24 RedAO= T EigKep=  9.86D-02  NBF=    19     5
 NBsUse=    24 1.00D-06 EigRej= -1.00D+00 NBFU=    19     5
 Initial guess from the checkpoint file:  "HOCl.chk"
 B after Tr=     0.000000    0.000000   -0.000000
         Rot=    1.000000    0.000000   -0.000000    0.000000 Ang=   0.00 deg.
 Initial guess orbital symmetries:
       Occupied  (A') (A') (A') (A') (A') (A") (A') (A') (A') (A")
                 (A') (A') (A")
       Virtual   (A') (A') (A') (A") (A') (A') (A') (A") (A') (A')
                 (A')
 Keep R1 ints in memory in symmetry-blocked form, NReq=1651261.
 Requested convergence on RMS density matrix=1.00D-08 within 128 cycles.
 Requested convergence on MAX density matrix=1.00D-06.
 Requested convergence on             energy=1.00D-06.
 No special actions if energy rises.
 SCF Done:  E(RHF) =  -532.242810586     A.U. after    1 cycles
            NFock=  1  Conv=0.66D-09     -V/T= 2.0014
 ExpMin= 1.67D-01 ExpMax= 1.38D+03 ExpMxC= 1.38D+03 IAcc=3 IRadAn=         5 AccDes= 0.00D+00
 HarFok:  IExCor=  205 AccDes= 0.00D+00 IRadAn=         5 IDoV=-2 UseB2=F ITyADJ=14
 ICtDFT= 12500011 ScaDFX=  1.000000  1.000000  1.000000  1.000000
 Range of M.O.s used for correlation:     7    24
 NBasis=    24 NAE=    13 NBE=    13 NFC=     6 NFV=     0
 NROrb=     18 NOA=     7 NOB=     7 NVA=    11 NVB=    11
 Disk-based method using ON**2 memory for  7 occupieds at a time.
 Permanent disk used for amplitudes=       24739 words.
 Estimated scratch disk usage=      888568 words.
 Actual    scratch disk usage=      888568 words.
 JobTyp=1 Pass  1:  I=   7 to  13 NPSUse=  8 ParTrn=T ParDer=T DoDerP=T.
 (rs|ai) integrals will be sorted in core.
 Spin components of T(2) and E(2):
     alpha-alpha T2 =       0.6426154648D-02 E2=     -0.2029580863D-01
     alpha-beta  T2 =       0.5265705667D-01 E2=     -0.1376306815D+00
     beta-beta   T2 =       0.6426154648D-02 E2=     -0.2029580863D-01
 ANorm=    0.1032235131D+01
 E2 =    -0.1782222988D+00 EUMP2 =    -0.53242103288523D+03
 G2DrvN: will do     4 centers at a time, making    1 passes.
 Calling FoFCou, ICntrl=  3107 FMM=F I1Cent=   0 AccDes= 0.00D+00.
 End of G2Drv F.D. properties file   721 does not exist.
 End of G2Drv F.D. properties file   722 does not exist.
 End of G2Drv F.D. properties file   788 does not exist.
          IDoAtm=111
          Differentiating once with respect to electric field.
                with respect to dipole field.
          Differentiating once with respect to nuclear coordinates.
 Keep R1 ints in memory in symmetry-blocked form, NReq=1651786.
          There are    12 degrees of freedom in the 1st order CPHF.  IDoFFX=6 NUNeed=    12.
      9 vectors produced by pass  0 Test12= 1.19D-15 8.33D-09 XBig12= 8.51D+00 2.74D+00.
 AX will form     9 AO Fock derivatives at one time.
      9 vectors produced by pass  1 Test12= 1.19D-15 8.33D-09 XBig12= 3.91D-01 3.35D-01.
      9 vectors produced by pass  2 Test12= 1.19D-15 8.33D-09 XBig12= 1.75D-02 7.59D-02.
      9 vectors produced by pass  3 Test12= 1.19D-15 8.33D-09 XBig12= 7.51D-05 3.68D-03.
      9 vectors produced by pass  4 Test12= 1.19D-15 8.33D-09 XBig12= 2.53D-07 1.35D-04.
      9 vectors produced by pass  5 Test12= 1.19D-15 8.33D-09 XBig12= 8.87D-10 1.09D-05.
      3 vectors produced by pass  6 Test12= 1.19D-15 8.33D-09 XBig12= 2.86D-12 6.34D-07.
      1 vectors produced by pass  7 Test12= 1.19D-15 8.33D-09 XBig12= 2.87D-15 1.46D-08.
 InvSVY:  IOpt=1 It=  1 EMax= 1.11D-15
 Solved reduced A of dimension    58 with     9 vectors.
 End of Minotr F.D. properties file   721 does not exist.
 End of Minotr F.D. properties file   722 does not exist.
 End of Minotr F.D. properties file   788 does not exist.
 MDV=  1073741824.
 Form MO integral derivatives with frozen-active canonical formalism.
 Discarding MO integrals.
 Reordered first order wavefunction length =        40898
 In DefCFB: NBatch=  1 ICI= 13 ICA= 11 LFMax= 13
            Large arrays: LIAPS=      329472 LIARS=      312312 words.
 Semi-Direct transformation.
 ModeAB=           2 MOrb=            13 LenV=    1073614951
 LASXX=        46839 LTotXX=       46839 LenRXX=       46839
 LTotAB=       57187 MaxLAS=       93600 LenRXY=       93600
 NonZer=      102648 LenScr=      785920 LnRSAI=           0
 LnScr1=           0 LExtra=           0 Total=       926359
 MaxDsk=          -1 SrtSym=           F ITran=            4
 JobTyp=0 Pass  1:  I=   1 to  13.
 (rs|ai) integrals will be sorted in core.
 Spin components of T(2) and E(2):
     alpha-alpha T2 =       0.6426154648D-02 E2=     -0.2029580863D-01
     alpha-beta  T2 =       0.5265705667D-01 E2=     -0.1376306815D+00
     beta-beta   T2 =       0.6426154648D-02 E2=     -0.2029580863D-01
 ANorm=    0.1459800922D+01
 E2 =    -0.1782222988D+00 EUMP2 =    -0.53242103288523D+03
          IDoAtm=111
          Differentiating once with respect to electric field.
                with respect to dipole field.
          Differentiating once with respect to nuclear coordinates.
          There are     1 degrees of freedom in the 1st order CPHF.  IDoFFX=0 NUNeed=     1.
 LinEq1:  Iter=  0 NonCon=     1 RMS=9.35D-03 Max=4.43D-02 NDo=     1
 LinEq1:  Iter=  1 NonCon=     1 RMS=3.08D-03 Max=1.93D-02 NDo=     1
 LinEq1:  Iter=  2 NonCon=     1 RMS=1.31D-03 Max=9.11D-03 NDo=     1
 LinEq1:  Iter=  3 NonCon=     1 RMS=1.91D-04 Max=1.20D-03 NDo=     1
 LinEq1:  Iter=  4 NonCon=     1 RMS=4.17D-05 Max=2.46D-04 NDo=     1
 LinEq1:  Iter=  5 NonCon=     1 RMS=1.21D-05 Max=6.59D-05 NDo=     1
 LinEq1:  Iter=  6 NonCon=     1 RMS=1.52D-06 Max=6.41D-06 NDo=     1
 LinEq1:  Iter=  7 NonCon=     1 RMS=2.73D-07 Max=1.50D-06 NDo=     1
 LinEq1:  Iter=  8 NonCon=     1 RMS=2.99D-08 Max=1.21D-07 NDo=     1
 LinEq1:  Iter=  9 NonCon=     1 RMS=2.80D-09 Max=1.18D-08 NDo=     1
 LinEq1:  Iter= 10 NonCon=     1 RMS=2.88D-10 Max=1.35D-09 NDo=     1
 LinEq1:  Iter= 11 NonCon=     0 RMS=3.06D-11 Max=1.67D-10 NDo=     1
 Linear equations converged to 1.000D-10 1.000D-09 after    11 iterations.
 End of Minotr F.D. properties file   721 does not exist.
 End of Minotr F.D. properties file   722 does not exist.
 End of Minotr F.D. properties file   788 does not exist.
 Symmetrizing basis deriv contribution to polar:
 IMax=3 JMax=2 DiffMx= 0.00D+00
 G2DrvN: will do     4 centers at a time, making    1 passes.
 Calling FoFCou, ICntrl=  3107 FMM=F I1Cent=   0 AccDes= 0.00D+00.
 End of G2Drv F.D. properties file   721 does not exist.
 End of G2Drv F.D. properties file   722 does not exist.
 End of G2Drv F.D. properties file   788 does not exist.
 R2 and R3 integrals will be kept in memory, NReq=      890300.
 DD1Dir will call FoFMem   1 times, MxPair=       182
 NAB=    91 NAA=     0 NBB=     0.
 Discarding MO integrals.

 **********************************************************************

            Population analysis using the SCF Density.

 **********************************************************************

 Orbital symmetries:
       Occupied  (A') (A') (A') (A') (A') (A") (A') (A') (A') (A")
                 (A') (A') (A")
       Virtual   (A') (A') (A') (A") (A') (A') (A') (A") (A') (A')
                 (A')
 The electronic state is 1-A'.
 Alpha  occ. eigenvalues -- -104.14916 -20.55916 -10.53937  -8.00284  -7.99884
 Alpha  occ. eigenvalues --   -7.99864  -1.37436  -1.06207  -0.68171  -0.59008
 Alpha  occ. eigenvalues --   -0.54923  -0.47214  -0.45748
 Alpha virt. eigenvalues --    0.06983   0.25149   0.68906   0.78608   0.78700
 Alpha virt. eigenvalues --    0.81805   1.17417   1.72952   1.83944   1.94944
 Alpha virt. eigenvalues --    2.92795
          Condensed to atoms (all electrons):
               1          2          3
     1  O    8.138476   0.237170   0.117266
     2  H    0.237170   0.379941  -0.035057
     3  Cl   0.117266  -0.035057  16.842825
 Mulliken charges:
               1
     1  O   -0.492911
     2  H    0.417946
     3  Cl   0.074966
 Sum of Mulliken charges =   0.00000
 Mulliken charges with hydrogens summed into heavy atoms:
               1
     1  O   -0.074966
     3  Cl   0.074966
 APT charges:
               1
     1  O   -0.164760
     2  H    0.230147
     3  Cl  -0.065387
 Sum of APT charges =  -0.00000
 APT charges with hydrogens summed into heavy atoms:
               1
     1  O    0.065387
     3  Cl  -0.065387
 Electronic spatial extent (au):  <R**2>=            115.6719
 Charge=              0.0000 electrons
 Dipole moment (field-independent basis, Debye):
    X=             -2.1476    Y=              0.5293    Z=              0.0000  Tot=              2.2119
 Quadrupole moment (field-independent basis, Debye-Ang):
   XX=            -16.8650   YY=            -16.9103   ZZ=            -19.1224
   XY=             -3.0094   XZ=              0.0000   YZ=              0.0000
 Traceless Quadrupole moment (field-independent basis, Debye-Ang):
   XX=              0.7676   YY=              0.7223   ZZ=             -1.4898
   XY=             -3.0094   XZ=              0.0000   YZ=              0.0000
 Octapole moment (field-independent basis, Debye-Ang**2):
  XXX=             -2.6865  YYY=              2.8062  ZZZ=             -0.0000  XYY=             -4.4472
  XXY=              4.2518  XXZ=             -0.0000  XZZ=             -0.3074  YZZ=              1.2415
  YYZ=             -0.0000  XYZ=              0.0000
 Hexadecapole moment (field-independent basis, Debye-Ang**3):
 XXXX=            -18.1232 YYYY=            -88.3491 ZZZZ=            -18.0688 XXXY=             -0.6641
 XXXZ=             -0.0000 YYYX=             -3.9665 YYYZ=              0.0000 ZZZX=             -0.0000
 ZZZY=              0.0000 XXYY=            -16.3463 XXZZ=             -6.3604 YYZZ=            -19.9884
 XXYZ=              0.0000 YYXZ=              0.0000 ZZXY=              0.5850
 N-N= 4.726951082360D+01 E-N=-1.361656680112D+03  KE= 5.315021790794D+02
 Symmetry A'   KE= 4.811707753076D+02
 Symmetry A"   KE= 5.033140377186D+01
  Exact polarizability:       7.839      -2.279      21.719       0.000      -0.000       3.271
 Approx polarizability:       5.788      -0.765      21.888       0.000      -0.000       2.373
 Calling FoFJK, ICntrl=  10100127 FMM=F ISym2X=1 I1Cent= 0 IOpClX= 0 NMat=1 NMatS=1 NMatT=0.
 Full mass-weighted force constant matrix:
 Low frequencies ---   -0.0013    0.0030    0.0031    1.8684    3.8258   21.4753
 Low frequencies ---  667.6406 1256.0041 3368.5426
 Diagonal vibrational polarizability:
        0.0130716       0.9431555       0.0000000
 Harmonic frequencies (cm**-1), IR intensities (KM/Mole), Raman scattering
 activities (A**4/AMU), depolarization ratios for plane and unpolarized
 incident light, reduced masses (AMU), force constants (mDyne/A),
 and normal coordinates:
                           1         2         3
                          A'        A'        A'
       Frequencies ---   667.6406 1256.0041 3368.5426
    Reduced masses ---    17.2105    1.0682    1.0676
   Force constants ---     4.5199    0.9928    7.1375
    IR Intensities ---     0.5025   53.1597    8.0306
 Coord Atom Element:
   1     1     8          0.00088  -0.04409  -0.06138
   2     1     8          0.85015  -0.03380   0.01478
   3     1     8         -0.00000   0.00000  -0.00000
   1     2     1         -0.16190   0.15467   0.97981
   2     2     1          0.30478   0.98619  -0.18968
   3     2     1         -0.00000  -0.00000   0.00000
   1     3    17          0.00426   0.01571  -0.00017
   2     3    17         -0.39765  -0.01296  -0.00130
   3     3    17          0.00000   0.00000   0.00000
 Harmonic frequencies (cm**-1), IR intensities (KM/Mole), Raman scattering
 activities (A**4/AMU), depolarization ratios for plane and unpolarized
 incident light, reduced masses (AMU), force constants (mDyne/A),
 and normal coordinates:
                      1                      2                      3
                     A'                     A'                     A'
 Frequencies --    667.6406              1256.0041              3368.5426
 Red. masses --     17.2105                 1.0682                 1.0676
 Frc consts  --      4.5199                 0.9928                 7.1375
 IR Inten    --      0.5025                53.1597                 8.0306
  Atom  AN      X      Y      Z        X      Y      Z        X      Y      Z
     1   8     0.00   0.85  -0.00    -0.04  -0.03   0.00    -0.06   0.01  -0.00
     2   1    -0.16   0.30  -0.00     0.15   0.99  -0.00     0.98  -0.19   0.00
     3  17     0.00  -0.40   0.00     0.02  -0.01   0.00    -0.00  -0.00   0.00

 -------------------
 - Thermochemistry -
 -------------------
 Temperature   298.150 Kelvin.  Pressure   1.00000 Atm.
 Atom     1 has atomic number  8 and mass  15.99491
 Atom     2 has atomic number  1 and mass   1.00783
 Atom     3 has atomic number 17 and mass  34.96885
 Molecular mass:    51.97159 amu.
 Principal axes and moments of inertia in atomic units:
                           1         2         3
     Eigenvalues --     3.27173 140.55110 143.82283
           X           -0.03679   0.99932   0.00000
           Y            0.99932   0.03679   0.00000
           Z           -0.00000  -0.00000   1.00000
 This molecule is an asymmetric top.
 Rotational symmetry number  1.
 Rotational temperatures (Kelvin)     26.47341     0.61625     0.60223
 Rotational constants (GHZ):         551.61628    12.84046    12.54836
 Zero-point vibrational energy      31654.3 (Joules/Mol)
                                    7.56556 (Kcal/Mol)
 Vibrational temperatures:    960.59  1807.11  4846.58
          (Kelvin)
 
 Zero-point correction=                           0.012056 (Hartree/Particle)
 Thermal correction to Energy=                    0.015029
 Thermal correction to Enthalpy=                  0.015973
 Thermal correction to Gibbs Free Energy=        -0.011099
 Sum of electronic and zero-point Energies=           -532.408976
 Sum of electronic and thermal Energies=              -532.406004
 Sum of electronic and thermal Enthalpies=            -532.405060
 Sum of electronic and thermal Free Energies=         -532.432132
 
                     E (Thermal)             CV                S
                      KCal/Mol        Cal/Mol-Kelvin    Cal/Mol-Kelvin
 Total                    9.431              7.025             56.978
 Electronic               0.000              0.000              0.000
 Translational            0.889              2.981             37.767
 Rotational               0.889              2.981             18.831
 Vibrational              7.653              1.064              0.380
                       Q            Log10(Q)             Ln(Q)
 Total Bot       0.127427D+06          5.105263         11.755302
 Total V=0       0.447567D+11         10.650858         24.524507
 Vib (Bot)       0.297231D-05         -5.526906        -12.726171
 Vib (V=0)       0.104397D+01          0.018690          0.043034
 Electronic      0.100000D+01          0.000000          0.000000
 Translational   0.147266D+08          7.168103         16.505167
 Rotational      0.291116D+04          3.464066          7.976306
 ***** Axes restored to original set *****
 -------------------------------------------------------------------
 Center     Atomic                   Forces (Hartrees/Bohr)
 Number     Number              X              Y              Z
 -------------------------------------------------------------------
      1        8           0.000030064    0.000002139   -0.000000000
      2        1          -0.000031037   -0.000007607    0.000000000
      3       17           0.000000973    0.000005468   -0.000000000
 -------------------------------------------------------------------
 Cartesian Forces:  Max     0.000031037 RMS     0.000014759
 FormGI is forming the generalized inverse of G from B-inverse, IUseBI=4.

 GradGradGradGradGradGradGradGradGradGradGradGradGradGradGradGradGradGrad
 Berny optimization.
 Internal  Forces:  Max     0.000031903 RMS     0.000018793
 Search for a local minimum.
 Step number   1 out of a maximum of    2
 All quantities printed in internal units (Hartrees-Bohrs-Radians)
 Second derivative matrix not updated -- analytic derivatives used.
 The second derivative matrix:
                          R1        R2        A1
           R1           0.40694
           R2          -0.01474   0.20182
           A1           0.01095   0.05515   0.20476
 ITU=  0
     Eigenvalues ---    0.14685   0.25842   0.40826
 Angle between quadratic step and forces=  12.53 degrees.
 Linear search not attempted -- first point.
 Iteration  1 RMS(Cart)=  0.00004108 RMS(Int)=  0.00000000
 Iteration  2 RMS(Cart)=  0.00000000 RMS(Int)=  0.00000000
 ClnCor:  largest displacement from symmetrization is 4.86D-16 for atom     1.
 Variable       Old X    -DE/DX   Delta X   Delta X   Delta X     New X
                                 (Linear)    (Quad)   (Total)
    R1        1.90140  -0.00003   0.00000  -0.00008  -0.00008   1.90132
    R2        3.48114  -0.00001   0.00000  -0.00003  -0.00003   3.48111
    A1        1.75150  -0.00000   0.00000  -0.00000  -0.00000   1.75150
         Item               Value     Threshold  Converged?
 Maximum Force            0.000032     0.000450     YES
 RMS     Force            0.000019     0.000300     YES
 Maximum Displacement     0.000044     0.001800     YES
 RMS     Displacement     0.000041     0.001200     YES
 Predicted change in Energy=-1.360933D-09
 Optimization completed.
    -- Stationary point found.
                           ----------------------------
                           !   Optimized Parameters   !
                           ! (Angstroms and Degrees)  !
 --------------------------                            --------------------------
 ! Name  Definition              Value          Derivative Info.                !
 --------------------------------------------------------------------------------
 ! R1    R(1,2)                  1.0062         -DE/DX =    0.0                 !
 ! R2    R(1,3)                  1.8421         -DE/DX =    0.0                 !
 ! A1    A(2,1,3)              100.3536         -DE/DX =    0.0                 !
 --------------------------------------------------------------------------------
 GradGradGradGradGradGradGradGradGradGradGradGradGradGradGradGradGradGrad


 ----------------------------------------------------------------------

 Electric dipole moment (input orientation):
 (Debye = 10**-18 statcoulomb cm , SI units = C m)
                  (au)            (Debye)         (10**-30 SI)
   Tot        0.782592D+00      0.198915D+01      0.663509D+01
   x          0.771085D+00      0.195990D+01      0.653753D+01
   y          0.133711D+00      0.339859D+00      0.113365D+01
   z          0.000000D+00      0.000000D+00      0.000000D+00

 Dipole polarizability, Alpha (input orientation).
 (esu units = cm**3 , SI units = C**2 m**2 J**-1)
 Alpha(0;0):
               (au)            (10**-24 esu)      (10**-40 SI)
   iso        0.109430D+02      0.162158D+01      0.180425D+01
   aniso      0.171024D+02      0.253431D+01      0.281980D+01
   xx         0.782481D+01      0.115952D+01      0.129014D+01
   yx         0.223563D+01      0.331286D+00      0.368606D+00
   yy         0.217328D+02      0.322047D+01      0.358325D+01
   zx         0.000000D+00      0.000000D+00      0.000000D+00
   zy         0.000000D+00      0.000000D+00      0.000000D+00
   zz         0.327129D+01      0.484755D+00      0.539363D+00

 ----------------------------------------------------------------------

 Dipole orientation:
     8         -0.02076002          0.11971926         -0.01451004
     1         -0.02469588          0.14241660          1.88674746
    17          0.56558196         -3.26160764         -0.59861639

 Electric dipole moment (dipole orientation):
 (Debye = 10**-18 statcoulomb cm , SI units = C m)
                  (au)            (Debye)         (10**-30 SI)
   Tot        0.782592D+00      0.198915D+01      0.663509D+01
   x          0.000000D+00      0.000000D+00      0.000000D+00
   y          0.000000D+00      0.000000D+00      0.000000D+00
   z          0.782592D+00      0.198915D+01      0.663509D+01

 Dipole polarizability, Alpha (dipole orientation).
 (esu units = cm**3 , SI units = C**2 m**2 J**-1)
 Alpha(0;0):
               (au)            (10**-24 esu)      (10**-40 SI)
   iso        0.109430D+02      0.162158D+01      0.180425D+01
   aniso      0.171024D+02      0.253431D+01      0.281980D+01
   xx         0.377639D+01      0.559603D+00      0.622643D+00
   yx        -0.291282D+01     -0.431635D+00     -0.480259D+00
   yy         0.200690D+02      0.297391D+01      0.330893D+01
   zx        -0.759700D+00     -0.112576D+00     -0.125258D+00
   zy         0.438105D+01      0.649204D+00      0.722337D+00
   zz         0.898352D+01      0.133122D+01      0.148118D+01

 ----------------------------------------------------------------------
 Unable to Open any file for archive entry.
 1\1\GINC-BS001\Freq\RMP2-FC\3-21G\Cl1H1O1\PNATT\14-Aug-2026\0\\#N Geom
 =AllCheck Guess=TCheck SCRF=Check GenChk RMP2(FC)/3-21G Freq\\HOCl - s
 ize1_Cs\\0,1\O,-0.0185512094,0.0620408033,0.\H,0.9706744292,0.24595043
 14,0.\Cl,-0.0128232198,-1.7800912348,0.\\Version=ES64L-G16RevC.01\Stat
 e=1-A'\HF=-532.2428106\MP2=-532.4210329\RMSD=6.580e-10\RMSF=1.476e-05\
 ZeroPoint=0.0120565\Thermal=0.0150288\ETot=-532.4060041\HTot=-532.4050
 599\GTot=-532.4321321\Dipole=0.7710848,0.1337106,0.\DipoleDeriv=0.0074
 594,-0.1239748,0.,-0.0465471,-0.086502,0.,0.,0.,-0.4152374,0.025957,0.
 0339035,0.,-0.0047707,0.2520158,0.,0.,0.,0.4124687,-0.0334164,0.090071
 3,0.,0.0513178,-0.1655138,0.,0.,0.,0.0027687\Polar=7.8248066,2.2356318
 ,21.7327803,0.,0.,3.2712905\PG=CS [SG(Cl1H1O1)]\NImag=0\\0.41497387,0.
 07248041,0.22050790,0.,0.,0.00001707,-0.39567244,-0.08812188,0.,0.3931
 7218,-0.03741328,-0.04450742,0.,0.06832102,0.07042469,0.,0.,-0.0000160
 8,0.,0.,0.00001660,-0.01930144,0.01564147,0.,0.00250025,-0.03090774,0.
 ,0.01680119,-0.03506713,-0.17600048,0.,0.01980086,-0.02591727,0.,0.015
 26627,0.20191775,0.,0.,-0.00000100,0.,0.,-0.00000053,0.,0.,0.00000152\
 \-0.00003006,-0.00000214,0.,0.00003104,0.00000761,0.,-0.00000097,-0.00
 000547,0.\\\@
 The archive entry for this job was punched.


      SCIENCE SANS CONSCIENCE N'EST QUE RUINE DE L'AME.

                                                  -- RABELAIS
 Job cpu time:       0 days  0 hours  0 minutes 20.5 seconds.
 Elapsed time:       0 days  0 hours  0 minutes  2.6 seconds.
 File lengths (MBytes):  RWF=     14 Int=      0 D2E=      0 Chk=      1 Scr=      1
 Normal termination of Gaussian 16 at Fri Aug 14 18:18:43 2026.
