 Entering Gaussian System, Link 0=g09
 Input=AlF3.com
 Output=AlF3.log
 Initial command:
 /usr/local/g09/l1.exe /scratch/james/Gau-312.inp -scrdir=/scratch/james/
 Entering Link 1 = /usr/local/g09/l1.exe PID=       316.
  
 Copyright (c) 1988,1990,1992,1993,1995,1998,2003,2009,2011,
            Gaussian, Inc.  All Rights Reserved.
  
 This is part of the Gaussian(R) 09 program.  It is based on
 the Gaussian(R) 03 system (copyright 2003, Gaussian, Inc.),
 the Gaussian(R) 98 system (copyright 1998, Gaussian, Inc.),
 the Gaussian(R) 94 system (copyright 1995, Gaussian, Inc.),
 the Gaussian 92(TM) system (copyright 1992, Gaussian, Inc.),
 the Gaussian 90(TM) system (copyright 1990, Gaussian, Inc.),
 the Gaussian 88(TM) system (copyright 1988, Gaussian, Inc.),
 the Gaussian 86(TM) system (copyright 1986, Carnegie Mellon
 University), and the Gaussian 82(TM) system (copyright 1983,
 Carnegie Mellon University). Gaussian is a federally registered
 trademark of Gaussian, Inc.
  
 This software contains proprietary and confidential information,
 including trade secrets, belonging to Gaussian, Inc.
  
 This software is provided under written license and may be
 used, copied, transmitted, or stored only in accord with that
 written license.
  
 The following legend is applicable only to US Government
 contracts under FAR:
  
                    RESTRICTED RIGHTS LEGEND
  
 Use, reproduction and disclosure by the US Government is
 subject to restrictions as set forth in subparagraphs (a)
 and (c) of the Commercial Computer Software - Restricted
 Rights clause in FAR 52.227-19.
  
 Gaussian, Inc.
 340 Quinnipiac St., Bldg. 40, Wallingford CT 06492
  
  
 ---------------------------------------------------------------
 Warning -- This program may not be used in any manner that
 competes with the business of Gaussian, Inc. or will provide
 assistance to any competitor of Gaussian, Inc.  The licensee
 of this program is prohibited from giving any competitor of
 Gaussian, Inc. access to this program.  By using this program,
 the user acknowledges that Gaussian, Inc. is engaged in the
 business of creating and licensing software in the field of
 computational chemistry and represents and warrants to the
 licensee that it is not a competitor of Gaussian, Inc. and that
 it will not use this program in any manner prohibited above.
 ---------------------------------------------------------------
  

 Cite this work as:
 Gaussian 09, Revision C.01,
 M. J. Frisch, G. W. Trucks, H. B. Schlegel, G. E. Scuseria, 
 M. A. Robb, J. R. Cheeseman, G. Scalmani, V. Barone, B. Mennucci, 
 G. A. Petersson, H. Nakatsuji, M. Caricato, X. Li, H. P. Hratchian, 
 A. F. Izmaylov, J. Bloino, G. Zheng, J. L. Sonnenberg, M. Hada, 
 M. Ehara, K. Toyota, R. Fukuda, J. Hasegawa, M. Ishida, T. Nakajima, 
 Y. Honda, O. Kitao, H. Nakai, T. Vreven, J. A. Montgomery, Jr., 
 J. E. Peralta, F. Ogliaro, M. Bearpark, J. J. Heyd, E. Brothers, 
 K. N. Kudin, V. N. Staroverov, T. Keith, R. Kobayashi, J. Normand, 
 K. Raghavachari, A. Rendell, J. C. Burant, S. S. Iyengar, J. Tomasi, 
 M. Cossi, N. Rega, J. M. Millam, M. Klene, J. E. Knox, J. B. Cross, 
 V. Bakken, C. Adamo, J. Jaramillo, R. Gomperts, R. E. Stratmann, 
 O. Yazyev, A. J. Austin, R. Cammi, C. Pomelli, J. W. Ochterski, 
 R. L. Martin, K. Morokuma, V. G. Zakrzewski, G. A. Voth, 
 P. Salvador, J. J. Dannenberg, S. Dapprich, A. D. Daniels, 
 O. Farkas, J. B. Foresman, J. V. Ortiz, J. Cioslowski, 
 and D. J. Fox, Gaussian, Inc., Wallingford CT, 2010.
 
 ******************************************
 Gaussian 09:  AM64L-G09RevC.01 23-Sep-2011
                18-Sep-2023 
 ******************************************
 %chk=AlF3.chk
 ----------------------------------------------
 # opt freq=hpmodes mp2/3-21g geom=connectivity
 ----------------------------------------------
 1/18=20,19=15,38=1,57=2/1,3;
 2/9=110,12=2,17=6,18=5,40=1/2;
 3/5=5,11=9,16=1,25=1,30=1,71=1/1,2,3;
 4//1;
 5/5=2,38=5/2;
 8/6=4,10=1/1;
 9/15=2,16=-3/6;
 10/5=1/2;
 6/7=2,8=2,9=2,10=2/1;
 7/12=2/1,2,3,16;
 1/18=20,19=15/3(2);
 2/9=110/2;
 99//99;
 2/9=110/2;
 3/5=5,11=9,16=1,25=1,30=1,71=1/1,2,3;
 4/5=5,16=3/1;
 5/5=2,38=5/2;
 8/6=4,10=1/1;
 9/15=2,16=-3/6;
 10/5=1/2;
 7/12=2/1,2,3,16;
 1/18=20,19=15/3(-8);
 2/9=110/2;
 6/7=2,8=2,9=2,10=2/1;
 99//99;
 -------------------
 Title Card Required
 -------------------
 Charge =  0 Multiplicity = 1
 Symbolic Z-Matrix:
 Al                    0.        0.        0. 
 F                     0.        1.83      0. 
 F                     1.58483  -0.915     0. 
 F                    -1.58483  -0.915     0. 
 

 GradGradGradGradGradGradGradGradGradGradGradGradGradGradGradGradGradGrad
 Berny optimization.
 Initialization pass.
                           ----------------------------
                           !    Initial Parameters    !
                           ! (Angstroms and Degrees)  !
 --------------------------                            --------------------------
 ! Name  Definition              Value          Derivative Info.                !
 --------------------------------------------------------------------------------
 ! R1    R(1,2)                  1.83           estimate D2E/DX2                !
 ! R2    R(1,3)                  1.83           estimate D2E/DX2                !
 ! R3    R(1,4)                  1.83           estimate D2E/DX2                !
 ! A1    A(2,1,3)              120.0            estimate D2E/DX2                !
 ! A2    A(2,1,4)              120.0            estimate D2E/DX2                !
 ! A3    A(3,1,4)              120.0            estimate D2E/DX2                !
 ! D1    D(2,1,4,3)            180.0            estimate D2E/DX2                !
 --------------------------------------------------------------------------------
 Trust Radius=3.00D-01 FncErr=1.00D-07 GrdErr=1.00D-07
 Number of steps in this run=     20 maximum allowed number of steps=    100.
 GradGradGradGradGradGradGradGradGradGradGradGradGradGradGradGradGradGrad

                          Input orientation:                          
 ---------------------------------------------------------------------
 Center     Atomic      Atomic             Coordinates (Angstroms)
 Number     Number       Type             X           Y           Z
 ---------------------------------------------------------------------
      1         13           0        0.000000    0.000000    0.000000
      2          9           0        0.000000    1.830000    0.000000
      3          9           0        1.584826   -0.915000    0.000000
      4          9           0       -1.584826   -0.915000    0.000000
 ---------------------------------------------------------------------
                    Distance matrix (angstroms):
                    1          2          3          4
     1  Al   0.000000
     2  F    1.830000   0.000000
     3  F    1.830000   3.169653   0.000000
     4  F    1.830000   3.169653   3.169653   0.000000
 Stoichiometry    AlF3
 Framework group  D3H[O(Al),3C2(F)]
 Deg. of freedom     1
 Full point group                 D3H     NOp  12
 Largest Abelian subgroup         C2V     NOp   4
 Largest concise Abelian subgroup C2      NOp   2
                         Standard orientation:                         
 ---------------------------------------------------------------------
 Center     Atomic      Atomic             Coordinates (Angstroms)
 Number     Number       Type             X           Y           Z
 ---------------------------------------------------------------------
      1         13           0        0.000000    0.000000    0.000000
      2          9           0        0.000000    1.830000    0.000000
      3          9           0        1.584826   -0.915000    0.000000
      4          9           0       -1.584826   -0.915000    0.000000
 ---------------------------------------------------------------------
 Rotational constants (GHZ):      5.2954961      5.2954961      2.6477481
 Standard basis: 3-21G (6D, 7F)
 There are    19 symmetry adapted basis functions of A1  symmetry.
 There are     2 symmetry adapted basis functions of A2  symmetry.
 There are    12 symmetry adapted basis functions of B1  symmetry.
 There are     7 symmetry adapted basis functions of B2  symmetry.
 Integral buffers will be    131072 words long.
 Raffenetti 1 integral format.
 Two-electron integral symmetry is turned on.
    40 basis functions,    72 primitive gaussians,    40 cartesian basis functions
    20 alpha electrons       20 beta electrons
       nuclear repulsion energy       142.0670529756 Hartrees.
 NAtoms=    4 NActive=    4 NUniq=    2 SFac= 4.00D+00 NAtFMM=   60 NAOKFM=F Big=F
 One-electron integrals computed using PRISM.
 NBasis=    40 RedAO= T  NBF=    19     2    12     7
 NBsUse=    40 1.00D-06 NBFU=    19     2    12     7
 Harris functional with IExCor=  205 diagonalized for initial guess.
 ExpMin= 6.39D-02 ExpMax= 7.76D+02 ExpMxC= 7.76D+02 IAcc=2 IRadAn=         4 AccDes= 0.00D+00
 HarFok:  IExCor=  205 AccDes= 0.00D+00 IRadAn=         4 IDoV= 1
 ScaDFX=  1.000000  1.000000  1.000000  1.000000
 FoFCou: FMM=F IPFlag=           0 FMFlag=      100000 FMFlg1=           0
         NFxFlg=           0 DoJE=T BraDBF=F KetDBF=T FulRan=T
         Omega=  0.000000  0.000000  1.000000  0.000000  0.000000 ICntrl=     500 IOpCl=  0
         NMat0=    1 NMatS0=    1 NMatT0=    0 NMatD0=    1 NMtDS0=    0 NMtDT0=    0
         I1Cent=           4 NGrid=           0.
 Petite list used in FoFCou.
 Initial guess orbital symmetries:
       Occupied  (A1') (E') (E') (A1') (A1') (E') (E') (A2") (A1')
                 (E') (E') (A1') (E') (E') (A2") (E') (E') (E")
                 (E") (A2')
       Virtual   (A1') (A2") (E') (E') (A1') (A2") (E') (E') (E")
                 (E") (A2') (E') (E') (A2") (A1') (E') (E') (A1')
                 (E') (E')
 The electronic state of the initial guess is 1-A1'.
 Requested convergence on RMS density matrix=1.00D-08 within 128 cycles.
 Requested convergence on MAX density matrix=1.00D-06.
 Requested convergence on             energy=1.00D-06.
 No special actions if energy rises.
 Keep R1 ints in memory in canonical form, NReq=1160294.
 SCF Done:  E(RHF) =  -537.458652427     A.U. after    9 cycles
             Convg  =    0.9653D-08             -V/T =  2.0037
 ExpMin= 6.39D-02 ExpMax= 7.76D+02 ExpMxC= 7.76D+02 IAcc=3 IRadAn=         5 AccDes= 0.00D+00
 HarFok:  IExCor=  205 AccDes= 0.00D+00 IRadAn=         5 IDoV=-2
 ScaDFX=  1.000000  1.000000  1.000000  1.000000
 Range of M.O.s used for correlation:     9    40
 NBasis=    40 NAE=    20 NBE=    20 NFC=     8 NFV=     0
 NROrb=     32 NOA=    12 NOB=    12 NVA=    20 NVB=    20
 Fully direct method using O(ONN) memory.
 JobTyp=1 Pass  1:  I=   9 to  20 NPSUse=  1 ParTrn=F ParDer=F DoDerP=T.
 Spin components of T(2) and E(2):
     alpha-alpha T2 =       0.1254204988D-01 E2=     -0.5364953085D-01
     alpha-beta  T2 =       0.6759380997D-01 E2=     -0.2903626339D+00
     beta-beta   T2 =       0.1254204988D-01 E2=     -0.5364953085D-01
 ANorm=    0.1045312350D+01
 E2 =    -0.3976616956D+00 EUMP2 =    -0.53785631412223D+03
          IDoAtm=1111
          Differentiating once with respect to electric field.
                with respect to dipole field.
          Differentiating once with respect to nuclear coordinates.
          Keep R1 ints in memory in canonical form, NReq=1137483.
          There are     1 degrees of freedom in the 1st order CPHF.  IDoFFX=0.
 LinEq1:  Iter=  0 NonCon=     1 RMS=1.40D-02 Max=1.87D-01
 AX will form     1 AO Fock derivatives at one time.
 LinEq1:  Iter=  1 NonCon=     1 RMS=2.02D-03 Max=1.47D-02
 LinEq1:  Iter=  2 NonCon=     1 RMS=6.83D-04 Max=5.41D-03
 LinEq1:  Iter=  3 NonCon=     1 RMS=1.13D-04 Max=1.40D-03
 LinEq1:  Iter=  4 NonCon=     1 RMS=1.24D-05 Max=1.27D-04
 LinEq1:  Iter=  5 NonCon=     1 RMS=1.30D-06 Max=1.04D-05
 LinEq1:  Iter=  6 NonCon=     1 RMS=1.20D-07 Max=1.02D-06
 LinEq1:  Iter=  7 NonCon=     1 RMS=8.92D-09 Max=6.05D-08
 LinEq1:  Iter=  8 NonCon=     1 RMS=9.15D-10 Max=7.89D-09
 LinEq1:  Iter=  9 NonCon=     0 RMS=7.23D-11 Max=3.96D-10
 Linear equations converged to 1.000D-10 1.000D-09 after     9 iterations.
 End of Minotr Frequency-dependent properties file   721 does not exist.
 End of Minotr Frequency-dependent properties file   722 does not exist.

 **********************************************************************

            Population analysis using the SCF density.

 **********************************************************************

 Orbital symmetries:
       Occupied  (A1') (E') (E') (A1') (A1') (A2") (E') (E') (A1')
                 (E') (E') (A1') (E') (E') (A2") (E") (E") (A2')
                 (E') (E')
       Virtual   (A1') (A2") (E') (E') (A2") (A1') (E') (E') (E")
                 (E") (A2') (E') (E') (A2") (A1') (E') (E') (A1')
                 (E') (E')
 The electronic state is 1-A1'.
 Alpha  occ. eigenvalues --  -58.22719 -26.11038 -26.11038 -26.11032  -5.01115
 Alpha  occ. eigenvalues --   -3.32075  -3.31577  -3.31577  -1.50417  -1.49682
 Alpha  occ. eigenvalues --   -1.49682  -0.65705  -0.60971  -0.60971  -0.60568
 Alpha  occ. eigenvalues --   -0.58089  -0.58089  -0.57949  -0.57714  -0.57714
 Alpha virt. eigenvalues --    0.03823   0.05458   0.18395   0.18395   0.30892
 Alpha virt. eigenvalues --    0.33561   0.46074   0.46074   2.23203   2.23203
 Alpha virt. eigenvalues --    2.24118   2.26889   2.26889   2.33483   2.44601
 Alpha virt. eigenvalues --    2.46153   2.46153   3.58795   3.62690   3.62690
          Condensed to atoms (all electrons):
              1          2          3          4
     1  Al  10.774444   0.215258   0.215258   0.215258
     2  F    0.215258   9.311934  -0.000299  -0.000299
     3  F    0.215258  -0.000299   9.311934  -0.000299
     4  F    0.215258  -0.000299  -0.000299   9.311934
 Mulliken atomic charges:
              1
     1  Al   1.579781
     2  F   -0.526594
     3  F   -0.526594
     4  F   -0.526594
 Sum of Mulliken atomic charges =  -0.00000
 Mulliken charges with hydrogens summed into heavy atoms:
              1
     1  Al   1.579781
     2  F   -0.526594
     3  F   -0.526594
     4  F   -0.526594
 Sum of Mulliken charges with hydrogens summed into heavy atoms =  -0.00000
 Electronic spatial extent (au):  <R**2>=            388.6082
 Charge=             -0.0000 electrons
 Dipole moment (field-independent basis, Debye):
    X=              0.0000    Y=              0.0000    Z=              0.0000  Tot=              0.0000
 Quadrupole moment (field-independent basis, Debye-Ang):
   XX=            -34.3250   YY=            -34.3250   ZZ=            -19.7342
   XY=              0.0000   XZ=             -0.0000   YZ=              0.0000
 Traceless Quadrupole moment (field-independent basis, Debye-Ang):
   XX=             -4.8636   YY=             -4.8636   ZZ=              9.7272
   XY=              0.0000   XZ=             -0.0000   YZ=              0.0000
 Octapole moment (field-independent basis, Debye-Ang**2):
  XXX=              0.0000  YYY=            -12.1370  ZZZ=              0.0000  XYY=             -0.0000
  XXY=             12.1370  XXZ=             -0.0000  XZZ=              0.0000  YZZ=              0.0000
  YYZ=              0.0000  XYZ=              0.0000
 Hexadecapole moment (field-independent basis, Debye-Ang**3):
 XXXX=           -195.9504 YYYY=           -195.9504 ZZZZ=            -13.8168 XXXY=              0.0000
 XXXZ=             -0.0000 YYYX=              0.0000 YYYZ=              0.0000 ZZZX=             -0.0000
 ZZZY=              0.0000 XXYY=            -65.3168 XXZZ=            -29.8635 YYZZ=            -29.8635
 XXYZ=              0.0000 YYXZ=             -0.0000 ZZXY=              0.0000
 N-N= 1.420670529756D+02 E-N=-1.571743801171D+03  KE= 5.354868298646D+02
 Symmetry A1   KE= 3.788300368355D+02
 Symmetry A2   KE= 6.226221455888D+00
 Symmetry B1   KE= 1.190288763353D+02
 Symmetry B2   KE= 3.140169523793D+01
 Calling FoFJK, ICntrl=      2127 FMM=F ISym2X=1 I1Cent= 0 IOpClX= 0 NMat=1 NMatS=1 NMatT=0.
 ***** Axes restored to original set *****
 -------------------------------------------------------------------
 Center     Atomic                   Forces (Hartrees/Bohr)
 Number     Number              X              Y              Z
 -------------------------------------------------------------------
      1       13          -0.000000000   -0.000000000   -0.000000000
      2        9          -0.000000000   -0.082369804   -0.000000000
      3        9          -0.071334343    0.041184902    0.000000000
      4        9           0.071334343    0.041184902   -0.000000000
 -------------------------------------------------------------------
 Cartesian Forces:  Max     0.082369804 RMS     0.041184902

 GradGradGradGradGradGradGradGradGradGradGradGradGradGradGradGradGradGrad
 Berny optimization.
 Internal  Forces:  Max     0.082369804 RMS     0.053923695
 Search for a local minimum.
 Step number   1 out of a maximum of   20
 All quantities printed in internal units (Hartrees-Bohrs-Radians)
 Mixed Optimization -- RFO/linear search
 Second derivative matrix not updated -- first step.
 The second derivative matrix:
                          R1        R2        R3        A1        A2
           R1           0.23889
           R2           0.00000   0.23889
           R3           0.00000   0.00000   0.23889
           A1           0.00000   0.00000   0.00000   0.25000
           A2           0.00000   0.00000   0.00000   0.00000   0.25000
           A3           0.00000   0.00000   0.00000   0.00000   0.00000
           D1           0.00000   0.00000   0.00000   0.00000   0.00000
                          A3        D1
           A3           0.25000
           D1           0.00000   0.02752
 ITU=  0
     Eigenvalues ---    0.02752   0.23889   0.23889   0.23889   0.25000
     Eigenvalues ---    0.25000
 RFO step:  Lambda=-6.66233133D-02 EMin= 2.75228688D-02
 Linear search not attempted -- first point.
 Maximum step size (   0.300) exceeded in Quadratic search.
    -- Step size scaled by   0.642
 Iteration  1 RMS(Cart)=  0.11338934 RMS(Int)=  0.00000000
 Iteration  2 RMS(Cart)=  0.00000000 RMS(Int)=  0.00000000
 ClnCor:  largest displacement from symmetrization is 2.62D-13 for atom     4.
 Variable       Old X    -DE/DX   Delta X   Delta X   Delta X     New X
                                 (Linear)    (Quad)   (Total)
    R1        3.45820  -0.08237   0.00000  -0.17321  -0.17321   3.28499
    R2        3.45820  -0.08237   0.00000  -0.17321  -0.17321   3.28499
    R3        3.45820  -0.08237   0.00000  -0.17321  -0.17321   3.28499
    A1        2.09440  -0.00000   0.00000  -0.00000   0.00000   2.09440
    A2        2.09440  -0.00000   0.00000  -0.00000   0.00000   2.09440
    A3        2.09440   0.00000   0.00000   0.00000   0.00000   2.09440
    D1        3.14159   0.00000   0.00000  -0.00000   0.00000   3.14159
         Item               Value     Threshold  Converged?
 Maximum Force            0.082370     0.000450     NO 
 RMS     Force            0.053924     0.000300     NO 
 Maximum Displacement     0.173205     0.001800     NO 
 RMS     Displacement     0.113389     0.001200     NO 
 Predicted change in Energy=-3.205052D-02
 GradGradGradGradGradGradGradGradGradGradGradGradGradGradGradGradGradGrad

                          Input orientation:                          
 ---------------------------------------------------------------------
 Center     Atomic      Atomic             Coordinates (Angstroms)
 Number     Number       Type             X           Y           Z
 ---------------------------------------------------------------------
      1         13           0        0.000000   -0.000000    0.000000
      2          9           0        0.000000    1.738344   -0.000000
      3          9           0        1.505450   -0.869172   -0.000000
      4          9           0       -1.505450   -0.869172   -0.000000
 ---------------------------------------------------------------------
                    Distance matrix (angstroms):
                    1          2          3          4
     1  Al   0.000000
     2  F    1.738344   0.000000
     3  F    1.738344   3.010900   0.000000
     4  F    1.738344   3.010900   3.010900   0.000000
 Stoichiometry    AlF3
 Framework group  D3H[O(Al),3C2(F)]
 Deg. of freedom     1
 Full point group                 D3H     NOp  12
 Largest Abelian subgroup         C2V     NOp   4
 Largest concise Abelian subgroup C2      NOp   2
                         Standard orientation:                         
 ---------------------------------------------------------------------
 Center     Atomic      Atomic             Coordinates (Angstroms)
 Number     Number       Type             X           Y           Z
 ---------------------------------------------------------------------
      1         13           0        0.000000    0.000000    0.000000
      2          9           0        0.000000    1.738344    0.000000
      3          9           0        1.505450   -0.869172    0.000000
      4          9           0       -1.505450   -0.869172    0.000000
 ---------------------------------------------------------------------
 Rotational constants (GHZ):      5.8686401      5.8686401      2.9343201
 Standard basis: 3-21G (6D, 7F)
 There are    19 symmetry adapted basis functions of A1  symmetry.
 There are     2 symmetry adapted basis functions of A2  symmetry.
 There are    12 symmetry adapted basis functions of B1  symmetry.
 There are     7 symmetry adapted basis functions of B2  symmetry.
 Integral buffers will be    131072 words long.
 Raffenetti 1 integral format.
 Two-electron integral symmetry is turned on.
    40 basis functions,    72 primitive gaussians,    40 cartesian basis functions
    20 alpha electrons       20 beta electrons
       nuclear repulsion energy       149.5577020645 Hartrees.
 NAtoms=    4 NActive=    4 NUniq=    2 SFac= 4.00D+00 NAtFMM=   60 NAOKFM=F Big=F
 One-electron integrals computed using PRISM.
 NBasis=    40 RedAO= T  NBF=    19     2    12     7
 NBsUse=    40 1.00D-06 NBFU=    19     2    12     7
 Initial guess read from the read-write file.
 B after Tr=     0.000000    0.000000   -0.000000
         Rot=    1.000000    0.000000   -0.000000    0.000000 Ang=   0.00 deg.
 Initial guess orbital symmetries:
       Occupied  (A1') (E') (E') (A1') (A1') (A2") (E') (E') (A1')
                 (E') (E') (A1') (E') (E') (A2") (E") (E") (A2')
                 (E') (E')
       Virtual   (A1') (A2") (E') (E') (A2") (A1') (E') (E') (E")
                 (E") (A2') (E') (E') (A2") (A1') (E') (E') (A1')
                 (E') (E')
 Harris functional with IExCor=  205 diagonalized for initial guess.
 ExpMin= 6.39D-02 ExpMax= 7.76D+02 ExpMxC= 7.76D+02 IAcc=2 IRadAn=         4 AccDes= 0.00D+00
 HarFok:  IExCor=  205 AccDes= 0.00D+00 IRadAn=         4 IDoV= 1
 ScaDFX=  1.000000  1.000000  1.000000  1.000000
 FoFCou: FMM=F IPFlag=           0 FMFlag=      100000 FMFlg1=           0
         NFxFlg=           0 DoJE=T BraDBF=F KetDBF=T FulRan=T
         Omega=  0.000000  0.000000  1.000000  0.000000  0.000000 ICntrl=     500 IOpCl=  0
         NMat0=    1 NMatS0=    1 NMatT0=    0 NMatD0=    1 NMtDS0=    0 NMtDT0=    0
         I1Cent=           4 NGrid=           0.
 Petite list used in FoFCou.
 Requested convergence on RMS density matrix=1.00D-08 within 128 cycles.
 Requested convergence on MAX density matrix=1.00D-06.
 Requested convergence on             energy=1.00D-06.
 No special actions if energy rises.
 Keep R1 ints in memory in canonical form, NReq=1160294.
 SCF Done:  E(RHF) =  -537.500861245     A.U. after    9 cycles
             Convg  =    0.3978D-08             -V/T =  2.0032
 ExpMin= 6.39D-02 ExpMax= 7.76D+02 ExpMxC= 7.76D+02 IAcc=3 IRadAn=         5 AccDes= 0.00D+00
 HarFok:  IExCor=  205 AccDes= 0.00D+00 IRadAn=         5 IDoV=-2
 ScaDFX=  1.000000  1.000000  1.000000  1.000000
 Range of M.O.s used for correlation:     9    40
 NBasis=    40 NAE=    20 NBE=    20 NFC=     8 NFV=     0
 NROrb=     32 NOA=    12 NOB=    12 NVA=    20 NVB=    20
 Fully direct method using O(ONN) memory.
 JobTyp=1 Pass  1:  I=   9 to  20 NPSUse=  1 ParTrn=F ParDer=F DoDerP=T.
 Spin components of T(2) and E(2):
     alpha-alpha T2 =       0.1203889113D-01 E2=     -0.5296795898D-01
     alpha-beta  T2 =       0.6330060045D-01 E2=     -0.2853060531D+00
     beta-beta   T2 =       0.1203889113D-01 E2=     -0.5296795898D-01
 ANorm=    0.1042774368D+01
 E2 =    -0.3912419711D+00 EUMP2 =    -0.53789210321566D+03
          IDoAtm=1111
          Differentiating once with respect to electric field.
                with respect to dipole field.
          Differentiating once with respect to nuclear coordinates.
          Keep R1 ints in memory in canonical form, NReq=1137483.
          There are     1 degrees of freedom in the 1st order CPHF.  IDoFFX=0.
 LinEq1:  Iter=  0 NonCon=     1 RMS=1.27D-02 Max=1.68D-01
 AX will form     1 AO Fock derivatives at one time.
 LinEq1:  Iter=  1 NonCon=     1 RMS=1.66D-03 Max=1.27D-02
 LinEq1:  Iter=  2 NonCon=     1 RMS=5.63D-04 Max=4.53D-03
 LinEq1:  Iter=  3 NonCon=     1 RMS=8.82D-05 Max=1.03D-03
 LinEq1:  Iter=  4 NonCon=     1 RMS=9.33D-06 Max=1.05D-04
 LinEq1:  Iter=  5 NonCon=     1 RMS=1.02D-06 Max=7.82D-06
 LinEq1:  Iter=  6 NonCon=     1 RMS=8.68D-08 Max=7.91D-07
 LinEq1:  Iter=  7 NonCon=     1 RMS=6.56D-09 Max=4.69D-08
 LinEq1:  Iter=  8 NonCon=     1 RMS=7.06D-10 Max=5.89D-09
 LinEq1:  Iter=  9 NonCon=     0 RMS=5.29D-11 Max=3.03D-10
 Linear equations converged to 1.000D-10 1.000D-09 after     9 iterations.
 End of Minotr Frequency-dependent properties file   721 does not exist.
 End of Minotr Frequency-dependent properties file   722 does not exist.
 Calling FoFJK, ICntrl=      2127 FMM=F ISym2X=1 I1Cent= 0 IOpClX= 0 NMat=1 NMatS=1 NMatT=0.
 ***** Axes restored to original set *****
 -------------------------------------------------------------------
 Center     Atomic                   Forces (Hartrees/Bohr)
 Number     Number              X              Y              Z
 -------------------------------------------------------------------
      1       13          -0.000000000   -0.000000000   -0.000000000
      2        9          -0.000000000   -0.052610372   -0.000000000
      3        9          -0.045561919    0.026305186    0.000000000
      4        9           0.045561919    0.026305186   -0.000000000
 -------------------------------------------------------------------
 Cartesian Forces:  Max     0.052610372 RMS     0.026305186

 GradGradGradGradGradGradGradGradGradGradGradGradGradGradGradGradGradGrad
 Berny optimization.
 Using GEDIIS/GDIIS optimizer.
 Internal  Forces:  Max     0.052610372 RMS     0.034441573
 Search for a local minimum.
 Step number   2 out of a maximum of   20
 All quantities printed in internal units (Hartrees-Bohrs-Radians)
 Mixed Optimization -- RFO/linear search
 Update second derivatives using D2CorX and points    1    2
 DE= -3.58D-02 DEPred=-3.21D-02 R= 1.12D+00
 SS=  1.41D+00  RLast= 3.00D-01 DXNew= 5.0454D-01 9.0000D-01
 Trust test= 1.12D+00 RLast= 3.00D-01 DXMaxT set to 5.05D-01
 The second derivative matrix:
                          R1        R2        R3        A1        A2
           R1           0.21653
           R2          -0.02236   0.21653
           R3          -0.02236  -0.02236   0.21653
           A1           0.00000   0.00000   0.00000   0.25000
           A2           0.00000   0.00000   0.00000   0.00000   0.25000
           A3          -0.00000  -0.00000  -0.00000  -0.00000  -0.00000
           D1          -0.00000  -0.00000  -0.00000  -0.00000  -0.00000
                          A3        D1
           A3           0.25000
           D1           0.00000   0.02752
 ITU=  1  0
 Use linear search instead of GDIIS.
     Eigenvalues ---    0.02752   0.17182   0.23889   0.23889   0.25000
     Eigenvalues ---    0.25000
 RFO step:  Lambda= 0.00000000D+00 EMin= 2.75228688D-02
 Quartic linear search produced a step of  1.06407.
 Iteration  1 RMS(Cart)=  0.12065474 RMS(Int)=  0.00000000
 Iteration  2 RMS(Cart)=  0.00000000 RMS(Int)=  0.00000000
 ClnCor:  largest displacement from symmetrization is 1.23D-13 for atom     4.
 Variable       Old X    -DE/DX   Delta X   Delta X   Delta X     New X
                                 (Linear)    (Quad)   (Total)
    R1        3.28499  -0.05261  -0.18430   0.00000  -0.18430   3.10069
    R2        3.28499  -0.05261  -0.18430   0.00000  -0.18430   3.10069
    R3        3.28499  -0.05261  -0.18430  -0.00000  -0.18430   3.10069
    A1        2.09440  -0.00000   0.00000  -0.00000   0.00000   2.09440
    A2        2.09440  -0.00000   0.00000   0.00000   0.00000   2.09440
    A3        2.09440   0.00000   0.00000  -0.00000   0.00000   2.09440
    D1        3.14159   0.00000   0.00000   0.00000   0.00000   3.14159
         Item               Value     Threshold  Converged?
 Maximum Force            0.052610     0.000450     NO 
 RMS     Force            0.034442     0.000300     NO 
 Maximum Displacement     0.184303     0.001800     NO 
 RMS     Displacement     0.120655     0.001200     NO 
 Predicted change in Energy=-2.033449D-02
 GradGradGradGradGradGradGradGradGradGradGradGradGradGradGradGradGradGrad

                          Input orientation:                          
 ---------------------------------------------------------------------
 Center     Atomic      Atomic             Coordinates (Angstroms)
 Number     Number       Type             X           Y           Z
 ---------------------------------------------------------------------
      1         13           0       -0.000000   -0.000000   -0.000000
      2          9           0        0.000000    1.640815   -0.000000
      3          9           0        1.420987   -0.820407   -0.000000
      4          9           0       -1.420987   -0.820407   -0.000000
 ---------------------------------------------------------------------
                    Distance matrix (angstroms):
                    1          2          3          4
     1  Al   0.000000
     2  F    1.640815   0.000000
     3  F    1.640815   2.841975   0.000000
     4  F    1.640815   2.841975   2.841975   0.000000
 Stoichiometry    AlF3
 Framework group  D3H[O(Al),3C2(F)]
 Deg. of freedom     1
 Full point group                 D3H     NOp  12
 Largest Abelian subgroup         C2V     NOp   4
 Largest concise Abelian subgroup C2      NOp   2
                         Standard orientation:                         
 ---------------------------------------------------------------------
 Center     Atomic      Atomic             Coordinates (Angstroms)
 Number     Number       Type             X           Y           Z
 ---------------------------------------------------------------------
      1         13           0        0.000000    0.000000    0.000000
      2          9           0        0.000000    1.640815    0.000000
      3          9           0        1.420987   -0.820407    0.000000
      4          9           0       -1.420987   -0.820407    0.000000
 ---------------------------------------------------------------------
 Rotational constants (GHZ):      6.5870311      6.5870311      3.2935155
 Standard basis: 3-21G (6D, 7F)
 There are    19 symmetry adapted basis functions of A1  symmetry.
 There are     2 symmetry adapted basis functions of A2  symmetry.
 There are    12 symmetry adapted basis functions of B1  symmetry.
 There are     7 symmetry adapted basis functions of B2  symmetry.
 Integral buffers will be    131072 words long.
 Raffenetti 1 integral format.
 Two-electron integral symmetry is turned on.
    40 basis functions,    72 primitive gaussians,    40 cartesian basis functions
    20 alpha electrons       20 beta electrons
       nuclear repulsion energy       158.4473209043 Hartrees.
 NAtoms=    4 NActive=    4 NUniq=    2 SFac= 4.00D+00 NAtFMM=   60 NAOKFM=F Big=F
 One-electron integrals computed using PRISM.
 NBasis=    40 RedAO= T  NBF=    19     2    12     7
 NBsUse=    40 1.00D-06 NBFU=    19     2    12     7
 Initial guess read from the read-write file.
 B after Tr=     0.000000    0.000000    0.000000
         Rot=    1.000000    0.000000    0.000000    0.000000 Ang=   0.00 deg.
 Initial guess orbital symmetries:
       Occupied  (A1') (E') (E') (A1') (A1') (A2") (E') (E') (A1')
                 (E') (E') (A1') (E') (E') (A2") (E') (E') (E")
                 (E") (A2')
       Virtual   (A1') (A2") (E') (E') (A2") (A1') (E') (E') (E")
                 (E") (A2') (E') (E') (A2") (A1') (E') (E') (A1')
                 (E') (E')
 Harris functional with IExCor=  205 diagonalized for initial guess.
 ExpMin= 6.39D-02 ExpMax= 7.76D+02 ExpMxC= 7.76D+02 IAcc=2 IRadAn=         4 AccDes= 0.00D+00
 HarFok:  IExCor=  205 AccDes= 0.00D+00 IRadAn=         4 IDoV= 1
 ScaDFX=  1.000000  1.000000  1.000000  1.000000
 FoFCou: FMM=F IPFlag=           0 FMFlag=      100000 FMFlg1=           0
         NFxFlg=           0 DoJE=T BraDBF=F KetDBF=T FulRan=T
         Omega=  0.000000  0.000000  1.000000  0.000000  0.000000 ICntrl=     500 IOpCl=  0
         NMat0=    1 NMatS0=    1 NMatT0=    0 NMatD0=    1 NMtDS0=    0 NMtDT0=    0
         I1Cent=           4 NGrid=           0.
 Petite list used in FoFCou.
 Requested convergence on RMS density matrix=1.00D-08 within 128 cycles.
 Requested convergence on MAX density matrix=1.00D-06.
 Requested convergence on             energy=1.00D-06.
 No special actions if energy rises.
 Keep R1 ints in memory in canonical form, NReq=1160294.
 SCF Done:  E(RHF) =  -537.522877689     A.U. after    9 cycles
             Convg  =    0.3454D-08             -V/T =  2.0023
 ExpMin= 6.39D-02 ExpMax= 7.76D+02 ExpMxC= 7.76D+02 IAcc=3 IRadAn=         5 AccDes= 0.00D+00
 HarFok:  IExCor=  205 AccDes= 0.00D+00 IRadAn=         5 IDoV=-2
 ScaDFX=  1.000000  1.000000  1.000000  1.000000
 Range of M.O.s used for correlation:     9    40
 NBasis=    40 NAE=    20 NBE=    20 NFC=     8 NFV=     0
 NROrb=     32 NOA=    12 NOB=    12 NVA=    20 NVB=    20
 Fully direct method using O(ONN) memory.
 JobTyp=1 Pass  1:  I=   9 to  20 NPSUse=  1 ParTrn=F ParDer=F DoDerP=T.
 Spin components of T(2) and E(2):
     alpha-alpha T2 =       0.1148437922D-01 E2=     -0.5212523976D-01
     alpha-beta  T2 =       0.5954677943D-01 E2=     -0.2802644200D+00
     beta-beta   T2 =       0.1148437922D-01 E2=     -0.5212523976D-01
 ANorm=    0.1040440069D+01
 E2 =    -0.3845148995D+00 EUMP2 =    -0.53790739258881D+03
          IDoAtm=1111
          Differentiating once with respect to electric field.
                with respect to dipole field.
          Differentiating once with respect to nuclear coordinates.
          Keep R1 ints in memory in canonical form, NReq=1137483.
          There are     1 degrees of freedom in the 1st order CPHF.  IDoFFX=0.
 LinEq1:  Iter=  0 NonCon=     1 RMS=1.14D-02 Max=1.48D-01
 AX will form     1 AO Fock derivatives at one time.
 LinEq1:  Iter=  1 NonCon=     1 RMS=1.32D-03 Max=1.01D-02
 LinEq1:  Iter=  2 NonCon=     1 RMS=4.44D-04 Max=3.69D-03
 LinEq1:  Iter=  3 NonCon=     1 RMS=6.50D-05 Max=6.62D-04
 LinEq1:  Iter=  4 NonCon=     1 RMS=6.44D-06 Max=7.66D-05
 LinEq1:  Iter=  5 NonCon=     1 RMS=7.14D-07 Max=5.18D-06
 LinEq1:  Iter=  6 NonCon=     1 RMS=5.82D-08 Max=5.57D-07
 LinEq1:  Iter=  7 NonCon=     1 RMS=4.18D-09 Max=2.93D-08
 LinEq1:  Iter=  8 NonCon=     1 RMS=4.73D-10 Max=3.70D-09
 LinEq1:  Iter=  9 NonCon=     0 RMS=3.63D-11 Max=2.32D-10
 Linear equations converged to 1.000D-10 1.000D-09 after     9 iterations.
 End of Minotr Frequency-dependent properties file   721 does not exist.
 End of Minotr Frequency-dependent properties file   722 does not exist.
 Calling FoFJK, ICntrl=      2127 FMM=F ISym2X=1 I1Cent= 0 IOpClX= 0 NMat=1 NMatS=1 NMatT=0.
 ***** Axes restored to original set *****
 -------------------------------------------------------------------
 Center     Atomic                   Forces (Hartrees/Bohr)
 Number     Number              X              Y              Z
 -------------------------------------------------------------------
      1       13          -0.000000000   -0.000000000   -0.000000000
      2        9           0.000000000    0.002214056   -0.000000000
      3        9           0.001917428   -0.001107028    0.000000000
      4        9          -0.001917428   -0.001107028   -0.000000000
 -------------------------------------------------------------------
 Cartesian Forces:  Max     0.002214056 RMS     0.001107028

 GradGradGradGradGradGradGradGradGradGradGradGradGradGradGradGradGradGrad
 Berny optimization.
 Using GEDIIS/GDIIS optimizer.
 Internal  Forces:  Max     0.002214056 RMS     0.001449440
 Search for a local minimum.
 Step number   3 out of a maximum of   20
 All quantities printed in internal units (Hartrees-Bohrs-Radians)
 Mixed Optimization -- RFO/linear search
 Update second derivatives using D2CorX and points    2    3
 DE= -1.53D-02 DEPred=-2.03D-02 R= 7.52D-01
 SS=  1.41D+00  RLast= 3.19D-01 DXNew= 8.4853D-01 9.5767D-01
 Trust test= 7.52D-01 RLast= 3.19D-01 DXMaxT set to 8.49D-01
 The second derivative matrix:
                          R1        R2        R3        A1        A2
           R1           0.25842
           R2           0.01953   0.25842
           R3           0.01953   0.01953   0.25842
           A1           0.00000   0.00000   0.00000   0.25000
           A2           0.00000   0.00000   0.00000   0.00000   0.25000
           A3          -0.00000  -0.00000  -0.00000  -0.00000  -0.00000
           D1          -0.00000  -0.00000  -0.00000  -0.00000  -0.00000
                          A3        D1
           A3           0.25000
           D1           0.00000   0.02752
 ITU=  1  1  0
 Use linear search instead of GDIIS.
     Eigenvalues ---    0.02752   0.23889   0.23889   0.25000   0.25000
     Eigenvalues ---    0.29747
 RFO step:  Lambda= 0.00000000D+00 EMin= 2.75228688D-02
 Quartic linear search produced a step of -0.03177.
 Iteration  1 RMS(Cart)=  0.00383351 RMS(Int)=  0.00000000
 Iteration  2 RMS(Cart)=  0.00000000 RMS(Int)=  0.00000000
 ClnCor:  largest displacement from symmetrization is 7.29D-14 for atom     3.
 Variable       Old X    -DE/DX   Delta X   Delta X   Delta X     New X
                                 (Linear)    (Quad)   (Total)
    R1        3.10069   0.00221   0.00586   0.00000   0.00586   3.10655
    R2        3.10069   0.00221   0.00586   0.00000   0.00586   3.10655
    R3        3.10069   0.00221   0.00586  -0.00000   0.00586   3.10655
    A1        2.09440  -0.00000   0.00000  -0.00000   0.00000   2.09440
    A2        2.09440  -0.00000   0.00000  -0.00000   0.00000   2.09440
    A3        2.09440   0.00000   0.00000   0.00000   0.00000   2.09440
    D1        3.14159   0.00000   0.00000   0.00000   0.00000   3.14159
         Item               Value     Threshold  Converged?
 Maximum Force            0.002214     0.000450     NO 
 RMS     Force            0.001449     0.000300     NO 
 Maximum Displacement     0.005856     0.001800     NO 
 RMS     Displacement     0.003834     0.001200     NO 
 Predicted change in Energy=-2.359470D-05
 GradGradGradGradGradGradGradGradGradGradGradGradGradGradGradGradGradGrad

                          Input orientation:                          
 ---------------------------------------------------------------------
 Center     Atomic      Atomic             Coordinates (Angstroms)
 Number     Number       Type             X           Y           Z
 ---------------------------------------------------------------------
      1         13           0       -0.000000   -0.000000   -0.000000
      2          9           0        0.000000    1.643914   -0.000000
      3          9           0        1.423671   -0.821957   -0.000000
      4          9           0       -1.423671   -0.821957   -0.000000
 ---------------------------------------------------------------------
                    Distance matrix (angstroms):
                    1          2          3          4
     1  Al   0.000000
     2  F    1.643914   0.000000
     3  F    1.643914   2.847342   0.000000
     4  F    1.643914   2.847342   2.847342   0.000000
 Stoichiometry    AlF3
 Framework group  D3H[O(Al),3C2(F)]
 Deg. of freedom     1
 Full point group                 D3H     NOp  12
 Largest Abelian subgroup         C2V     NOp   4
 Largest concise Abelian subgroup C2      NOp   2
                         Standard orientation:                         
 ---------------------------------------------------------------------
 Center     Atomic      Atomic             Coordinates (Angstroms)
 Number     Number       Type             X           Y           Z
 ---------------------------------------------------------------------
      1         13           0        0.000000    0.000000    0.000000
      2          9           0        0.000000    1.643914    0.000000
      3          9           0        1.423671   -0.821957    0.000000
      4          9           0       -1.423671   -0.821957    0.000000
 ---------------------------------------------------------------------
 Rotational constants (GHZ):      6.5622216      6.5622216      3.2811108
 Standard basis: 3-21G (6D, 7F)
 There are    19 symmetry adapted basis functions of A1  symmetry.
 There are     2 symmetry adapted basis functions of A2  symmetry.
 There are    12 symmetry adapted basis functions of B1  symmetry.
 There are     7 symmetry adapted basis functions of B2  symmetry.
 Integral buffers will be    131072 words long.
 Raffenetti 1 integral format.
 Two-electron integral symmetry is turned on.
    40 basis functions,    72 primitive gaussians,    40 cartesian basis functions
    20 alpha electrons       20 beta electrons
       nuclear repulsion energy       158.1486503722 Hartrees.
 NAtoms=    4 NActive=    4 NUniq=    2 SFac= 4.00D+00 NAtFMM=   60 NAOKFM=F Big=F
 One-electron integrals computed using PRISM.
 NBasis=    40 RedAO= T  NBF=    19     2    12     7
 NBsUse=    40 1.00D-06 NBFU=    19     2    12     7
 Initial guess read from the read-write file.
 B after Tr=     0.000000    0.000000   -0.000000
         Rot=    1.000000    0.000000   -0.000000    0.000000 Ang=   0.00 deg.
 Initial guess orbital symmetries:
       Occupied  (A1') (A1') (E') (E') (A1') (A2") (E') (E') (A1')
                 (E') (E') (A1') (E') (E') (A2") (E') (E') (E")
                 (E") (A2')
       Virtual   (A1') (A2") (E') (E') (A2") (A1') (E') (E') (E")
                 (E") (A2') (E') (E') (A2") (A1') (E') (E') (A1')
                 (E') (E')
 Requested convergence on RMS density matrix=1.00D-08 within 128 cycles.
 Requested convergence on MAX density matrix=1.00D-06.
 Requested convergence on             energy=1.00D-06.
 No special actions if energy rises.
 Keep R1 ints in memory in canonical form, NReq=1160294.
 SCF Done:  E(RHF) =  -537.522681911     A.U. after    7 cycles
             Convg  =    0.7622D-08             -V/T =  2.0023
 ExpMin= 6.39D-02 ExpMax= 7.76D+02 ExpMxC= 7.76D+02 IAcc=3 IRadAn=         5 AccDes= 0.00D+00
 HarFok:  IExCor=  205 AccDes= 0.00D+00 IRadAn=         5 IDoV=-2
 ScaDFX=  1.000000  1.000000  1.000000  1.000000
 Range of M.O.s used for correlation:     9    40
 NBasis=    40 NAE=    20 NBE=    20 NFC=     8 NFV=     0
 NROrb=     32 NOA=    12 NOB=    12 NVA=    20 NVB=    20
 Fully direct method using O(ONN) memory.
 JobTyp=1 Pass  1:  I=   9 to  20 NPSUse=  1 ParTrn=F ParDer=F DoDerP=T.
 Spin components of T(2) and E(2):
     alpha-alpha T2 =       0.1150223960D-01 E2=     -0.5215404710D-01
     alpha-beta  T2 =       0.5965588726D-01 E2=     -0.2804218481D+00
     beta-beta   T2 =       0.1150223960D-01 E2=     -0.5215404710D-01
 ANorm=    0.1040509667D+01
 E2 =    -0.3847299423D+00 EUMP2 =    -0.53790741185298D+03
          IDoAtm=1111
          Differentiating once with respect to electric field.
                with respect to dipole field.
          Differentiating once with respect to nuclear coordinates.
          Keep R1 ints in memory in canonical form, NReq=1137483.
          There are     1 degrees of freedom in the 1st order CPHF.  IDoFFX=0.
 LinEq1:  Iter=  0 NonCon=     1 RMS=1.14D-02 Max=1.48D-01
 AX will form     1 AO Fock derivatives at one time.
 LinEq1:  Iter=  1 NonCon=     1 RMS=1.33D-03 Max=1.02D-02
 LinEq1:  Iter=  2 NonCon=     1 RMS=4.47D-04 Max=3.72D-03
 LinEq1:  Iter=  3 NonCon=     1 RMS=6.56D-05 Max=6.73D-04
 LinEq1:  Iter=  4 NonCon=     1 RMS=6.53D-06 Max=7.75D-05
 LinEq1:  Iter=  5 NonCon=     1 RMS=7.24D-07 Max=5.26D-06
 LinEq1:  Iter=  6 NonCon=     1 RMS=5.90D-08 Max=5.64D-07
 LinEq1:  Iter=  7 NonCon=     1 RMS=4.25D-09 Max=2.99D-08
 LinEq1:  Iter=  8 NonCon=     1 RMS=4.80D-10 Max=3.77D-09
 LinEq1:  Iter=  9 NonCon=     0 RMS=3.67D-11 Max=2.34D-10
 Linear equations converged to 1.000D-10 1.000D-09 after     9 iterations.
 End of Minotr Frequency-dependent properties file   721 does not exist.
 End of Minotr Frequency-dependent properties file   722 does not exist.
 Calling FoFJK, ICntrl=      2127 FMM=F ISym2X=1 I1Cent= 0 IOpClX= 0 NMat=1 NMatS=1 NMatT=0.
 ***** Axes restored to original set *****
 -------------------------------------------------------------------
 Center     Atomic                   Forces (Hartrees/Bohr)
 Number     Number              X              Y              Z
 -------------------------------------------------------------------
      1       13          -0.000000000   -0.000000000   -0.000000000
      2        9           0.000000000   -0.000014766   -0.000000000
      3        9          -0.000012788    0.000007383    0.000000000
      4        9           0.000012788    0.000007383   -0.000000000
 -------------------------------------------------------------------
 Cartesian Forces:  Max     0.000014766 RMS     0.000007383

 GradGradGradGradGradGradGradGradGradGradGradGradGradGradGradGradGradGrad
 Berny optimization.
 Using GEDIIS/GDIIS optimizer.
 Internal  Forces:  Max     0.000014766 RMS     0.000009667
 Search for a local minimum.
 Step number   4 out of a maximum of   20
 All quantities printed in internal units (Hartrees-Bohrs-Radians)
 Mixed Optimization -- En-DIIS/RFO-DIIS
 Update second derivatives using D2CorX and points    2    3    4
 DE= -1.93D-05 DEPred=-2.36D-05 R= 8.16D-01
 SS=  1.41D+00  RLast= 1.01D-02 DXNew= 1.4270D+00 3.0428D-02
 Trust test= 8.16D-01 RLast= 1.01D-02 DXMaxT set to 8.49D-01
 The second derivative matrix:
                          R1        R2        R3        A1        A2
           R1           0.28613
           R2           0.04724   0.28613
           R3           0.04724   0.04724   0.28613
           A1           0.00000   0.00000   0.00000   0.25000
           A2          -0.00000  -0.00000  -0.00000  -0.00000   0.25000
           A3           0.00000   0.00000   0.00000   0.00000  -0.00000
           D1          -0.00000  -0.00000  -0.00000  -0.00000   0.00000
                          A3        D1
           A3           0.25000
           D1          -0.00000   0.02752
 ITU=  1  1  1  0
 Use linear search instead of GDIIS.
     Eigenvalues ---    0.02752   0.23889   0.23889   0.25000   0.25000
     Eigenvalues ---    0.38062
 RFO step:  Lambda= 0.00000000D+00 EMin= 2.75228688D-02
 Quartic linear search produced a step of -0.00668.
 Iteration  1 RMS(Cart)=  0.00002561 RMS(Int)=  0.00000000
 Iteration  2 RMS(Cart)=  0.00000000 RMS(Int)=  0.00000000
 ClnCor:  largest displacement from symmetrization is 5.59D-14 for atom     1.
 Variable       Old X    -DE/DX   Delta X   Delta X   Delta X     New X
                                 (Linear)    (Quad)   (Total)
    R1        3.10655  -0.00001  -0.00004   0.00000  -0.00004   3.10651
    R2        3.10655  -0.00001  -0.00004   0.00000  -0.00004   3.10651
    R3        3.10655  -0.00001  -0.00004  -0.00000  -0.00004   3.10651
    A1        2.09440  -0.00000   0.00000  -0.00000   0.00000   2.09440
    A2        2.09440   0.00000   0.00000   0.00000   0.00000   2.09440
    A3        2.09440   0.00000   0.00000   0.00000   0.00000   2.09440
    D1        3.14159   0.00000   0.00000   0.00000   0.00000   3.14159
         Item               Value     Threshold  Converged?
 Maximum Force            0.000015     0.000450     YES
 RMS     Force            0.000010     0.000300     YES
 Maximum Displacement     0.000039     0.001800     YES
 RMS     Displacement     0.000026     0.001200     YES
 Predicted change in Energy=-8.591923D-10
 Optimization completed.
    -- Stationary point found.
                           ----------------------------
                           !   Optimized Parameters   !
                           ! (Angstroms and Degrees)  !
 --------------------------                            --------------------------
 ! Name  Definition              Value          Derivative Info.                !
 --------------------------------------------------------------------------------
 ! R1    R(1,2)                  1.6439         -DE/DX =    0.0                 !
 ! R2    R(1,3)                  1.6439         -DE/DX =    0.0                 !
 ! R3    R(1,4)                  1.6439         -DE/DX =    0.0                 !
 ! A1    A(2,1,3)              120.0            -DE/DX =    0.0                 !
 ! A2    A(2,1,4)              120.0            -DE/DX =    0.0                 !
 ! A3    A(3,1,4)              120.0            -DE/DX =    0.0                 !
 ! D1    D(2,1,4,3)            180.0            -DE/DX =    0.0                 !
 --------------------------------------------------------------------------------
 GradGradGradGradGradGradGradGradGradGradGradGradGradGradGradGradGradGrad

                          Input orientation:                          
 ---------------------------------------------------------------------
 Center     Atomic      Atomic             Coordinates (Angstroms)
 Number     Number       Type             X           Y           Z
 ---------------------------------------------------------------------
      1         13           0       -0.000000   -0.000000   -0.000000
      2          9           0        0.000000    1.643914   -0.000000
      3          9           0        1.423671   -0.821957   -0.000000
      4          9           0       -1.423671   -0.821957   -0.000000
 ---------------------------------------------------------------------
                    Distance matrix (angstroms):
                    1          2          3          4
     1  Al   0.000000
     2  F    1.643914   0.000000
     3  F    1.643914   2.847342   0.000000
     4  F    1.643914   2.847342   2.847342   0.000000
 Stoichiometry    AlF3
 Framework group  D3H[O(Al),3C2(F)]
 Deg. of freedom     1
 Full point group                 D3H     NOp  12
 Largest Abelian subgroup         C2V     NOp   4
 Largest concise Abelian subgroup C2      NOp   2
                         Standard orientation:                         
 ---------------------------------------------------------------------
 Center     Atomic      Atomic             Coordinates (Angstroms)
 Number     Number       Type             X           Y           Z
 ---------------------------------------------------------------------
      1         13           0        0.000000    0.000000    0.000000
      2          9           0        0.000000    1.643914    0.000000
      3          9           0        1.423671   -0.821957    0.000000
      4          9           0       -1.423671   -0.821957    0.000000
 ---------------------------------------------------------------------
 Rotational constants (GHZ):      6.5622216      6.5622216      3.2811108

 **********************************************************************

            Population analysis using the SCF density.

 **********************************************************************

 Orbital symmetries:
       Occupied  (A1') (A1') (E') (E') (A1') (A2") (E') (E') (A1')
                 (E') (E') (A1') (E') (E') (A2") (E') (E') (E")
                 (E") (A2')
       Virtual   (A1') (A2") (E') (E') (A2") (A1') (E') (E') (E")
                 (E") (A2') (E') (E') (A2") (A1') (E') (E') (A1')
                 (E') (E')
 The electronic state is 1-A1'.
 Alpha  occ. eigenvalues --  -58.16270 -26.12555 -26.12555 -26.12555  -4.96686
 Alpha  occ. eigenvalues --   -3.27403  -3.27251  -3.27251  -1.54949  -1.53538
 Alpha  occ. eigenvalues --   -1.53538  -0.69451  -0.64795  -0.64795  -0.63982
 Alpha  occ. eigenvalues --   -0.61136  -0.61136  -0.60636  -0.60636  -0.59901
 Alpha virt. eigenvalues --    0.07697   0.08867   0.20340   0.20340   0.32956
 Alpha virt. eigenvalues --    0.40942   0.53905   0.53905   2.20903   2.20903
 Alpha virt. eigenvalues --    2.23729   2.26321   2.26321   2.35903   2.48092
 Alpha virt. eigenvalues --    2.48138   2.48138   3.69546   3.71257   3.71257
          Condensed to atoms (all electrons):
              1          2          3          4
     1  Al  10.663668   0.214995   0.214995   0.214995
     2  F    0.214995   9.351928  -0.001570  -0.001570
     3  F    0.214995  -0.001570   9.351928  -0.001570
     4  F    0.214995  -0.001570  -0.001570   9.351928
 Mulliken atomic charges:
              1
     1  Al   1.691348
     2  F   -0.563783
     3  F   -0.563783
     4  F   -0.563783
 Sum of Mulliken atomic charges =   0.00000
 Mulliken charges with hydrogens summed into heavy atoms:
              1
     1  Al   1.691348
     2  F   -0.563783
     3  F   -0.563783
     4  F   -0.563783
 Sum of Mulliken charges with hydrogens summed into heavy atoms =   0.00000
 Electronic spatial extent (au):  <R**2>=            322.9857
 Charge=              0.0000 electrons
 Dipole moment (field-independent basis, Debye):
    X=             -0.0000    Y=              0.0000    Z=             -0.0000  Tot=              0.0000
 Quadrupole moment (field-independent basis, Debye-Ang):
   XX=            -32.2227   YY=            -32.2227   ZZ=            -19.5098
   XY=              0.0000   XZ=             -0.0000   YZ=              0.0000
 Traceless Quadrupole moment (field-independent basis, Debye-Ang):
   XX=             -4.2377   YY=             -4.2377   ZZ=              8.4753
   XY=              0.0000   XZ=             -0.0000   YZ=              0.0000
 Octapole moment (field-independent basis, Debye-Ang**2):
  XXX=             -0.0000  YYY=             -9.6368  ZZZ=             -0.0000  XYY=             -0.0000
  XXY=              9.6368  XXZ=             -0.0000  XZZ=              0.0000  YZZ=              0.0000
  YYZ=              0.0000  XYZ=              0.0000
 Hexadecapole moment (field-independent basis, Debye-Ang**3):
 XXXX=           -158.6200 YYYY=           -158.6200 ZZZZ=            -13.1156 XXXY=              0.0000
 XXXZ=             -0.0000 YYYX=              0.0000 YYYZ=              0.0000 ZZZX=             -0.0000
 ZZZY=              0.0000 XXYY=            -52.8733 XXZZ=            -24.9192 YYZZ=            -24.9192
 XXYZ=              0.0000 YYXZ=             -0.0000 ZZXY=              0.0000
 N-N= 1.581486503722D+02 E-N=-1.604395657661D+03  KE= 5.362733302957D+02
 Symmetry A1   KE= 3.795460126490D+02
 Symmetry A2   KE= 6.189815715029D+00
 Symmetry B1   KE= 1.193069370308D+02
 Symmetry B2   KE= 3.123056490095D+01
 1\1\GINC-SRU01\FOpt\RMP2-FC\3-21G\Al1F3\JAMES\18-Sep-2023\0\\# opt fre
 q=hpmodes mp2/3-21g geom=connectivity\\Title Card Required\\0,1\Al,0.,
 0.,0.\F,0.0000000005,1.6439135354,0.\F,1.423670883,-0.8219567681,0.\F,
 -1.4236708835,-0.8219567673,0.\\Version=AM64L-G09RevC.01\State=1-A1'\H
 F=-537.5226819\MP2=-537.9074119\RMSD=7.622e-09\RMSF=7.383e-06\Dipole=0
 .,0.,0.\PG=D03H [O(Al1),3C2(F1)]\\@


      SCIENCE SANS CONSCIENCE N'EST QUE RUINE DE L'AME.

                                                  -- RABELAIS
 Job cpu time:  0 days  0 hours  0 minutes  4.5 seconds.
 File lengths (MBytes):  RWF=      5 Int=      0 D2E=      0 Chk=      2 Scr=      1
 Normal termination of Gaussian 09 at Mon Sep 18 09:13:57 2023.
 Link1:  Proceeding to internal job step number  2.
 -------------------------------------------------------------------
 #N Geom=AllCheck Guess=TCheck SCRF=Check GenChk RMP2(FC)/3-21G Freq
 -------------------------------------------------------------------
 1/10=4,29=7,30=1,38=1,40=1/1,3;
 2/12=2,40=1/2;
 3/5=5,11=1,14=-4,16=1,25=1,30=1,70=2,71=2,116=1/1,2,3;
 4/5=101/1;
 5/5=2,98=1/2;
 8/6=3,8=1,10=1,19=11,30=-1/1;
 9/15=3,16=-3/6;
 11/6=1,8=1,15=11,17=12,24=-1,27=1,28=-2,29=300,32=6,42=3/1,2,10;
 10/6=2,21=1/2;
 8/6=4,8=1,10=1,19=11,30=-1/11,4;
 10/5=1,20=4/2;
 11/12=2,14=11,16=1,17=2,28=-2,42=3/2,10,12;
 6/7=2,8=2,9=2,10=2/1;
 7/8=11,10=1,12=2,25=1,44=2/1,2,3,16;
 1/10=4,30=1/3;
 99//99;
 Structure from the checkpoint file:  AlF3.chk
 -------------------
 Title Card Required
 -------------------
 Charge =  0 Multiplicity = 1
 Redundant internal coordinates found in file.
 Al,0,0.,0.,0.
 F,0,0.0000000005,1.6439135354,0.
 F,0,1.423670883,-0.8219567681,0.
 F,0,-1.4236708835,-0.8219567673,0.
 Recover connectivity data from disk.

 GradGradGradGradGradGradGradGradGradGradGradGradGradGradGradGradGradGrad
 Berny optimization.
 Initialization pass.
                           ----------------------------
                           !    Initial Parameters    !
                           ! (Angstroms and Degrees)  !
 --------------------------                            --------------------------
 ! Name  Definition              Value          Derivative Info.                !
 --------------------------------------------------------------------------------
 ! R1    R(1,2)                  1.6439         calculate D2E/DX2 analytically  !
 ! R2    R(1,3)                  1.6439         calculate D2E/DX2 analytically  !
 ! R3    R(1,4)                  1.6439         calculate D2E/DX2 analytically  !
 ! A1    A(2,1,3)              120.0            calculate D2E/DX2 analytically  !
 ! A2    A(2,1,4)              120.0            calculate D2E/DX2 analytically  !
 ! A3    A(3,1,4)              120.0            calculate D2E/DX2 analytically  !
 ! D1    D(2,1,4,3)            180.0            calculate D2E/DX2 analytically  !
 --------------------------------------------------------------------------------
 Trust Radius=3.00D-01 FncErr=1.00D-07 GrdErr=1.00D-07
 Number of steps in this run=      2 maximum allowed number of steps=      2.
 GradGradGradGradGradGradGradGradGradGradGradGradGradGradGradGradGradGrad

                          Input orientation:                          
 ---------------------------------------------------------------------
 Center     Atomic      Atomic             Coordinates (Angstroms)
 Number     Number       Type             X           Y           Z
 ---------------------------------------------------------------------
      1         13           0       -0.000000   -0.000000   -0.000000
      2          9           0        0.000000    1.643914   -0.000000
      3          9           0        1.423671   -0.821957   -0.000000
      4          9           0       -1.423671   -0.821957   -0.000000
 ---------------------------------------------------------------------
                    Distance matrix (angstroms):
                    1          2          3          4
     1  Al   0.000000
     2  F    1.643914   0.000000
     3  F    1.643914   2.847342   0.000000
     4  F    1.643914   2.847342   2.847342   0.000000
 Stoichiometry    AlF3
 Framework group  D3H[O(Al),3C2(F)]
 Deg. of freedom     1
 Full point group                 D3H     NOp  12
 Largest Abelian subgroup         C2V     NOp   4
 Largest concise Abelian subgroup C2      NOp   2
                         Standard orientation:                         
 ---------------------------------------------------------------------
 Center     Atomic      Atomic             Coordinates (Angstroms)
 Number     Number       Type             X           Y           Z
 ---------------------------------------------------------------------
      1         13           0        0.000000    0.000000    0.000000
      2          9           0        0.000000    1.643914    0.000000
      3          9           0        1.423671   -0.821957    0.000000
      4          9           0       -1.423671   -0.821957    0.000000
 ---------------------------------------------------------------------
 Rotational constants (GHZ):      6.5622216      6.5622216      3.2811108
 Standard basis: 3-21G (6D, 7F)
 There are    19 symmetry adapted basis functions of A1  symmetry.
 There are     2 symmetry adapted basis functions of A2  symmetry.
 There are    12 symmetry adapted basis functions of B1  symmetry.
 There are     7 symmetry adapted basis functions of B2  symmetry.
 Integral buffers will be    131072 words long.
 Raffenetti 1 integral format.
 Two-electron integral symmetry is turned on.
    40 basis functions,    72 primitive gaussians,    40 cartesian basis functions
    20 alpha electrons       20 beta electrons
       nuclear repulsion energy       158.1486503722 Hartrees.
 NAtoms=    4 NActive=    4 NUniq=    2 SFac= 4.00D+00 NAtFMM=   60 NAOKFM=F Big=F
 One-electron integrals computed using PRISM.
 NBasis=    40 RedAO= T  NBF=    19     2    12     7
 NBsUse=    40 1.00D-06 NBFU=    19     2    12     7
 Initial guess read from the checkpoint file:  AlF3.chk
 B after Tr=     0.000000   -0.000000    0.000000
         Rot=    1.000000    0.000000    0.000000    0.000000 Ang=   0.00 deg.
 Initial guess orbital symmetries:
       Occupied  (A1') (A1') (E') (E') (A1') (A2") (E') (E') (A1')
                 (E') (E') (A1') (E') (E') (A2") (E') (E') (E")
                 (E") (A2')
       Virtual   (A1') (A2") (E') (E') (A2") (A1') (E') (E') (E")
                 (E") (A2') (E') (E') (A2") (A1') (E') (E') (A1')
                 (E') (E')
 Requested convergence on RMS density matrix=1.00D-08 within 128 cycles.
 Requested convergence on MAX density matrix=1.00D-06.
 Requested convergence on             energy=1.00D-06.
 No special actions if energy rises.
 Keep R1 ints in memory in canonical form, NReq=1160294.
 SCF Done:  E(RHF) =  -537.522681911     A.U. after    1 cycles
             Convg  =    0.3070D-09             -V/T =  2.0023
 ExpMin= 6.39D-02 ExpMax= 7.76D+02 ExpMxC= 7.76D+02 IAcc=3 IRadAn=         5 AccDes= 0.00D+00
 HarFok:  IExCor=  205 AccDes= 0.00D+00 IRadAn=         5 IDoV=-2
 ScaDFX=  1.000000  1.000000  1.000000  1.000000
 Range of M.O.s used for correlation:     9    40
 NBasis=    40 NAE=    20 NBE=    20 NFC=     8 NFV=     0
 NROrb=     32 NOA=    12 NOB=    12 NVA=    20 NVB=    20
 Disk-based method using ON**2 memory for 12 occupieds at a time.
 Permanent disk used for amplitudes=      196100 words.
 Estimated scratch disk usage=     1366216 words.
 Actual    scratch disk usage=     1366216 words.
 JobTyp=1 Pass  1:  I=   9 to  20 NPSUse=  1 ParTrn=F ParDer=F DoDerP=T.
 (rs|ai) integrals will be sorted in core.
 Spin components of T(2) and E(2):
     alpha-alpha T2 =       0.1150223958D-01 E2=     -0.5215404706D-01
     alpha-beta  T2 =       0.5965588720D-01 E2=     -0.2804218479D+00
     beta-beta   T2 =       0.1150223958D-01 E2=     -0.5215404706D-01
 ANorm=    0.1040509667D+01
 E2 =    -0.3847299420D+00 EUMP2 =    -0.53790741185271D+03
 G2DrvN: will do     5 centers at a time, making    1 passes doing MaxLOS=1.
 Calling FoFCou, ICntrl=  3107 FMM=F I1Cent=   0 AccDes= 0.00D+00.
 FoFDir/FoFCou used for L=0 through L=1.
 End of G2Drv Frequency-dependent properties file   721 does not exist.
 End of G2Drv Frequency-dependent properties file   722 does not exist.
          IDoAtm=1111
          Differentiating once with respect to electric field.
                with respect to dipole field.
          Differentiating once with respect to nuclear coordinates.
          Keep R1 ints in memory in canonical form, NReq=1137483.
          There are    15 degrees of freedom in the 1st order CPHF.  IDoFFX=5.
     12 vectors produced by pass  0 Test12= 2.67D-15 6.67D-09 XBig12= 2.55D+00 8.96D-01.
 AX will form    12 AO Fock derivatives at one time.
     12 vectors produced by pass  1 Test12= 2.67D-15 6.67D-09 XBig12= 1.23D-01 1.43D-01.
     12 vectors produced by pass  2 Test12= 2.67D-15 6.67D-09 XBig12= 4.72D-03 2.43D-02.
     12 vectors produced by pass  3 Test12= 2.67D-15 6.67D-09 XBig12= 1.45D-05 1.97D-03.
     12 vectors produced by pass  4 Test12= 2.67D-15 6.67D-09 XBig12= 1.20D-07 1.19D-04.
     12 vectors produced by pass  5 Test12= 2.67D-15 6.67D-09 XBig12= 7.39D-10 8.57D-06.
     11 vectors produced by pass  6 Test12= 2.67D-15 6.67D-09 XBig12= 3.44D-12 5.71D-07.
      3 vectors produced by pass  7 Test12= 2.67D-15 6.67D-09 XBig12= 8.76D-15 3.23D-08.
 Inverted reduced A of dimension    86 with in-core refinement.
 End of Minotr Frequency-dependent properties file   721 does not exist.
 End of Minotr Frequency-dependent properties file   722 does not exist.
 MDV=    33554432.
 Form MO integral derivatives with frozen-active canonical formalism.
 Discarding MO integrals.
 Reordered first order wavefunction length =       320000
 In DefCFB: NBatch=  1 ICI= 20 ICA= 20 LFMax= 20
            Large arrays: LIAPS=     2560000 LIARS=     1456000 words.
 Semi-Direct transformation.
 ModeAB=           4 MOrb=            20 LenV=      33426933
 LASXX=       366245 LTotXX=      366245 LenRXX=      782445
 LTotAB=      416200 MaxLAS=      463200 LenRXY=           0
 NonZer=     1148690 LenScr=     2357760 LnRSAI=      463200
 LnScr1=     1389568 LExtra=           0 Total=      4992973
 MaxDsk=          -1 SrtSym=           T ITran=            4
 JobTyp=0 Pass  1:  I=   1 to  20.
 (rs|ai) integrals will be sorted in core.
 Spin components of T(2) and E(2):
     alpha-alpha T2 =       0.1150223958D-01 E2=     -0.5215404706D-01
     alpha-beta  T2 =       0.5965588720D-01 E2=     -0.2804218479D+00
     beta-beta   T2 =       0.1150223958D-01 E2=     -0.5215404706D-01
 ANorm=    0.1471502882D+01
 E2 =    -0.3847299420D+00 EUMP2 =    -0.53790741185271D+03
          IDoAtm=1111
          Differentiating once with respect to electric field.
                with respect to dipole field.
          Differentiating once with respect to nuclear coordinates.
          There are     1 degrees of freedom in the 1st order CPHF.  IDoFFX=0.
 LinEq1:  Iter=  0 NonCon=     1 RMS=1.14D-02 Max=1.48D-01
 LinEq1:  Iter=  1 NonCon=     1 RMS=1.33D-03 Max=1.02D-02
 LinEq1:  Iter=  2 NonCon=     1 RMS=4.47D-04 Max=3.72D-03
 LinEq1:  Iter=  3 NonCon=     1 RMS=6.56D-05 Max=6.73D-04
 LinEq1:  Iter=  4 NonCon=     1 RMS=6.53D-06 Max=7.75D-05
 LinEq1:  Iter=  5 NonCon=     1 RMS=7.24D-07 Max=5.26D-06
 LinEq1:  Iter=  6 NonCon=     1 RMS=5.90D-08 Max=5.64D-07
 LinEq1:  Iter=  7 NonCon=     1 RMS=4.25D-09 Max=2.99D-08
 LinEq1:  Iter=  8 NonCon=     1 RMS=4.80D-10 Max=3.77D-09
 LinEq1:  Iter=  9 NonCon=     0 RMS=3.67D-11 Max=2.34D-10
 Linear equations converged to 1.000D-10 1.000D-09 after     9 iterations.
 End of Minotr Frequency-dependent properties file   721 does not exist.
 End of Minotr Frequency-dependent properties file   722 does not exist.
 Symmetrizing basis deriv contribution to polar:
 IMax=3 JMax=2 DiffMx= 0.00D+00
 G2DrvN: will do     5 centers at a time, making    1 passes doing MaxLOS=1.
 Calling FoFCou, ICntrl=  3107 FMM=F I1Cent=   0 AccDes= 0.00D+00.
 FoFDir/FoFCou used for L=0 through L=1.
 End of G2Drv Frequency-dependent properties file   721 does not exist.
 End of G2Drv Frequency-dependent properties file   722 does not exist.
 R2 and R3 integrals will be kept in memory, NReq=     1473220.
 DD1Dir will call FoFMem   1 times, MxPair=       420
 NAB=   210 NAA=     0 NBB=     0.
 Discarding MO integrals.

 **********************************************************************

            Population analysis using the SCF density.

 **********************************************************************

 Orbital symmetries:
       Occupied  (A1') (A1') (E') (E') (A1') (A2") (E') (E') (A1')
                 (E') (E') (A1') (E') (E') (A2") (E') (E') (E")
                 (E") (A2')
       Virtual   (A1') (A2") (E') (E') (A2") (A1') (E') (E') (E")
                 (E") (A2') (E') (E') (A2") (A1') (E') (E') (A1')
                 (E') (E')
 The electronic state is 1-A1'.
 Alpha  occ. eigenvalues --  -58.16270 -26.12555 -26.12555 -26.12555  -4.96686
 Alpha  occ. eigenvalues --   -3.27403  -3.27251  -3.27251  -1.54949  -1.53538
 Alpha  occ. eigenvalues --   -1.53538  -0.69451  -0.64795  -0.64795  -0.63982
 Alpha  occ. eigenvalues --   -0.61136  -0.61136  -0.60636  -0.60636  -0.59901
 Alpha virt. eigenvalues --    0.07697   0.08867   0.20340   0.20340   0.32956
 Alpha virt. eigenvalues --    0.40942   0.53905   0.53905   2.20903   2.20903
 Alpha virt. eigenvalues --    2.23729   2.26321   2.26321   2.35903   2.48092
 Alpha virt. eigenvalues --    2.48138   2.48138   3.69546   3.71257   3.71257
          Condensed to atoms (all electrons):
              1          2          3          4
     1  Al  10.663668   0.214995   0.214995   0.214995
     2  F    0.214995   9.351928  -0.001570  -0.001570
     3  F    0.214995  -0.001570   9.351928  -0.001570
     4  F    0.214995  -0.001570  -0.001570   9.351928
 Mulliken atomic charges:
              1
     1  Al   1.691348
     2  F   -0.563783
     3  F   -0.563783
     4  F   -0.563783
 Sum of Mulliken atomic charges =  -0.00000
 Mulliken charges with hydrogens summed into heavy atoms:
              1
     1  Al   1.691348
     2  F   -0.563783
     3  F   -0.563783
     4  F   -0.563783
 Sum of Mulliken charges with hydrogens summed into heavy atoms =  -0.00000
 APT atomic charges:
              1
     1  Al   1.670472
     2  F   -0.556824
     3  F   -0.556824
     4  F   -0.556824
 Sum of APT charges=  -0.00000
 APT Atomic charges with hydrogens summed into heavy atoms:
              1
     1  Al   1.670472
     2  F   -0.556824
     3  F   -0.556824
     4  F   -0.556824
 Sum of APT charges=  -0.00000
 Electronic spatial extent (au):  <R**2>=            322.9857
 Charge=             -0.0000 electrons
 Dipole moment (field-independent basis, Debye):
    X=              0.0000    Y=              0.0000    Z=             -0.0000  Tot=              0.0000
 Quadrupole moment (field-independent basis, Debye-Ang):
   XX=            -32.2227   YY=            -32.2227   ZZ=            -19.5098
   XY=              0.0000   XZ=             -0.0000   YZ=             -0.0000
 Traceless Quadrupole moment (field-independent basis, Debye-Ang):
   XX=             -4.2377   YY=             -4.2377   ZZ=              8.4753
   XY=              0.0000   XZ=             -0.0000   YZ=             -0.0000
 Octapole moment (field-independent basis, Debye-Ang**2):
  XXX=              0.0000  YYY=             -9.6368  ZZZ=             -0.0000  XYY=             -0.0000
  XXY=              9.6368  XXZ=             -0.0000  XZZ=              0.0000  YZZ=              0.0000
  YYZ=              0.0000  XYZ=             -0.0000
 Hexadecapole moment (field-independent basis, Debye-Ang**3):
 XXXX=           -158.6200 YYYY=           -158.6200 ZZZZ=            -13.1156 XXXY=              0.0000
 XXXZ=              0.0000 YYYX=              0.0000 YYYZ=              0.0000 ZZZX=              0.0000
 ZZZY=             -0.0000 XXYY=            -52.8733 XXZZ=            -24.9192 YYZZ=            -24.9192
 XXYZ=              0.0000 YYXZ=              0.0000 ZZXY=              0.0000
 N-N= 1.581486503722D+02 E-N=-1.604395657591D+03  KE= 5.362733302512D+02
 Symmetry A1   KE= 3.795460126074D+02
 Symmetry A2   KE= 6.189815729768D+00
 Symmetry B1   KE= 1.193069369699D+02
 Symmetry B2   KE= 3.123056494416D+01
  Exact polarizability:  13.855  -0.000  13.855   0.000  -0.000   7.853
 Approx polarizability:   8.823  -0.000   8.823   0.000   0.000   4.177
 Calling FoFJK, ICntrl=    100127 FMM=F ISym2X=1 I1Cent= 0 IOpClX= 0 NMat=1 NMatS=1 NMatT=0.
 Full mass-weighted force constant matrix:
 Low frequencies ---    0.0017    0.0022    0.0025    2.5706    2.5706    2.5710
 Low frequencies ---  277.0178  278.4062  278.4062
 Harmonic frequencies (cm**-1), IR intensities (KM/Mole), Raman scattering
 activities (A**4/AMU), depolarization ratios for plane and unpolarized
 incident light, reduced masses (AMU), force constants (mDyne/A),
 and normal coordinates:
                           1         2         3         4         5
                          A2"       E'        E'        A1'       E'
       Frequencies ---   277.0178  278.4062  278.4062  724.5826 1038.7502
    Reduced masses ---    23.7721   19.8841   19.8841   18.9984   22.5171
   Force constants ---     1.0748    0.9081    0.9081    5.8768   14.3148
    IR Intensities ---   161.2567   43.8325   43.8325    0.0000   99.8515
 Coord Atom Element:
   1     1    13         -0.00000  -0.31266   0.11484   0.00000   0.17698
   2     1    13          0.00000   0.11484   0.31266   0.00000   0.63988
   3     1    13          0.77329  -0.00000   0.00000   0.00000   0.00000
   1     2     9          0.00000   0.63711  -0.23402  -0.00000  -0.00487
   2     2     9          0.00000   0.12528   0.34108   0.57735  -0.58823
   3     2     9         -0.36607   0.00000  -0.00000  -0.00000  -0.00000
   1     3     9         -0.00000  -0.25212  -0.38811   0.50000   0.12385
   2     3     9          0.00000   0.27938  -0.54814  -0.28868  -0.09192
   3     3     9         -0.36607   0.00000  -0.00000  -0.00000  -0.00000
   1     4     9         -0.00000   0.05905   0.45903  -0.50000  -0.37033
   2     4     9         -0.00000  -0.56776  -0.23698  -0.28868  -0.22860
   3     4     9         -0.36607   0.00000  -0.00000  -0.00000  -0.00000
                           6
                          E'
       Frequencies ---  1038.7502
    Reduced masses ---    22.5171
   Force constants ---    14.3148
    IR Intensities ---    99.8515
 Coord Atom Element:
   1     1    13          0.63988
   2     1    13         -0.17698
   3     1    13         -0.00000
   1     2     9         -0.01760
   2     2     9          0.16270
   3     2     9          0.00000
   1     3     9         -0.51392
   2     3     9          0.29142
   3     3     9          0.00000
   1     4     9         -0.37723
   2     4     9         -0.20276
   3     4     9          0.00000
 Harmonic frequencies (cm**-1), IR intensities (KM/Mole), Raman scattering
 activities (A**4/AMU), depolarization ratios for plane and unpolarized
 incident light, reduced masses (AMU), force constants (mDyne/A),
 and normal coordinates:
                     1                      2                      3
                    A2"                    E'                     E'
 Frequencies --   277.0178               278.4062               278.4062
 Red. masses --    23.7721                19.8841                19.8841
 Frc consts  --     1.0748                 0.9081                 0.9081
 IR Inten    --   161.2567                43.8325                43.8325
  Atom  AN      X      Y      Z        X      Y      Z        X      Y      Z
     1  13    -0.00   0.00   0.77    -0.31   0.11  -0.00     0.11   0.31   0.00
     2   9     0.00   0.00  -0.37     0.64   0.13   0.00    -0.23   0.34  -0.00
     3   9    -0.00   0.00  -0.37    -0.25   0.28   0.00    -0.39  -0.55  -0.00
     4   9    -0.00  -0.00  -0.37     0.06  -0.57   0.00     0.46  -0.24  -0.00
                     4                      5                      6
                    A1'                    E'                     E'
 Frequencies --   724.5826              1038.7502              1038.7502
 Red. masses --    18.9984                22.5171                22.5171
 Frc consts  --     5.8768                14.3148                14.3148
 IR Inten    --     0.0000                99.8515                99.8515
  Atom  AN      X      Y      Z        X      Y      Z        X      Y      Z
     1  13     0.00   0.00   0.00     0.18   0.64   0.00     0.64  -0.18  -0.00
     2   9    -0.00   0.58  -0.00    -0.00  -0.59  -0.00    -0.02   0.16   0.00
     3   9     0.50  -0.29  -0.00     0.12  -0.09  -0.00    -0.51   0.29   0.00
     4   9    -0.50  -0.29  -0.00    -0.37  -0.23  -0.00    -0.38  -0.20   0.00

 -------------------
 - Thermochemistry -
 -------------------
 Temperature   298.150 Kelvin.  Pressure   1.00000 Atm.
 Atom     1 has atomic number 13 and mass  26.98154
 Atom     2 has atomic number  9 and mass  18.99840
 Atom     3 has atomic number  9 and mass  18.99840
 Atom     4 has atomic number  9 and mass  18.99840
 Molecular mass:    83.97675 amu.
 Principal axes and moments of inertia in atomic units:
                           1         2         3
     Eigenvalues --   275.01985 275.01985 550.03970
           X           -0.38268   0.92388   0.00000
           Y            0.92388   0.38268   0.00000
           Z            0.00000   0.00000   1.00000
 This molecule is an oblate symmetric top.
 Rotational symmetry number  6.
 Rotational temperatures (Kelvin)      0.31494     0.31494     0.15747
 Rotational constants (GHZ):           6.56222     6.56222     3.28111
 Zero-point vibrational energy      21747.6 (Joules/Mol)
                                    5.19780 (Kcal/Mol)
 Warning -- explicit consideration of   3 degrees of freedom as
           vibrations may cause significant error
 Vibrational temperatures:    398.57   400.56   400.56  1042.51  1494.53
          (Kelvin)           1494.53
 
 Zero-point correction=                           0.008283 (Hartree/Particle)
 Thermal correction to Energy=                    0.012628
 Thermal correction to Enthalpy=                  0.013572
 Thermal correction to Gibbs Free Energy=        -0.017762
 Sum of electronic and zero-point Energies=           -537.899129
 Sum of electronic and thermal Energies=              -537.894784
 Sum of electronic and thermal Enthalpies=            -537.893840
 Sum of electronic and thermal Free Energies=         -537.925174
 
                     E (Thermal)             CV                S
                      KCal/Mol        Cal/Mol-Kelvin    Cal/Mol-Kelvin
 Total                    7.924             12.561             65.948
 Electronic               0.000              0.000              0.000
 Translational            0.889              2.981             39.198
 Rotational               0.889              2.981             21.674
 Vibrational              6.147              6.599              5.077
 Vibration     1          0.678              1.716              1.552
 Vibration     2          0.679              1.713              1.543
 Vibration     3          0.679              1.713              1.543
                       Q            Log10(Q)             Ln(Q)
 Total Bot       0.147938D+09          8.170080         18.812304
 Total V=0       0.955187D+12         11.980088         27.585173
 Vib (Bot)       0.401911D-03         -3.395870         -7.819280
 Vib (Bot)    1  0.695129D+00         -0.157935         -0.363658
 Vib (Bot)    2  0.691160D+00         -0.160422         -0.369384
 Vib (Bot)    3  0.691160D+00         -0.160422         -0.369384
 Vib (V=0)       0.259501D+01          0.414138          0.953589
 Vib (V=0)    1  0.135627D+01          0.132347          0.304741
 Vib (V=0)    2  0.135305D+01          0.131315          0.302364
 Vib (V=0)    3  0.135305D+01          0.131315          0.302364
 Electronic      0.100000D+01          0.000000          0.000000
 Translational   0.302478D+08          7.480694         17.224934
 Rotational      0.121690D+05          4.085256          9.406650
 ***** Axes restored to original set *****
 -------------------------------------------------------------------
 Center     Atomic                   Forces (Hartrees/Bohr)
 Number     Number              X              Y              Z
 -------------------------------------------------------------------
      1       13           0.000000000   -0.000000000   -0.000000000
      2        9          -0.000000000   -0.000014766    0.000000000
      3        9          -0.000012788    0.000007383   -0.000000000
      4        9           0.000012788    0.000007383    0.000000000
 -------------------------------------------------------------------
 Cartesian Forces:  Max     0.000014766 RMS     0.000007383

 GradGradGradGradGradGradGradGradGradGradGradGradGradGradGradGradGradGrad
 Berny optimization.
 Internal  Forces:  Max     0.000014766 RMS     0.000009667
 Search for a local minimum.
 Step number   1 out of a maximum of    2
 All quantities printed in internal units (Hartrees-Bohrs-Radians)
 Second derivative matrix not updated -- analytic derivatives used.
 The second derivative matrix:
                          R1        R2        R3        A1        A2
           R1           0.37666
           R2           0.00040   0.37666
           R3           0.00040   0.00040   0.37666
           A1           0.00523   0.00523  -0.01047   0.07960
           A2           0.00523  -0.01047   0.00523  -0.03980   0.07960
           A3          -0.01047   0.00523   0.00523  -0.03980  -0.03980
           D1           0.00000  -0.00000  -0.00000  -0.00000   0.00000
                          A3        D1
           A3           0.07960
           D1           0.00000   0.04276
 ITU=  0
     Eigenvalues ---    0.04276   0.11844   0.11844   0.37721   0.37721
     Eigenvalues ---    0.37747
 Angle between quadratic step and forces=   0.00 degrees.
 Linear search not attempted -- first point.
 Iteration  1 RMS(Cart)=  0.00002561 RMS(Int)=  0.00000000
 Iteration  2 RMS(Cart)=  0.00000000 RMS(Int)=  0.00000000
 ClnCor:  largest displacement from symmetrization is 1.74D-13 for atom     4.
 Variable       Old X    -DE/DX   Delta X   Delta X   Delta X     New X
                                 (Linear)    (Quad)   (Total)
    R1        3.10655  -0.00001   0.00000  -0.00004  -0.00004   3.10651
    R2        3.10655  -0.00001   0.00000  -0.00004  -0.00004   3.10651
    R3        3.10655  -0.00001   0.00000  -0.00004  -0.00004   3.10651
    A1        2.09440  -0.00000   0.00000  -0.00000  -0.00000   2.09440
    A2        2.09440  -0.00000   0.00000  -0.00000   0.00000   2.09440
    A3        2.09440   0.00000   0.00000   0.00000   0.00000   2.09440
    D1        3.14159   0.00000   0.00000   0.00000   0.00000   3.14159
         Item               Value     Threshold  Converged?
 Maximum Force            0.000015     0.000450     YES
 RMS     Force            0.000010     0.000300     YES
 Maximum Displacement     0.000039     0.001800     YES
 RMS     Displacement     0.000026     0.001200     YES
 Predicted change in Energy=-8.664320D-10
 Optimization completed.
    -- Stationary point found.
                           ----------------------------
                           !   Optimized Parameters   !
                           ! (Angstroms and Degrees)  !
 --------------------------                            --------------------------
 ! Name  Definition              Value          Derivative Info.                !
 --------------------------------------------------------------------------------
 ! R1    R(1,2)                  1.6439         -DE/DX =    0.0                 !
 ! R2    R(1,3)                  1.6439         -DE/DX =    0.0                 !
 ! R3    R(1,4)                  1.6439         -DE/DX =    0.0                 !
 ! A1    A(2,1,3)              120.0            -DE/DX =    0.0                 !
 ! A2    A(2,1,4)              120.0            -DE/DX =    0.0                 !
 ! A3    A(3,1,4)              120.0            -DE/DX =    0.0                 !
 ! D1    D(2,1,4,3)            180.0            -DE/DX =    0.0                 !
 --------------------------------------------------------------------------------
 GradGradGradGradGradGradGradGradGradGradGradGradGradGradGradGradGradGrad

 1\1\GINC-SRU01\Freq\RMP2-FC\3-21G\Al1F3\JAMES\18-Sep-2023\0\\#N Geom=A
 llCheck Guess=TCheck SCRF=Check GenChk RMP2(FC)/3-21G Freq\\Title Card
  Required\\0,1\Al,0.,0.,0.\F,0.0000000005,1.6439135354,0.\F,1.42367088
 3,-0.8219567681,0.\F,-1.4236708835,-0.8219567673,0.\\Version=AM64L-G09
 RevC.01\State=1-A1'\HF=-537.5226819\MP2=-537.9074119\RMSD=3.070e-10\RM
 SF=7.383e-06\ZeroPoint=0.0082832\Thermal=0.0126277\Dipole=0.,0.,0.\Dip
 oleDeriv=1.6354937,0.,0.,0.,1.6354937,0.,0.,0.,1.7404287,-0.636575,0.,
 0.,0.,-0.4537541,0.,0.,0.,-0.5801429,-0.4994593,-0.0791638,0.,-0.07916
 38,-0.5908698,0.,0.,0.,-0.5801429,-0.4994593,0.0791638,0.,0.0791638,-0
 .5908698,0.,0.,0.,-0.5801429\Polar=13.8553348,0.,13.8553348,0.,0.,7.85
 25715\PG=D03H [O(Al1),3C2(F1)]\NImag=0\\0.59380834,0.,0.59380834,0.,0.
 ,0.05318055,-0.02836748,0.,0.,0.02474828,0.,-0.36750475,0.,0.,0.376662
 11,0.,0.,-0.01772685,0.,0.,0.00591212,-0.28272043,0.14685074,0.,0.0018
 0960,-0.00217608,0.,0.28868365,0.14685074,-0.11315180,0.,0.01324091,-0
 .00457868,0.,-0.15238316,0.11272674,0.,0.,-0.01772685,0.,0.,0.00590737
 ,0.,0.,0.00591212,-0.28272043,-0.14685074,0.,0.00180960,0.00217608,0.,
 -0.00777282,-0.00770850,0.,0.28868365,-0.14685074,-0.11315180,0.,-0.01
 324091,-0.00457868,0.,0.00770850,0.00500374,0.,0.15238316,0.11272674,0
 .,0.,-0.01772685,0.,0.,0.00590737,0.,0.,0.00590737,0.,0.,0.00591212\\0
 .,0.,0.,0.,0.00001477,0.,0.00001279,-0.00000738,0.,-0.00001279,-0.0000
 0738,0.\\\@


 ERROR IS A HARDY PLANT... IT FLOURISHETH IN EVERY SOIL.
            MARTIN FARQUHAR TUPPER
 Job cpu time:  0 days  0 hours  0 minutes  5.5 seconds.
 File lengths (MBytes):  RWF=     48 Int=      0 D2E=      0 Chk=      2 Scr=      1
 Normal termination of Gaussian 09 at Mon Sep 18 09:14:06 2023.
