 Entering Gaussian System, Link 0=g09
 Input=AsF3.com
 Output=AsF3.log
 Initial command:
 /usr/local/g09/l1.exe /scratch/james/Gau-30628.inp -scrdir=/scratch/james/
 Entering Link 1 = /usr/local/g09/l1.exe PID=     30632.
  
 Copyright (c) 1988,1990,1992,1993,1995,1998,2003,2009,2011,
            Gaussian, Inc.  All Rights Reserved.
  
 This is part of the Gaussian(R) 09 program.  It is based on
 the Gaussian(R) 03 system (copyright 2003, Gaussian, Inc.),
 the Gaussian(R) 98 system (copyright 1998, Gaussian, Inc.),
 the Gaussian(R) 94 system (copyright 1995, Gaussian, Inc.),
 the Gaussian 92(TM) system (copyright 1992, Gaussian, Inc.),
 the Gaussian 90(TM) system (copyright 1990, Gaussian, Inc.),
 the Gaussian 88(TM) system (copyright 1988, Gaussian, Inc.),
 the Gaussian 86(TM) system (copyright 1986, Carnegie Mellon
 University), and the Gaussian 82(TM) system (copyright 1983,
 Carnegie Mellon University). Gaussian is a federally registered
 trademark of Gaussian, Inc.
  
 This software contains proprietary and confidential information,
 including trade secrets, belonging to Gaussian, Inc.
  
 This software is provided under written license and may be
 used, copied, transmitted, or stored only in accord with that
 written license.
  
 The following legend is applicable only to US Government
 contracts under FAR:
  
                    RESTRICTED RIGHTS LEGEND
  
 Use, reproduction and disclosure by the US Government is
 subject to restrictions as set forth in subparagraphs (a)
 and (c) of the Commercial Computer Software - Restricted
 Rights clause in FAR 52.227-19.
  
 Gaussian, Inc.
 340 Quinnipiac St., Bldg. 40, Wallingford CT 06492
  
  
 ---------------------------------------------------------------
 Warning -- This program may not be used in any manner that
 competes with the business of Gaussian, Inc. or will provide
 assistance to any competitor of Gaussian, Inc.  The licensee
 of this program is prohibited from giving any competitor of
 Gaussian, Inc. access to this program.  By using this program,
 the user acknowledges that Gaussian, Inc. is engaged in the
 business of creating and licensing software in the field of
 computational chemistry and represents and warrants to the
 licensee that it is not a competitor of Gaussian, Inc. and that
 it will not use this program in any manner prohibited above.
 ---------------------------------------------------------------
  

 Cite this work as:
 Gaussian 09, Revision C.01,
 M. J. Frisch, G. W. Trucks, H. B. Schlegel, G. E. Scuseria, 
 M. A. Robb, J. R. Cheeseman, G. Scalmani, V. Barone, B. Mennucci, 
 G. A. Petersson, H. Nakatsuji, M. Caricato, X. Li, H. P. Hratchian, 
 A. F. Izmaylov, J. Bloino, G. Zheng, J. L. Sonnenberg, M. Hada, 
 M. Ehara, K. Toyota, R. Fukuda, J. Hasegawa, M. Ishida, T. Nakajima, 
 Y. Honda, O. Kitao, H. Nakai, T. Vreven, J. A. Montgomery, Jr., 
 J. E. Peralta, F. Ogliaro, M. Bearpark, J. J. Heyd, E. Brothers, 
 K. N. Kudin, V. N. Staroverov, T. Keith, R. Kobayashi, J. Normand, 
 K. Raghavachari, A. Rendell, J. C. Burant, S. S. Iyengar, J. Tomasi, 
 M. Cossi, N. Rega, J. M. Millam, M. Klene, J. E. Knox, J. B. Cross, 
 V. Bakken, C. Adamo, J. Jaramillo, R. Gomperts, R. E. Stratmann, 
 O. Yazyev, A. J. Austin, R. Cammi, C. Pomelli, J. W. Ochterski, 
 R. L. Martin, K. Morokuma, V. G. Zakrzewski, G. A. Voth, 
 P. Salvador, J. J. Dannenberg, S. Dapprich, A. D. Daniels, 
 O. Farkas, J. B. Foresman, J. V. Ortiz, J. Cioslowski, 
 and D. J. Fox, Gaussian, Inc., Wallingford CT, 2010.
 
 ******************************************
 Gaussian 09:  AM64L-G09RevC.01 23-Sep-2011
                 4-Sep-2023 
 ******************************************
 %chk=AsF3.chk
 ----------------------------------------------
 # opt freq=hpmodes mp2/3-21g geom=connectivity
 ----------------------------------------------
 1/18=20,19=15,38=1,57=2/1,3;
 2/9=110,12=2,17=6,18=5,40=1/2;
 3/5=5,11=9,16=1,25=1,30=1,71=1/1,2,3;
 4//1;
 5/5=2,38=5/2;
 8/6=4,10=1/1;
 9/15=2,16=-3/6;
 10/5=1/2;
 6/7=2,8=2,9=2,10=2/1;
 7/12=2/1,2,3,16;
 1/18=20,19=15/3(2);
 2/9=110/2;
 99//99;
 2/9=110/2;
 3/5=5,11=9,16=1,25=1,30=1,71=1/1,2,3;
 4/5=5,16=3/1;
 5/5=2,38=5/2;
 8/6=4,10=1/1;
 9/15=2,16=-3/6;
 10/5=1/2;
 7/12=2/1,2,3,16;
 1/18=20,19=15/3(-8);
 2/9=110/2;
 6/7=2,8=2,9=2,10=2/1;
 99//99;
 -------------------
 Title Card Required
 -------------------
 Charge =  0 Multiplicity = 1
 Symbolic Z-Matrix:
 As                    0.        0.        0.2685 
 F                     0.        1.68763  -0.32817 
 F                    -1.46153  -0.84381  -0.32817 
 F                     1.46153  -0.84381  -0.32817 
 

 GradGradGradGradGradGradGradGradGradGradGradGradGradGradGradGradGradGrad
 Berny optimization.
 Initialization pass.
                           ----------------------------
                           !    Initial Parameters    !
                           ! (Angstroms and Degrees)  !
 --------------------------                            --------------------------
 ! Name  Definition              Value          Derivative Info.                !
 --------------------------------------------------------------------------------
 ! R1    R(1,2)                  1.79           estimate D2E/DX2                !
 ! R2    R(1,3)                  1.79           estimate D2E/DX2                !
 ! R3    R(1,4)                  1.79           estimate D2E/DX2                !
 ! A1    A(2,1,3)              109.4712         estimate D2E/DX2                !
 ! A2    A(2,1,4)              109.4712         estimate D2E/DX2                !
 ! A3    A(3,1,4)              109.4712         estimate D2E/DX2                !
 ! D1    D(2,1,4,3)           -120.0            estimate D2E/DX2                !
 --------------------------------------------------------------------------------
 Trust Radius=3.00D-01 FncErr=1.00D-07 GrdErr=1.00D-07
 Number of steps in this run=     20 maximum allowed number of steps=    100.
 GradGradGradGradGradGradGradGradGradGradGradGradGradGradGradGradGradGrad

                          Input orientation:                          
 ---------------------------------------------------------------------
 Center     Atomic      Atomic             Coordinates (Angstroms)
 Number     Number       Type             X           Y           Z
 ---------------------------------------------------------------------
      1         33           0        0.000000    0.000000    0.268500
      2          9           0        0.000000    1.687628   -0.328167
      3          9           0       -1.461529   -0.843814   -0.328167
      4          9           0        1.461529   -0.843814   -0.328167
 ---------------------------------------------------------------------
                    Distance matrix (angstroms):
                    1          2          3          4
     1  As   0.000000
     2  F    1.790000   0.000000
     3  F    1.790000   2.923058   0.000000
     4  F    1.790000   2.923058   2.923058   0.000000
 Stoichiometry    AsF3
 Framework group  C3V[C3(As),3SGV(F)]
 Deg. of freedom     2
 Full point group                 C3V     NOp   6
 Largest Abelian subgroup         CS      NOp   2
 Largest concise Abelian subgroup CS      NOp   2
                         Standard orientation:                         
 ---------------------------------------------------------------------
 Center     Atomic      Atomic             Coordinates (Angstroms)
 Number     Number       Type             X           Y           Z
 ---------------------------------------------------------------------
      1         33           0        0.000000    0.000000    0.268500
      2          9           0        0.000000    1.687628   -0.328167
      3          9           0       -1.461529   -0.843814   -0.328167
      4          9           0        1.461529   -0.843814   -0.328167
 ---------------------------------------------------------------------
 Rotational constants (GHZ):      5.4524834      5.4524834      3.1133310
 Standard basis: 3-21G (6D, 7F)
 There are    33 symmetry adapted basis functions of A'  symmetry.
 There are    17 symmetry adapted basis functions of A"  symmetry.
 Integral buffers will be    131072 words long.
 Raffenetti 1 integral format.
 Two-electron integral symmetry is turned on.
    50 basis functions,   102 primitive gaussians,    50 cartesian basis functions
    30 alpha electrons       30 beta electrons
       nuclear repulsion energy       307.3977117476 Hartrees.
 NAtoms=    4 NActive=    4 NUniq=    2 SFac= 4.00D+00 NAtFMM=   60 NAOKFM=F Big=F
 One-electron integrals computed using PRISM.
 NBasis=    50 RedAO= T  NBF=    33    17
 NBsUse=    50 1.00D-06 NBFU=    33    17
 Harris functional with IExCor=  205 diagonalized for initial guess.
 ExpMin= 1.14D-01 ExpMax= 5.41D+03 ExpMxC= 5.41D+03 IAcc=1 IRadAn=         1 AccDes= 0.00D+00
 HarFok:  IExCor=  205 AccDes= 0.00D+00 IRadAn=         1 IDoV= 1
 ScaDFX=  1.000000  1.000000  1.000000  1.000000
 FoFCou: FMM=F IPFlag=           0 FMFlag=      100000 FMFlg1=           0
         NFxFlg=           0 DoJE=T BraDBF=F KetDBF=T FulRan=T
         Omega=  0.000000  0.000000  1.000000  0.000000  0.000000 ICntrl=     500 IOpCl=  0
         NMat0=    1 NMatS0=    1 NMatT0=    0 NMatD0=    1 NMtDS0=    0 NMtDT0=    0
         I1Cent=           4 NGrid=           0.
 Petite list used in FoFCou.
 Initial guess orbital symmetries:
       Occupied  (A1) (A1) (E) (E) (A1) (A1) (E) (E) (A1) (E) (E)
                 (A1) (E) (E) (A1) (E) (E) (A1) (E) (E) (A1) (E)
                 (E) (A1) (E) (E) (E) (E) (A2) (A1)
       Virtual   (A1) (E) (E) (A1) (A1) (E) (E) (E) (E) (A2) (E)
                 (E) (A1) (E) (E) (A1) (E) (E) (A1) (A1)
 The electronic state of the initial guess is 1-A1.
 Requested convergence on RMS density matrix=1.00D-08 within 128 cycles.
 Requested convergence on MAX density matrix=1.00D-06.
 Requested convergence on             energy=1.00D-06.
 No special actions if energy rises.
 Keep R1 ints in memory in canonical form, NReq=1659908.
 SCF Done:  E(RHF) =  -2520.18506378     A.U. after   11 cycles
             Convg  =    0.2626D-08             -V/T =  1.9940
 ExpMin= 1.14D-01 ExpMax= 5.41D+03 ExpMxC= 5.41D+03 IAcc=3 IRadAn=         5 AccDes= 0.00D+00
 HarFok:  IExCor=  205 AccDes= 0.00D+00 IRadAn=         5 IDoV=-2
 ScaDFX=  1.000000  1.000000  1.000000  1.000000
 Range of M.O.s used for correlation:    13    50
 NBasis=    50 NAE=    30 NBE=    30 NFC=    12 NFV=     0
 NROrb=     38 NOA=    18 NOB=    18 NVA=    20 NVB=    20
 Fully direct method using O(ONN) memory.
 JobTyp=1 Pass  1:  I=  13 to  30 NPSUse=  1 ParTrn=F ParDer=F DoDerP=T.
 Spin components of T(2) and E(2):
     alpha-alpha T2 =       0.1382062965D-01 E2=     -0.5639119302D-01
     alpha-beta  T2 =       0.8157401023D-01 E2=     -0.3126435190D+00
     beta-beta   T2 =       0.1382062965D-01 E2=     -0.5639119302D-01
 ANorm=    0.1053192893D+01
 E2 =    -0.4254259051D+00 EUMP2 =    -0.25206104896895D+04
          IDoAtm=1111
          Differentiating once with respect to electric field.
                with respect to dipole field.
          Differentiating once with respect to nuclear coordinates.
          Keep R1 ints in memory in canonical form, NReq=1634203.
          There are     1 degrees of freedom in the 1st order CPHF.  IDoFFX=0.
 LinEq1:  Iter=  0 NonCon=     1 RMS=1.13D-02 Max=1.34D-01
 AX will form     1 AO Fock derivatives at one time.
 LinEq1:  Iter=  1 NonCon=     1 RMS=2.54D-03 Max=3.90D-02
 LinEq1:  Iter=  2 NonCon=     1 RMS=7.88D-04 Max=8.11D-03
 LinEq1:  Iter=  3 NonCon=     1 RMS=2.89D-04 Max=3.47D-03
 LinEq1:  Iter=  4 NonCon=     1 RMS=2.50D-05 Max=2.28D-04
 LinEq1:  Iter=  5 NonCon=     1 RMS=2.57D-06 Max=3.48D-05
 LinEq1:  Iter=  6 NonCon=     1 RMS=4.44D-07 Max=4.57D-06
 LinEq1:  Iter=  7 NonCon=     1 RMS=4.65D-08 Max=4.42D-07
 LinEq1:  Iter=  8 NonCon=     1 RMS=5.68D-09 Max=4.70D-08
 LinEq1:  Iter=  9 NonCon=     1 RMS=4.93D-10 Max=6.01D-09
 LinEq1:  Iter= 10 NonCon=     0 RMS=4.48D-11 Max=4.17D-10
 Linear equations converged to 1.000D-10 1.000D-09 after    10 iterations.
 End of Minotr Frequency-dependent properties file   721 does not exist.
 End of Minotr Frequency-dependent properties file   722 does not exist.

 **********************************************************************

            Population analysis using the SCF density.

 **********************************************************************

 Orbital symmetries:
       Occupied  (A1) (A1) (E) (E) (A1) (A1) (E) (E) (A1) (E) (E)
                 (A1) (E) (E) (E) (E) (A1) (A1) (E) (E) (A1) (E)
                 (E) (A1) (E) (E) (A2) (E) (E) (A1)
       Virtual   (A1) (E) (E) (A1) (A1) (E) (E) (E) (E) (A2) (E)
                 (E) (A1) (E) (E) (A1) (E) (E) (A1) (A1)
 The electronic state is 1-A1.
 Alpha  occ. eigenvalues -- -429.66899 -56.16091 -49.90201 -49.90201 -49.90157
 Alpha  occ. eigenvalues --  -26.15722 -26.15686 -26.15686  -8.14255  -5.96456
 Alpha  occ. eigenvalues --   -5.96456  -5.96196  -2.19550  -2.19550  -2.18938
 Alpha  occ. eigenvalues --   -2.18938  -2.18869  -1.57918  -1.55526  -1.55526
 Alpha  occ. eigenvalues --   -0.85062  -0.68434  -0.68434  -0.66658  -0.63486
 Alpha  occ. eigenvalues --   -0.63486  -0.62255  -0.61450  -0.61450  -0.43142
 Alpha virt. eigenvalues --    0.07718   0.14300   0.14300   0.47749   0.52752
 Alpha virt. eigenvalues --    0.56976   0.56976   2.18408   2.18408   2.20924
 Alpha virt. eigenvalues --    2.25407   2.25407   2.28475   2.37096   2.37096
 Alpha virt. eigenvalues --    2.42211   3.54223   3.54223   3.72271  12.63657
          Condensed to atoms (all electrons):
              1          2          3          4
     1  As  31.081554   0.122150   0.122150   0.122150
     2  F    0.122150   9.396931  -0.000874  -0.000874
     3  F    0.122150  -0.000874   9.396931  -0.000874
     4  F    0.122150  -0.000874  -0.000874   9.396931
 Mulliken atomic charges:
              1
     1  As   1.551997
     2  F   -0.517332
     3  F   -0.517332
     4  F   -0.517332
 Sum of Mulliken atomic charges =   0.00000
 Mulliken charges with hydrogens summed into heavy atoms:
              1
     1  As   1.551997
     2  F   -0.517332
     3  F   -0.517332
     4  F   -0.517332
 Sum of Mulliken charges with hydrogens summed into heavy atoms =   0.00000
 Electronic spatial extent (au):  <R**2>=            370.1720
 Charge=              0.0000 electrons
 Dipole moment (field-independent basis, Debye):
    X=              0.0000    Y=              0.0000    Z=              1.1379  Tot=              1.1379
 Quadrupole moment (field-independent basis, Debye-Ang):
   XX=            -36.5465   YY=            -36.5465   ZZ=            -30.0489
   XY=              0.0000   XZ=              0.0000   YZ=             -0.0000
 Traceless Quadrupole moment (field-independent basis, Debye-Ang):
   XX=             -2.1659   YY=             -2.1659   ZZ=              4.3317
   XY=              0.0000   XZ=              0.0000   YZ=             -0.0000
 Octapole moment (field-independent basis, Debye-Ang**2):
  XXX=              0.0000  YYY=             -8.2620  ZZZ=             -1.3088  XYY=              0.0000
  XXY=              8.2620  XXZ=              3.6624  XZZ=              0.0000  YZZ=              0.0000
  YYZ=              3.6624  XYZ=             -0.0000
 Hexadecapole moment (field-independent basis, Debye-Ang**3):
 XXXX=           -161.5131 YYYY=           -161.5131 ZZZZ=            -42.8802 XXXY=              0.0000
 XXXZ=             -0.0000 YYYX=              0.0000 YYYZ=              2.5489 ZZZX=             -0.0000
 ZZZY=             -0.0000 XXYY=            -53.8377 XXZZ=            -31.6537 YYZZ=            -31.6537
 XXYZ=             -2.5489 YYXZ=             -0.0000 ZZXY=              0.0000
 N-N= 3.073977117476D+02 E-N=-6.666247182266D+03  KE= 2.535335193122D+03
 Symmetry A'   KE= 2.107351204725D+03
 Symmetry A"   KE= 4.279839883969D+02
 Calling FoFJK, ICntrl=      2127 FMM=F ISym2X=1 I1Cent= 0 IOpClX= 0 NMat=1 NMatS=1 NMatT=0.
 ***** Axes restored to original set *****
 -------------------------------------------------------------------
 Center     Atomic                   Forces (Hartrees/Bohr)
 Number     Number              X              Y              Z
 -------------------------------------------------------------------
      1       33          -0.000000000    0.000000000    0.044157215
      2        9           0.000000000   -0.045160387   -0.014719072
      3        9           0.039110042    0.022580194   -0.014719072
      4        9          -0.039110042    0.022580193   -0.014719072
 -------------------------------------------------------------------
 Cartesian Forces:  Max     0.045160387 RMS     0.026953965

 GradGradGradGradGradGradGradGradGradGradGradGradGradGradGradGradGradGrad
 Berny optimization.
 Internal  Forces:  Max     0.073757069 RMS     0.046763212
 Search for a local minimum.
 Step number   1 out of a maximum of   20
 All quantities printed in internal units (Hartrees-Bohrs-Radians)
 Mixed Optimization -- RFO/linear search
 Second derivative matrix not updated -- first step.
 The second derivative matrix:
                          R1        R2        R3        A1        A2
           R1           0.24881
           R2           0.00000   0.24881
           R3           0.00000   0.00000   0.24881
           A1           0.00000   0.00000   0.00000   0.25000
           A2           0.00000   0.00000   0.00000   0.00000   0.25000
           A3           0.00000   0.00000   0.00000   0.00000   0.00000
           D1           0.00000   0.00000   0.00000   0.00000   0.00000
                          A3        D1
           A3           0.25000
           D1           0.00000   0.01958
 ITU=  0
     Eigenvalues ---    0.09048   0.24881   0.24881   0.24881   0.25000
     Eigenvalues ---    0.25000
 RFO step:  Lambda=-7.16694999D-02 EMin= 9.04795605D-02
 Linear search not attempted -- first point.
 Maximum step size (   0.300) exceeded in Quadratic search.
    -- Step size scaled by   0.736
 Iteration  1 RMS(Cart)=  0.17984769 RMS(Int)=  0.05036644
 Iteration  2 RMS(Cart)=  0.05785196 RMS(Int)=  0.02126978
 Iteration  3 RMS(Cart)=  0.00254295 RMS(Int)=  0.02117269
 Iteration  4 RMS(Cart)=  0.00013075 RMS(Int)=  0.02117256
 Iteration  5 RMS(Cart)=  0.00000630 RMS(Int)=  0.02117256
 Iteration  6 RMS(Cart)=  0.00000031 RMS(Int)=  0.02117256
 ClnCor:  largest displacement from symmetrization is 2.44D-02 for atom     4.
 Variable       Old X    -DE/DX   Delta X   Delta X   Delta X     New X
                                 (Linear)    (Quad)   (Total)
    R1        3.38261  -0.03767   0.00000  -0.08646  -0.07944   3.30317
    R2        3.38261  -0.03767   0.00000  -0.08646  -0.07944   3.30317
    R3        3.38261  -0.03767   0.00000  -0.08646  -0.07944   3.30317
    A1        1.91063  -0.00753   0.00000  -0.10754  -0.16330   1.74734
    A2        1.91063  -0.05269   0.00000  -0.16566  -0.16330   1.74734
    A3        1.91063  -0.05269   0.00000  -0.16566  -0.16330   1.74734
    D1       -2.09440   0.07376   0.00000   0.33460   0.30892  -1.78548
         Item               Value     Threshold  Converged?
 Maximum Force            0.073757     0.000450     NO 
 RMS     Force            0.046763     0.000300     NO 
 Maximum Displacement     0.306467     0.001800     NO 
 RMS     Displacement     0.218973     0.001200     NO 
 Predicted change in Energy=-3.691224D-02
 GradGradGradGradGradGradGradGradGradGradGradGradGradGradGradGradGradGrad

                          Input orientation:                          
 ---------------------------------------------------------------------
 Center     Atomic      Atomic             Coordinates (Angstroms)
 Number     Number       Type             X           Y           Z
 ---------------------------------------------------------------------
      1         33           0        0.000000   -0.000000    0.430675
      2          9           0       -0.000000    1.547463   -0.382175
      3          9           0       -1.340143   -0.773732   -0.382175
      4          9           0        1.340143   -0.773732   -0.382175
 ---------------------------------------------------------------------
                    Distance matrix (angstroms):
                    1          2          3          4
     1  As   0.000000
     2  F    1.747961   0.000000
     3  F    1.747961   2.680285   0.000000
     4  F    1.747961   2.680285   2.680285   0.000000
 Stoichiometry    AsF3
 Framework group  C3V[C3(As),3SGV(F)]
 Deg. of freedom     2
 Full point group                 C3V     NOp   6
 Largest Abelian subgroup         CS      NOp   2
 Largest concise Abelian subgroup CS      NOp   2
                         Standard orientation:                         
 ---------------------------------------------------------------------
 Center     Atomic      Atomic             Coordinates (Angstroms)
 Number     Number       Type             X           Y           Z
 ---------------------------------------------------------------------
      1         33           0        0.000000    0.000000    0.365783
      2          9           0        0.000000    1.547463   -0.447068
      3          9           0       -1.340143   -0.773732   -0.447068
      4          9           0        1.340143   -0.773732   -0.447068
 ---------------------------------------------------------------------
 Rotational constants (GHZ):      5.6385400      5.6385400      3.7028668
 Standard basis: 3-21G (6D, 7F)
 There are    33 symmetry adapted basis functions of A'  symmetry.
 There are    17 symmetry adapted basis functions of A"  symmetry.
 Integral buffers will be    131072 words long.
 Raffenetti 1 integral format.
 Two-electron integral symmetry is turned on.
    50 basis functions,   102 primitive gaussians,    50 cartesian basis functions
    30 alpha electrons       30 beta electrons
       nuclear repulsion energy       317.7172958083 Hartrees.
 NAtoms=    4 NActive=    4 NUniq=    2 SFac= 4.00D+00 NAtFMM=   60 NAOKFM=F Big=F
 One-electron integrals computed using PRISM.
 NBasis=    50 RedAO= T  NBF=    33    17
 NBsUse=    50 1.00D-06 NBFU=    33    17
 Initial guess read from the read-write file.
 B after Tr=     0.000000    0.000000   -0.000000
         Rot=    1.000000    0.000000   -0.000000    0.000000 Ang=   0.00 deg.
 Initial guess orbital symmetries:
       Occupied  (A1) (A1) (E) (E) (A1) (A1) (E) (E) (A1) (E) (E)
                 (A1) (E) (E) (E) (E) (A1) (A1) (E) (E) (A1) (E)
                 (E) (A1) (E) (E) (A2) (E) (E) (A1)
       Virtual   (A1) (E) (E) (A1) (A1) (E) (E) (E) (E) (A2) (E)
                 (E) (A1) (E) (E) (A1) (E) (E) (A1) (A1)
 Harris functional with IExCor=  205 diagonalized for initial guess.
 ExpMin= 1.14D-01 ExpMax= 5.41D+03 ExpMxC= 5.41D+03 IAcc=1 IRadAn=         1 AccDes= 0.00D+00
 HarFok:  IExCor=  205 AccDes= 0.00D+00 IRadAn=         1 IDoV= 1
 ScaDFX=  1.000000  1.000000  1.000000  1.000000
 FoFCou: FMM=F IPFlag=           0 FMFlag=      100000 FMFlg1=           0
         NFxFlg=           0 DoJE=T BraDBF=F KetDBF=T FulRan=T
         Omega=  0.000000  0.000000  1.000000  0.000000  0.000000 ICntrl=     500 IOpCl=  0
         NMat0=    1 NMatS0=    1 NMatT0=    0 NMatD0=    1 NMtDS0=    0 NMtDT0=    0
         I1Cent=           4 NGrid=           0.
 Petite list used in FoFCou.
 Requested convergence on RMS density matrix=1.00D-08 within 128 cycles.
 Requested convergence on MAX density matrix=1.00D-06.
 Requested convergence on             energy=1.00D-06.
 No special actions if energy rises.
 Keep R1 ints in memory in canonical form, NReq=1659908.
 SCF Done:  E(RHF) =  -2520.23216046     A.U. after   11 cycles
             Convg  =    0.7522D-08             -V/T =  1.9940
 ExpMin= 1.14D-01 ExpMax= 5.41D+03 ExpMxC= 5.41D+03 IAcc=3 IRadAn=         5 AccDes= 0.00D+00
 HarFok:  IExCor=  205 AccDes= 0.00D+00 IRadAn=         5 IDoV=-2
 ScaDFX=  1.000000  1.000000  1.000000  1.000000
 Range of M.O.s used for correlation:    13    50
 NBasis=    50 NAE=    30 NBE=    30 NFC=    12 NFV=     0
 NROrb=     38 NOA=    18 NOB=    18 NVA=    20 NVB=    20
 Fully direct method using O(ONN) memory.
 JobTyp=1 Pass  1:  I=  13 to  30 NPSUse=  1 ParTrn=F ParDer=F DoDerP=T.
 Spin components of T(2) and E(2):
     alpha-alpha T2 =       0.1298392578D-01 E2=     -0.5514681194D-01
     alpha-beta  T2 =       0.7531855935D-01 E2=     -0.3055825617D+00
     beta-beta   T2 =       0.1298392578D-01 E2=     -0.5514681194D-01
 ANorm=    0.1049421941D+01
 E2 =    -0.4158761856D+00 EUMP2 =    -0.25206480366471D+04
          IDoAtm=1111
          Differentiating once with respect to electric field.
                with respect to dipole field.
          Differentiating once with respect to nuclear coordinates.
          Keep R1 ints in memory in canonical form, NReq=1634203.
          There are     1 degrees of freedom in the 1st order CPHF.  IDoFFX=0.
 LinEq1:  Iter=  0 NonCon=     1 RMS=1.02D-02 Max=1.24D-01
 AX will form     1 AO Fock derivatives at one time.
 LinEq1:  Iter=  1 NonCon=     1 RMS=2.03D-03 Max=2.55D-02
 LinEq1:  Iter=  2 NonCon=     1 RMS=5.87D-04 Max=4.59D-03
 LinEq1:  Iter=  3 NonCon=     1 RMS=1.90D-04 Max=2.50D-03
 LinEq1:  Iter=  4 NonCon=     1 RMS=1.67D-05 Max=1.18D-04
 LinEq1:  Iter=  5 NonCon=     1 RMS=1.59D-06 Max=2.40D-05
 LinEq1:  Iter=  6 NonCon=     1 RMS=2.83D-07 Max=3.09D-06
 LinEq1:  Iter=  7 NonCon=     1 RMS=2.77D-08 Max=2.31D-07
 LinEq1:  Iter=  8 NonCon=     1 RMS=2.94D-09 Max=2.23D-08
 LinEq1:  Iter=  9 NonCon=     1 RMS=2.05D-10 Max=1.34D-09
 LinEq1:  Iter= 10 NonCon=     0 RMS=2.22D-11 Max=2.25D-10
 Linear equations converged to 1.000D-10 1.000D-09 after    10 iterations.
 End of Minotr Frequency-dependent properties file   721 does not exist.
 End of Minotr Frequency-dependent properties file   722 does not exist.
 Calling FoFJK, ICntrl=      2127 FMM=F ISym2X=1 I1Cent= 0 IOpClX= 0 NMat=1 NMatS=1 NMatT=0.
 ***** Axes restored to original set *****
 -------------------------------------------------------------------
 Center     Atomic                   Forces (Hartrees/Bohr)
 Number     Number              X              Y              Z
 -------------------------------------------------------------------
      1       33          -0.000000000   -0.000000000   -0.004930091
      2        9           0.000000000   -0.026034514    0.001643364
      3        9           0.022546551    0.013017257    0.001643364
      4        9          -0.022546551    0.013017257    0.001643364
 -------------------------------------------------------------------
 Cartesian Forces:  Max     0.026034514 RMS     0.013120580

 GradGradGradGradGradGradGradGradGradGradGradGradGradGradGradGradGradGrad
 Berny optimization.
 Using GEDIIS/GDIIS optimizer.
 Internal  Forces:  Max     0.023819119 RMS     0.021604550
 Search for a local minimum.
 Step number   2 out of a maximum of   20
 All quantities printed in internal units (Hartrees-Bohrs-Radians)
 Mixed Optimization -- RFO/linear search
 Update second derivatives using D2CorX and points    1    2
 DE= -3.75D-02 DEPred=-3.69D-02 R= 1.02D+00
 SS=  1.41D+00  RLast= 4.41D-01 DXNew= 5.0454D-01 1.3226D+00
 Trust test= 1.02D+00 RLast= 4.41D-01 DXMaxT set to 5.05D-01
 The second derivative matrix:
                          R1        R2        R3        A1        A2
           R1           0.24062
           R2          -0.00819   0.24062
           R3          -0.00819  -0.00819   0.24062
           A1          -0.03068  -0.03068  -0.03068   0.18731
           A2          -0.01680  -0.01680  -0.01680  -0.06337   0.21555
           A3          -0.01680  -0.01680  -0.01680  -0.06337  -0.03445
           D1          -0.02118  -0.02118  -0.02118   0.01055  -0.04420
                          A3        D1
           A3           0.21555
           D1          -0.04420   0.11949
 ITU=  1  0
 Use linear search instead of GDIIS.
     Eigenvalues ---    0.13197   0.20663   0.24881   0.24881   0.25000
     Eigenvalues ---    0.25232
 RFO step:  Lambda=-3.63432814D-03 EMin= 1.31969901D-01
 Quartic linear search produced a step of  0.41602.
 Iteration  1 RMS(Cart)=  0.12140368 RMS(Int)=  0.01092481
 Iteration  2 RMS(Cart)=  0.00463121 RMS(Int)=  0.00994780
 Iteration  3 RMS(Cart)=  0.00011158 RMS(Int)=  0.00994760
 Iteration  4 RMS(Cart)=  0.00000233 RMS(Int)=  0.00994760
 Iteration  5 RMS(Cart)=  0.00000005 RMS(Int)=  0.00994760
 ClnCor:  largest displacement from symmetrization is 4.87D-02 for atom     4.
 Variable       Old X    -DE/DX   Delta X   Delta X   Delta X     New X
                                 (Linear)    (Quad)   (Total)
    R1        3.30317  -0.02381  -0.03305  -0.06391  -0.08633   3.21684
    R2        3.30317  -0.02381  -0.03305  -0.06391  -0.08633   3.21684
    R3        3.30317  -0.02381  -0.03305  -0.06391  -0.08633   3.21684
    A1        1.74734  -0.00821  -0.06793   0.04931  -0.06456   1.68278
    A2        1.74734  -0.02382  -0.06793  -0.01573  -0.06456   1.68278
    A3        1.74734  -0.02382  -0.06793  -0.01573  -0.06456   1.68278
    D1       -1.78548   0.01908   0.12851  -0.04429   0.08854  -1.69694
         Item               Value     Threshold  Converged?
 Maximum Force            0.023819     0.000450     NO 
 RMS     Force            0.021605     0.000300     NO 
 Maximum Displacement     0.154873     0.001800     NO 
 RMS     Displacement     0.106625     0.001200     NO 
 Predicted change in Energy=-8.013937D-03
 GradGradGradGradGradGradGradGradGradGradGradGradGradGradGradGradGradGrad

                          Input orientation:                          
 ---------------------------------------------------------------------
 Center     Atomic      Atomic             Coordinates (Angstroms)
 Number     Number       Type             X           Y           Z
 ---------------------------------------------------------------------
      1         33           0       -0.000000   -0.000000    0.472375
      2          9           0       -0.000000    1.465508   -0.393671
      3          9           0       -1.269167   -0.732754   -0.393671
      4          9           0        1.269167   -0.732754   -0.393671
 ---------------------------------------------------------------------
                    Distance matrix (angstroms):
                    1          2          3          4
     1  As   0.000000
     2  F    1.702278   0.000000
     3  F    1.702278   2.538334   0.000000
     4  F    1.702278   2.538334   2.538334   0.000000
 Stoichiometry    AsF3
 Framework group  C3V[C3(As),3SGV(F)]
 Deg. of freedom     2
 Full point group                 C3V     NOp   6
 Largest Abelian subgroup         CS      NOp   2
 Largest concise Abelian subgroup CS      NOp   2
                         Standard orientation:                         
 ---------------------------------------------------------------------
 Center     Atomic      Atomic             Coordinates (Angstroms)
 Number     Number       Type             X           Y           Z
 ---------------------------------------------------------------------
      1         33           0        0.000000    0.000000    0.389721
      2          9           0        0.000000    1.465508   -0.476325
      3          9           0       -1.269167   -0.732754   -0.476325
      4          9           0        1.269167   -0.732754   -0.476325
 ---------------------------------------------------------------------
 Rotational constants (GHZ):      5.9120075      5.9120075      4.1285975
 Standard basis: 3-21G (6D, 7F)
 There are    33 symmetry adapted basis functions of A'  symmetry.
 There are    17 symmetry adapted basis functions of A"  symmetry.
 Integral buffers will be    131072 words long.
 Raffenetti 1 integral format.
 Two-electron integral symmetry is turned on.
    50 basis functions,   102 primitive gaussians,    50 cartesian basis functions
    30 alpha electrons       30 beta electrons
       nuclear repulsion energy       327.6392584255 Hartrees.
 NAtoms=    4 NActive=    4 NUniq=    2 SFac= 4.00D+00 NAtFMM=   60 NAOKFM=F Big=F
 One-electron integrals computed using PRISM.
 NBasis=    50 RedAO= T  NBF=    33    17
 NBsUse=    50 1.00D-06 NBFU=    33    17
 Initial guess read from the read-write file.
 B after Tr=    -0.000000   -0.000000   -0.000000
         Rot=    1.000000    0.000000   -0.000000    0.000000 Ang=   0.00 deg.
 Initial guess orbital symmetries:
       Occupied  (A1) (A1) (E) (E) (A1) (A1) (E) (E) (A1) (E) (E)
                 (A1) (E) (E) (E) (E) (A1) (A1) (E) (E) (A1) (E)
                 (E) (A1) (E) (E) (A2) (E) (E) (A1)
       Virtual   (E) (E) (A1) (A1) (A1) (E) (E) (E) (E) (A2) (A1)
                 (E) (E) (E) (E) (A1) (E) (E) (A1) (A1)
 Harris functional with IExCor=  205 diagonalized for initial guess.
 ExpMin= 1.14D-01 ExpMax= 5.41D+03 ExpMxC= 5.41D+03 IAcc=1 IRadAn=         1 AccDes= 0.00D+00
 HarFok:  IExCor=  205 AccDes= 0.00D+00 IRadAn=         1 IDoV= 1
 ScaDFX=  1.000000  1.000000  1.000000  1.000000
 FoFCou: FMM=F IPFlag=           0 FMFlag=      100000 FMFlg1=           0
         NFxFlg=           0 DoJE=T BraDBF=F KetDBF=T FulRan=T
         Omega=  0.000000  0.000000  1.000000  0.000000  0.000000 ICntrl=     500 IOpCl=  0
         NMat0=    1 NMatS0=    1 NMatT0=    0 NMatD0=    1 NMtDS0=    0 NMtDT0=    0
         I1Cent=           4 NGrid=           0.
 Petite list used in FoFCou.
 Requested convergence on RMS density matrix=1.00D-08 within 128 cycles.
 Requested convergence on MAX density matrix=1.00D-06.
 Requested convergence on             energy=1.00D-06.
 No special actions if energy rises.
 Keep R1 ints in memory in canonical form, NReq=1659908.
 SCF Done:  E(RHF) =  -2520.24355737     A.U. after   11 cycles
             Convg  =    0.2571D-08             -V/T =  1.9940
 ExpMin= 1.14D-01 ExpMax= 5.41D+03 ExpMxC= 5.41D+03 IAcc=3 IRadAn=         5 AccDes= 0.00D+00
 HarFok:  IExCor=  205 AccDes= 0.00D+00 IRadAn=         5 IDoV=-2
 ScaDFX=  1.000000  1.000000  1.000000  1.000000
 Range of M.O.s used for correlation:    13    50
 NBasis=    50 NAE=    30 NBE=    30 NFC=    12 NFV=     0
 NROrb=     38 NOA=    18 NOB=    18 NVA=    20 NVB=    20
 Fully direct method using O(ONN) memory.
 JobTyp=1 Pass  1:  I=  13 to  30 NPSUse=  1 ParTrn=F ParDer=F DoDerP=T.
 Spin components of T(2) and E(2):
     alpha-alpha T2 =       0.1250117977D-01 E2=     -0.5444626101D-01
     alpha-beta  T2 =       0.7174361669D-01 E2=     -0.3011488995D+00
     beta-beta   T2 =       0.1250117977D-01 E2=     -0.5444626101D-01
 ANorm=    0.1047256404D+01
 E2 =    -0.4100414215D+00 EUMP2 =    -0.25206535987905D+04
          IDoAtm=1111
          Differentiating once with respect to electric field.
                with respect to dipole field.
          Differentiating once with respect to nuclear coordinates.
          Keep R1 ints in memory in canonical form, NReq=1634203.
          There are     1 degrees of freedom in the 1st order CPHF.  IDoFFX=0.
 LinEq1:  Iter=  0 NonCon=     1 RMS=9.57D-03 Max=1.16D-01
 AX will form     1 AO Fock derivatives at one time.
 LinEq1:  Iter=  1 NonCon=     1 RMS=1.77D-03 Max=1.92D-02
 LinEq1:  Iter=  2 NonCon=     1 RMS=5.03D-04 Max=4.00D-03
 LinEq1:  Iter=  3 NonCon=     1 RMS=1.56D-04 Max=2.08D-03
 LinEq1:  Iter=  4 NonCon=     1 RMS=1.43D-05 Max=9.72D-05
 LinEq1:  Iter=  5 NonCon=     1 RMS=1.20D-06 Max=1.40D-05
 LinEq1:  Iter=  6 NonCon=     1 RMS=1.84D-07 Max=2.41D-06
 LinEq1:  Iter=  7 NonCon=     1 RMS=2.15D-08 Max=1.71D-07
 LinEq1:  Iter=  8 NonCon=     1 RMS=2.29D-09 Max=1.77D-08
 LinEq1:  Iter=  9 NonCon=     1 RMS=1.52D-10 Max=8.87D-10
 LinEq1:  Iter= 10 NonCon=     0 RMS=1.53D-11 Max=1.51D-10
 Linear equations converged to 1.000D-10 1.000D-09 after    10 iterations.
 End of Minotr Frequency-dependent properties file   721 does not exist.
 End of Minotr Frequency-dependent properties file   722 does not exist.
 Calling FoFJK, ICntrl=      2127 FMM=F ISym2X=1 I1Cent= 0 IOpClX= 0 NMat=1 NMatS=1 NMatT=0.
 ***** Axes restored to original set *****
 -------------------------------------------------------------------
 Center     Atomic                   Forces (Hartrees/Bohr)
 Number     Number              X              Y              Z
 -------------------------------------------------------------------
      1       33          -0.000000000    0.000000000    0.014031801
      2        9          -0.000000000    0.004871136   -0.004677267
      3        9          -0.004218527   -0.002435568   -0.004677267
      4        9           0.004218527   -0.002435568   -0.004677267
 -------------------------------------------------------------------
 Cartesian Forces:  Max     0.014031801 RMS     0.005273406

 GradGradGradGradGradGradGradGradGradGradGradGradGradGradGradGradGradGrad
 Berny optimization.
 Using GEDIIS/GDIIS optimizer.
 Internal  Forces:  Max     0.006573203 RMS     0.004797316
 Search for a local minimum.
 Step number   3 out of a maximum of   20
 All quantities printed in internal units (Hartrees-Bohrs-Radians)
 Mixed Optimization -- RFO/linear search
 Update second derivatives using D2CorX and points    2    3
 DE= -5.56D-03 DEPred=-8.01D-03 R= 6.94D-01
 SS=  1.41D+00  RLast= 2.07D-01 DXNew= 8.4853D-01 6.1992D-01
 Trust test= 6.94D-01 RLast= 2.07D-01 DXMaxT set to 6.20D-01
 The second derivative matrix:
                          R1        R2        R3        A1        A2
           R1           0.27264
           R2           0.02383   0.27264
           R3           0.02383   0.02383   0.27264
           A1          -0.00175  -0.00175  -0.00175   0.18745
           A2           0.01524   0.01524   0.01524  -0.04708   0.24145
           A3           0.01524   0.01524   0.01524  -0.04708  -0.00855
           D1          -0.00994  -0.00994  -0.00994  -0.01382  -0.04976
                          A3        D1
           A3           0.24145
           D1          -0.04976   0.07761
 ITU=  1  1  0
 Use linear search instead of GDIIS.
     Eigenvalues ---    0.14465   0.23774   0.24881   0.24881   0.25000
     Eigenvalues ---    0.33872
 RFO step:  Lambda=-5.68743785D-04 EMin= 1.44645890D-01
 Quartic linear search produced a step of -0.06747.
 Iteration  1 RMS(Cart)=  0.01563745 RMS(Int)=  0.00020217
 Iteration  2 RMS(Cart)=  0.00026945 RMS(Int)=  0.00000769
 Iteration  3 RMS(Cart)=  0.00000002 RMS(Int)=  0.00000769
 ClnCor:  largest displacement from symmetrization is 4.60D-03 for atom     4.
 Variable       Old X    -DE/DX   Delta X   Delta X   Delta X     New X
                                 (Linear)    (Quad)   (Total)
    R1        3.21684   0.00657   0.00582   0.01619   0.02302   3.23986
    R2        3.21684   0.00657   0.00582   0.01619   0.02302   3.23986
    R3        3.21684   0.00657   0.00582   0.01619   0.02302   3.23986
    A1        1.68278  -0.00141   0.00436  -0.01857  -0.01670   1.66608
    A2        1.68278  -0.00347   0.00436  -0.02301  -0.01670   1.66608
    A3        1.68278  -0.00347   0.00436  -0.02301  -0.01670   1.66608
    D1       -1.69694   0.00232  -0.00597   0.02471   0.02081  -1.67613
         Item               Value     Threshold  Converged?
 Maximum Force            0.006573     0.000450     NO 
 RMS     Force            0.004797     0.000300     NO 
 Maximum Displacement     0.035304     0.001800     NO 
 RMS     Displacement     0.015275     0.001200     NO 
 Predicted change in Energy=-3.135649D-04
 GradGradGradGradGradGradGradGradGradGradGradGradGradGradGradGradGradGrad

                          Input orientation:                          
 ---------------------------------------------------------------------
 Center     Atomic      Atomic             Coordinates (Angstroms)
 Number     Number       Type             X           Y           Z
 ---------------------------------------------------------------------
      1         33           0       -0.000000   -0.000000    0.491057
      2          9           0       -0.000000    1.464926   -0.399652
      3          9           0       -1.268664   -0.732463   -0.399652
      4          9           0        1.268664   -0.732463   -0.399652
 ---------------------------------------------------------------------
                    Distance matrix (angstroms):
                    1          2          3          4
     1  As   0.000000
     2  F    1.714460   0.000000
     3  F    1.714460   2.537327   0.000000
     4  F    1.714460   2.537327   2.537327   0.000000
 Stoichiometry    AsF3
 Framework group  C3V[C3(As),3SGV(F)]
 Deg. of freedom     2
 Full point group                 C3V     NOp   6
 Largest Abelian subgroup         CS      NOp   2
 Largest concise Abelian subgroup CS      NOp   2
                         Standard orientation:                         
 ---------------------------------------------------------------------
 Center     Atomic      Atomic             Coordinates (Angstroms)
 Number     Number       Type             X           Y           Z
 ---------------------------------------------------------------------
      1         33           0        0.000000    0.000000    0.400819
      2          9           0        0.000000    1.464926   -0.489890
      3          9           0       -1.268664   -0.732463   -0.489890
      4          9           0        1.268664   -0.732463   -0.489890
 ---------------------------------------------------------------------
 Rotational constants (GHZ):      5.8198276      5.8198276      4.1318751
 Standard basis: 3-21G (6D, 7F)
 There are    33 symmetry adapted basis functions of A'  symmetry.
 There are    17 symmetry adapted basis functions of A"  symmetry.
 Integral buffers will be    131072 words long.
 Raffenetti 1 integral format.
 Two-electron integral symmetry is turned on.
    50 basis functions,   102 primitive gaussians,    50 cartesian basis functions
    30 alpha electrons       30 beta electrons
       nuclear repulsion energy       325.6912460671 Hartrees.
 NAtoms=    4 NActive=    4 NUniq=    2 SFac= 4.00D+00 NAtFMM=   60 NAOKFM=F Big=F
 One-electron integrals computed using PRISM.
 NBasis=    50 RedAO= T  NBF=    33    17
 NBsUse=    50 1.00D-06 NBFU=    33    17
 Initial guess read from the read-write file.
 B after Tr=     0.000000    0.000000   -0.000000
         Rot=    1.000000   -0.000000   -0.000000    0.000000 Ang=   0.00 deg.
 Initial guess orbital symmetries:
       Occupied  (A1) (A1) (E) (E) (A1) (A1) (E) (E) (A1) (E) (E)
                 (A1) (E) (E) (E) (E) (A1) (A1) (E) (E) (A1) (E)
                 (E) (A1) (E) (E) (A2) (E) (E) (A1)
       Virtual   (E) (E) (A1) (A1) (A1) (E) (E) (E) (E) (A1) (A2)
                 (E) (E) (E) (E) (A1) (E) (E) (A1) (A1)
 Harris functional with IExCor=  205 diagonalized for initial guess.
 ExpMin= 1.14D-01 ExpMax= 5.41D+03 ExpMxC= 5.41D+03 IAcc=1 IRadAn=         1 AccDes= 0.00D+00
 HarFok:  IExCor=  205 AccDes= 0.00D+00 IRadAn=         1 IDoV= 1
 ScaDFX=  1.000000  1.000000  1.000000  1.000000
 FoFCou: FMM=F IPFlag=           0 FMFlag=      100000 FMFlg1=           0
         NFxFlg=           0 DoJE=T BraDBF=F KetDBF=T FulRan=T
         Omega=  0.000000  0.000000  1.000000  0.000000  0.000000 ICntrl=     500 IOpCl=  0
         NMat0=    1 NMatS0=    1 NMatT0=    0 NMatD0=    1 NMtDS0=    0 NMtDT0=    0
         I1Cent=           4 NGrid=           0.
 Petite list used in FoFCou.
 Requested convergence on RMS density matrix=1.00D-08 within 128 cycles.
 Requested convergence on MAX density matrix=1.00D-06.
 Requested convergence on             energy=1.00D-06.
 No special actions if energy rises.
 Keep R1 ints in memory in canonical form, NReq=1659908.
 SCF Done:  E(RHF) =  -2520.24273588     A.U. after    9 cycles
             Convg  =    0.4314D-08             -V/T =  1.9940
 ExpMin= 1.14D-01 ExpMax= 5.41D+03 ExpMxC= 5.41D+03 IAcc=3 IRadAn=         5 AccDes= 0.00D+00
 HarFok:  IExCor=  205 AccDes= 0.00D+00 IRadAn=         5 IDoV=-2
 ScaDFX=  1.000000  1.000000  1.000000  1.000000
 Range of M.O.s used for correlation:    13    50
 NBasis=    50 NAE=    30 NBE=    30 NFC=    12 NFV=     0
 NROrb=     38 NOA=    18 NOB=    18 NVA=    20 NVB=    20
 Fully direct method using O(ONN) memory.
 JobTyp=1 Pass  1:  I=  13 to  30 NPSUse=  1 ParTrn=F ParDer=F DoDerP=T.
 Spin components of T(2) and E(2):
     alpha-alpha T2 =       0.1257991397D-01 E2=     -0.5453759829D-01
     alpha-beta  T2 =       0.7245772397D-01 E2=     -0.3019844249D+00
     beta-beta   T2 =       0.1257991397D-01 E2=     -0.5453759829D-01
 ANorm=    0.1047672445D+01
 E2 =    -0.4110596215D+00 EUMP2 =    -0.25206537955032D+04
          IDoAtm=1111
          Differentiating once with respect to electric field.
                with respect to dipole field.
          Differentiating once with respect to nuclear coordinates.
          Keep R1 ints in memory in canonical form, NReq=1634203.
          There are     1 degrees of freedom in the 1st order CPHF.  IDoFFX=0.
 LinEq1:  Iter=  0 NonCon=     1 RMS=9.76D-03 Max=1.20D-01
 AX will form     1 AO Fock derivatives at one time.
 LinEq1:  Iter=  1 NonCon=     1 RMS=1.83D-03 Max=1.96D-02
 LinEq1:  Iter=  2 NonCon=     1 RMS=5.22D-04 Max=4.14D-03
 LinEq1:  Iter=  3 NonCon=     1 RMS=1.61D-04 Max=2.14D-03
 LinEq1:  Iter=  4 NonCon=     1 RMS=1.47D-05 Max=1.02D-04
 LinEq1:  Iter=  5 NonCon=     1 RMS=1.20D-06 Max=1.31D-05
 LinEq1:  Iter=  6 NonCon=     1 RMS=1.77D-07 Max=2.40D-06
 LinEq1:  Iter=  7 NonCon=     1 RMS=2.17D-08 Max=1.83D-07
 LinEq1:  Iter=  8 NonCon=     1 RMS=2.44D-09 Max=1.78D-08
 LinEq1:  Iter=  9 NonCon=     1 RMS=1.60D-10 Max=9.35D-10
 LinEq1:  Iter= 10 NonCon=     0 RMS=1.62D-11 Max=1.61D-10
 Linear equations converged to 1.000D-10 1.000D-09 after    10 iterations.
 End of Minotr Frequency-dependent properties file   721 does not exist.
 End of Minotr Frequency-dependent properties file   722 does not exist.
 Calling FoFJK, ICntrl=      2127 FMM=F ISym2X=1 I1Cent= 0 IOpClX= 0 NMat=1 NMatS=1 NMatT=0.
 ***** Axes restored to original set *****
 -------------------------------------------------------------------
 Center     Atomic                   Forces (Hartrees/Bohr)
 Number     Number              X              Y              Z
 -------------------------------------------------------------------
      1       33          -0.000000000    0.000000000   -0.005257149
      2        9           0.000000000   -0.001370333    0.001752383
      3        9           0.001186743    0.000685167    0.001752383
      4        9          -0.001186743    0.000685167    0.001752383
 -------------------------------------------------------------------
 Cartesian Forces:  Max     0.005257149 RMS     0.001881568

 GradGradGradGradGradGradGradGradGradGradGradGradGradGradGradGradGradGrad
 Berny optimization.
 Using GEDIIS/GDIIS optimizer.
 Internal  Forces:  Max     0.002081298 RMS     0.001740366
 Search for a local minimum.
 Step number   4 out of a maximum of   20
 All quantities printed in internal units (Hartrees-Bohrs-Radians)
 Mixed Optimization -- RFO/linear search
 Update second derivatives using D2CorX and points    2    3    4
 DE= -1.97D-04 DEPred=-3.14D-04 R= 6.27D-01
 SS=  1.41D+00  RLast= 5.35D-02 DXNew= 1.0426D+00 1.6043D-01
 Trust test= 6.27D-01 RLast= 5.35D-02 DXMaxT set to 6.20D-01
 The second derivative matrix:
                          R1        R2        R3        A1        A2
           R1           0.29023
           R2           0.04141   0.29023
           R3           0.04141   0.04141   0.29023
           A1          -0.00383  -0.00383  -0.00383   0.18597
           A2          -0.00269  -0.00269  -0.00269  -0.04383   0.26256
           A3          -0.00269  -0.00269  -0.00269  -0.04383   0.01256
           D1          -0.00421  -0.00421  -0.00421  -0.01248  -0.05782
                          A3        D1
           A3           0.26256
           D1          -0.05782   0.07734
 ITU=  1  1  1  0
 Use linear search instead of GDIIS.
     Eigenvalues ---    0.14309   0.24881   0.24881   0.25000   0.29475
     Eigenvalues ---    0.37345
 RFO step:  Lambda=-1.99459038D-06 EMin= 1.43087856D-01
 Quartic linear search produced a step of -0.27781.
 Iteration  1 RMS(Cart)=  0.00518230 RMS(Int)=  0.00002845
 Iteration  2 RMS(Cart)=  0.00002675 RMS(Int)=  0.00001625
 Iteration  3 RMS(Cart)=  0.00000000 RMS(Int)=  0.00001625
 ClnCor:  largest displacement from symmetrization is 3.92D-05 for atom     4.
 Variable       Old X    -DE/DX   Delta X   Delta X   Delta X     New X
                                 (Linear)    (Quad)   (Total)
    R1        3.23986  -0.00208  -0.00640   0.00076  -0.00562   3.23424
    R2        3.23986  -0.00208  -0.00640   0.00076  -0.00562   3.23424
    R3        3.23986  -0.00208  -0.00640   0.00076  -0.00562   3.23424
    A1        1.66608   0.00075   0.00464   0.00118   0.00583   1.67191
    A2        1.66608   0.00178   0.00464   0.00117   0.00583   1.67191
    A3        1.66608   0.00178   0.00464   0.00117   0.00583   1.67191
    D1       -1.67613  -0.00114  -0.00578  -0.00144  -0.00717  -1.68330
         Item               Value     Threshold  Converged?
 Maximum Force            0.002081     0.000450     NO 
 RMS     Force            0.001740     0.000300     NO 
 Maximum Displacement     0.011251     0.001800     NO 
 RMS     Displacement     0.005179     0.001200     NO 
 Predicted change in Energy=-3.345899D-05
 GradGradGradGradGradGradGradGradGradGradGradGradGradGradGradGradGradGrad

                          Input orientation:                          
 ---------------------------------------------------------------------
 Center     Atomic      Atomic             Coordinates (Angstroms)
 Number     Number       Type             X           Y           Z
 ---------------------------------------------------------------------
      1         33           0       -0.000000   -0.000000    0.485104
      2          9           0       -0.000000    1.466253   -0.397665
      3          9           0       -1.269812   -0.733126   -0.397665
      4          9           0        1.269812   -0.733126   -0.397665
 ---------------------------------------------------------------------
                    Distance matrix (angstroms):
                    1          2          3          4
     1  As   0.000000
     2  F    1.711484   0.000000
     3  F    1.711484   2.539624   0.000000
     4  F    1.711484   2.539624   2.539624   0.000000
 Stoichiometry    AsF3
 Framework group  C3V[C3(As),3SGV(F)]
 Deg. of freedom     2
 Full point group                 C3V     NOp   6
 Largest Abelian subgroup         CS      NOp   2
 Largest concise Abelian subgroup CS      NOp   2
                         Standard orientation:                         
 ---------------------------------------------------------------------
 Center     Atomic      Atomic             Coordinates (Angstroms)
 Number     Number       Type             X           Y           Z
 ---------------------------------------------------------------------
      1         33           0        0.000000    0.000000    0.397246
      2          9           0        0.000000    1.466253   -0.485523
      3          9           0       -1.269812   -0.733126   -0.485523
      4          9           0        1.269812   -0.733126   -0.485523
 ---------------------------------------------------------------------
 Rotational constants (GHZ):      5.8430471      5.8430471      4.1244040
 Standard basis: 3-21G (6D, 7F)
 There are    33 symmetry adapted basis functions of A'  symmetry.
 There are    17 symmetry adapted basis functions of A"  symmetry.
 Integral buffers will be    131072 words long.
 Raffenetti 1 integral format.
 Two-electron integral symmetry is turned on.
    50 basis functions,   102 primitive gaussians,    50 cartesian basis functions
    30 alpha electrons       30 beta electrons
       nuclear repulsion energy       326.1235979311 Hartrees.
 NAtoms=    4 NActive=    4 NUniq=    2 SFac= 4.00D+00 NAtFMM=   60 NAOKFM=F Big=F
 One-electron integrals computed using PRISM.
 NBasis=    50 RedAO= T  NBF=    33    17
 NBsUse=    50 1.00D-06 NBFU=    33    17
 Initial guess read from the read-write file.
 B after Tr=    -0.000000   -0.000000    0.000000
         Rot=    1.000000    0.000000    0.000000   -0.000000 Ang=   0.00 deg.
 Initial guess orbital symmetries:
       Occupied  (A1) (A1) (E) (E) (A1) (A1) (E) (E) (A1) (E) (E)
                 (A1) (E) (E) (E) (E) (A1) (A1) (E) (E) (A1) (E)
                 (E) (A1) (E) (E) (A2) (E) (E) (A1)
       Virtual   (E) (E) (A1) (A1) (A1) (E) (E) (E) (E) (A1) (A2)
                 (E) (E) (E) (E) (A1) (E) (E) (A1) (A1)
 Requested convergence on RMS density matrix=1.00D-08 within 128 cycles.
 Requested convergence on MAX density matrix=1.00D-06.
 Requested convergence on             energy=1.00D-06.
 No special actions if energy rises.
 Keep R1 ints in memory in canonical form, NReq=1659908.
 SCF Done:  E(RHF) =  -2520.24299759     A.U. after    8 cycles
             Convg  =    0.4774D-08             -V/T =  1.9940
 ExpMin= 1.14D-01 ExpMax= 5.41D+03 ExpMxC= 5.41D+03 IAcc=3 IRadAn=         5 AccDes= 0.00D+00
 HarFok:  IExCor=  205 AccDes= 0.00D+00 IRadAn=         5 IDoV=-2
 ScaDFX=  1.000000  1.000000  1.000000  1.000000
 Range of M.O.s used for correlation:    13    50
 NBasis=    50 NAE=    30 NBE=    30 NFC=    12 NFV=     0
 NROrb=     38 NOA=    18 NOB=    18 NVA=    20 NVB=    20
 Fully direct method using O(ONN) memory.
 JobTyp=1 Pass  1:  I=  13 to  30 NPSUse=  1 ParTrn=F ParDer=F DoDerP=T.
 Spin components of T(2) and E(2):
     alpha-alpha T2 =       0.1256275009D-01 E2=     -0.5451965256D-01
     alpha-beta  T2 =       0.7228822293D-01 E2=     -0.3017926531D+00
     beta-beta   T2 =       0.1256275009D-01 E2=     -0.5451965256D-01
 ANorm=    0.1047575163D+01
 E2 =    -0.4108319582D+00 EUMP2 =    -0.25206538295505D+04
          IDoAtm=1111
          Differentiating once with respect to electric field.
                with respect to dipole field.
          Differentiating once with respect to nuclear coordinates.
          Keep R1 ints in memory in canonical form, NReq=1634203.
          There are     1 degrees of freedom in the 1st order CPHF.  IDoFFX=0.
 LinEq1:  Iter=  0 NonCon=     1 RMS=9.71D-03 Max=1.19D-01
 AX will form     1 AO Fock derivatives at one time.
 LinEq1:  Iter=  1 NonCon=     1 RMS=1.82D-03 Max=1.95D-02
 LinEq1:  Iter=  2 NonCon=     1 RMS=5.17D-04 Max=4.11D-03
 LinEq1:  Iter=  3 NonCon=     1 RMS=1.60D-04 Max=2.13D-03
 LinEq1:  Iter=  4 NonCon=     1 RMS=1.46D-05 Max=1.00D-04
 LinEq1:  Iter=  5 NonCon=     1 RMS=1.20D-06 Max=1.35D-05
 LinEq1:  Iter=  6 NonCon=     1 RMS=1.81D-07 Max=2.43D-06
 LinEq1:  Iter=  7 NonCon=     1 RMS=2.18D-08 Max=1.81D-07
 LinEq1:  Iter=  8 NonCon=     1 RMS=2.40D-09 Max=1.79D-08
 LinEq1:  Iter=  9 NonCon=     1 RMS=1.58D-10 Max=9.23D-10
 LinEq1:  Iter= 10 NonCon=     0 RMS=1.60D-11 Max=1.59D-10
 Linear equations converged to 1.000D-10 1.000D-09 after    10 iterations.
 End of Minotr Frequency-dependent properties file   721 does not exist.
 End of Minotr Frequency-dependent properties file   722 does not exist.
 Calling FoFJK, ICntrl=      2127 FMM=F ISym2X=1 I1Cent= 0 IOpClX= 0 NMat=1 NMatS=1 NMatT=0.
 ***** Axes restored to original set *****
 -------------------------------------------------------------------
 Center     Atomic                   Forces (Hartrees/Bohr)
 Number     Number              X              Y              Z
 -------------------------------------------------------------------
      1       33          -0.000000000   -0.000000000   -0.000002463
      2        9           0.000000000   -0.000070720    0.000000821
      3        9           0.000061246    0.000035360    0.000000821
      4        9          -0.000061246    0.000035360    0.000000821
 -------------------------------------------------------------------
 Cartesian Forces:  Max     0.000070720 RMS     0.000035370

 GradGradGradGradGradGradGradGradGradGradGradGradGradGradGradGradGradGrad
 Berny optimization.
 Using GEDIIS/GDIIS optimizer.
 Internal  Forces:  Max     0.000080871 RMS     0.000063404
 Search for a local minimum.
 Step number   5 out of a maximum of   20
 All quantities printed in internal units (Hartrees-Bohrs-Radians)
 Mixed Optimization -- En-DIIS/RFO-DIIS
 Update second derivatives using D2CorX and points    2    3    4    5
 DE= -3.40D-05 DEPred=-3.35D-05 R= 1.02D+00
 SS=  1.41D+00  RLast= 1.58D-02 DXNew= 1.0426D+00 4.7277D-02
 Trust test= 1.02D+00 RLast= 1.58D-02 DXMaxT set to 6.20D-01
 The second derivative matrix:
                          R1        R2        R3        A1        A2
           R1           0.28595
           R2           0.03713   0.28595
           R3           0.03713   0.03713   0.28595
           A1          -0.00466  -0.00466  -0.00466   0.18739
           A2          -0.00155  -0.00155  -0.00155  -0.04123   0.26698
           A3          -0.00155  -0.00155  -0.00155  -0.04123   0.01698
           D1          -0.00706  -0.00706  -0.00706  -0.01332  -0.05863
                          A3        D1
           A3           0.26698
           D1          -0.05863   0.07644
 ITU=  1  1  1  1  0
 Use linear search instead of GDIIS.
     Eigenvalues ---    0.14371   0.24881   0.24881   0.25000   0.30491
     Eigenvalues ---    0.36033
 RFO step:  Lambda=-9.31025142D-08 EMin= 1.43710276D-01
 Quartic linear search produced a step of -0.00702.
 Iteration  1 RMS(Cart)=  0.00033353 RMS(Int)=  0.00000008
 Iteration  2 RMS(Cart)=  0.00000004 RMS(Int)=  0.00000006
 ClnCor:  largest displacement from symmetrization is 1.52D-05 for atom     4.
 Variable       Old X    -DE/DX   Delta X   Delta X   Delta X     New X
                                 (Linear)    (Quad)   (Total)
    R1        3.23424  -0.00006   0.00004  -0.00021  -0.00017   3.23407
    R2        3.23424  -0.00006   0.00004  -0.00021  -0.00017   3.23407
    R3        3.23424  -0.00006   0.00004  -0.00021  -0.00017   3.23407
    A1        1.67191  -0.00003  -0.00004  -0.00020  -0.00025   1.67166
    A2        1.67191  -0.00008  -0.00004  -0.00022  -0.00025   1.67166
    A3        1.67191  -0.00008  -0.00004  -0.00022  -0.00025   1.67166
    D1       -1.68330   0.00005   0.00005   0.00025   0.00031  -1.68299
         Item               Value     Threshold  Converged?
 Maximum Force            0.000081     0.000450     YES
 RMS     Force            0.000063     0.000300     YES
 Maximum Displacement     0.000455     0.001800     YES
 RMS     Displacement     0.000330     0.001200     YES
 Predicted change in Energy=-4.826987D-08
 Optimization completed.
    -- Stationary point found.
                           ----------------------------
                           !   Optimized Parameters   !
                           ! (Angstroms and Degrees)  !
 --------------------------                            --------------------------
 ! Name  Definition              Value          Derivative Info.                !
 --------------------------------------------------------------------------------
 ! R1    R(1,2)                  1.7115         -DE/DX =   -0.0001              !
 ! R2    R(1,3)                  1.7115         -DE/DX =   -0.0001              !
 ! R3    R(1,4)                  1.7115         -DE/DX =   -0.0001              !
 ! A1    A(2,1,3)               95.7932         -DE/DX =    0.0                 !
 ! A2    A(2,1,4)               95.7932         -DE/DX =   -0.0001              !
 ! A3    A(3,1,4)               95.7932         -DE/DX =   -0.0001              !
 ! D1    D(2,1,4,3)            -96.4463         -DE/DX =    0.0001              !
 --------------------------------------------------------------------------------
 GradGradGradGradGradGradGradGradGradGradGradGradGradGradGradGradGradGrad

                          Input orientation:                          
 ---------------------------------------------------------------------
 Center     Atomic      Atomic             Coordinates (Angstroms)
 Number     Number       Type             X           Y           Z
 ---------------------------------------------------------------------
      1         33           0       -0.000000   -0.000000    0.485104
      2          9           0       -0.000000    1.466253   -0.397665
      3          9           0       -1.269812   -0.733126   -0.397665
      4          9           0        1.269812   -0.733126   -0.397665
 ---------------------------------------------------------------------
                    Distance matrix (angstroms):
                    1          2          3          4
     1  As   0.000000
     2  F    1.711484   0.000000
     3  F    1.711484   2.539624   0.000000
     4  F    1.711484   2.539624   2.539624   0.000000
 Stoichiometry    AsF3
 Framework group  C3V[C3(As),3SGV(F)]
 Deg. of freedom     2
 Full point group                 C3V     NOp   6
 Largest Abelian subgroup         CS      NOp   2
 Largest concise Abelian subgroup CS      NOp   2
                         Standard orientation:                         
 ---------------------------------------------------------------------
 Center     Atomic      Atomic             Coordinates (Angstroms)
 Number     Number       Type             X           Y           Z
 ---------------------------------------------------------------------
      1         33           0        0.000000    0.000000    0.397246
      2          9           0        0.000000    1.466253   -0.485523
      3          9           0       -1.269812   -0.733126   -0.485523
      4          9           0        1.269812   -0.733126   -0.485523
 ---------------------------------------------------------------------
 Rotational constants (GHZ):      5.8430471      5.8430471      4.1244040

 **********************************************************************

            Population analysis using the SCF density.

 **********************************************************************

 Orbital symmetries:
       Occupied  (A1) (A1) (E) (E) (A1) (A1) (E) (E) (A1) (E) (E)
                 (A1) (E) (E) (E) (E) (A1) (A1) (E) (E) (A1) (E)
                 (E) (A1) (E) (E) (A2) (E) (E) (A1)
       Virtual   (E) (E) (A1) (A1) (A1) (E) (E) (E) (E) (A1) (A2)
                 (E) (E) (E) (E) (A1) (E) (E) (A1) (A1)
 The electronic state is 1-A1.
 Alpha  occ. eigenvalues -- -429.66618 -56.15859 -49.90015 -49.90015 -49.89941
 Alpha  occ. eigenvalues --  -26.15538 -26.15419 -26.15419  -8.13906  -5.96313
 Alpha  occ. eigenvalues --   -5.96313  -5.95794  -2.19618  -2.19618  -2.18782
 Alpha  occ. eigenvalues --   -2.18782  -2.18372  -1.61044  -1.56279  -1.56279
 Alpha  occ. eigenvalues --   -0.85691  -0.69511  -0.69511  -0.68570  -0.64204
 Alpha  occ. eigenvalues --   -0.64204  -0.61664  -0.61526  -0.61526  -0.46883
 Alpha virt. eigenvalues --    0.12699   0.12699   0.24543   0.49186   0.57404
 Alpha virt. eigenvalues --    0.57568   0.57568   2.15145   2.15145   2.23126
 Alpha virt. eigenvalues --    2.26176   2.31890   2.31890   2.37130   2.37130
 Alpha virt. eigenvalues --    2.45375   3.49735   3.49735   4.11599  12.91678
          Condensed to atoms (all electrons):
              1          2          3          4
     1  As  30.908506   0.156298   0.156298   0.156298
     2  F    0.156298   9.394605  -0.005019  -0.005019
     3  F    0.156298  -0.005019   9.394605  -0.005019
     4  F    0.156298  -0.005019  -0.005019   9.394605
 Mulliken atomic charges:
              1
     1  As   1.622599
     2  F   -0.540866
     3  F   -0.540866
     4  F   -0.540866
 Sum of Mulliken atomic charges =   0.00000
 Mulliken charges with hydrogens summed into heavy atoms:
              1
     1  As   1.622599
     2  F   -0.540866
     3  F   -0.540866
     4  F   -0.540866
 Sum of Mulliken charges with hydrogens summed into heavy atoms =   0.00000
 Electronic spatial extent (au):  <R**2>=            322.6630
 Charge=             -0.0000 electrons
 Dipole moment (field-independent basis, Debye):
    X=             -0.0000    Y=              0.0000    Z=              3.3574  Tot=              3.3574
 Quadrupole moment (field-independent basis, Debye-Ang):
   XX=            -34.2595   YY=            -34.2595   ZZ=            -31.0770
   XY=              0.0000   XZ=             -0.0000   YZ=             -0.0000
 Traceless Quadrupole moment (field-independent basis, Debye-Ang):
   XX=             -1.0608   YY=             -1.0608   ZZ=              2.1217
   XY=              0.0000   XZ=             -0.0000   YZ=             -0.0000
 Octapole moment (field-independent basis, Debye-Ang**2):
  XXX=              0.0000  YYY=             -5.8442  ZZZ=              0.3980  XYY=             -0.0000
  XXY=              5.8442  XXZ=              4.8471  XZZ=              0.0000  YZZ=              0.0000
  YYZ=              4.8471  XYZ=             -0.0000
 Hexadecapole moment (field-independent basis, Debye-Ang**3):
 XXXX=           -123.6048 YYYY=           -123.6048 ZZZZ=            -63.1089 XXXY=              0.0000
 XXXZ=             -0.0000 YYYX=              0.0000 YYYZ=              2.4295 ZZZX=             -0.0000
 ZZZY=             -0.0000 XXYY=            -41.2016 XXZZ=            -30.1263 YYZZ=            -30.1263
 XXYZ=             -2.4295 YYXZ=              0.0000 ZZXY=              0.0000
 N-N= 3.261235979311D+02 E-N=-6.703805285670D+03  KE= 2.535536325588D+03
 Symmetry A'   KE= 2.107295025642D+03
 Symmetry A"   KE= 4.282412999452D+02
 1\1\GINC-SRU01\FOpt\RMP2-FC\3-21G\As1F3\JAMES\04-Sep-2023\0\\# opt fre
 q=hpmodes mp2/3-21g geom=connectivity\\Title Card Required\\0,1\As,0.,
 0.,0.4851035008\F,-0.0000000017,1.4662526761,-0.3976651977\F,-1.269812
 065,-0.7331263396,-0.3976651977\F,1.2698120668,-0.7331263366,-0.397665
 1977\\Version=AM64L-G09RevC.01\State=1-A1\HF=-2520.2429976\MP2=-2520.6
 538296\RMSD=4.774e-09\RMSF=3.537e-05\Dipole=0.,0.,1.0996921\PG=C03V [C
 3(As1),3SGV(F1)]\\@


 TIME IS NATURE'S WAY OF MAKING SURE EVERYTHING
 DOESN'T HAPPEN AT ONCE.
                     - WOODY ALLEN
 Job cpu time:  0 days  0 hours  0 minutes 11.0 seconds.
 File lengths (MBytes):  RWF=      5 Int=      0 D2E=      0 Chk=      2 Scr=      1
 Normal termination of Gaussian 09 at Mon Sep  4 23:04:20 2023.
 Link1:  Proceeding to internal job step number  2.
 -------------------------------------------------------------------
 #N Geom=AllCheck Guess=TCheck SCRF=Check GenChk RMP2(FC)/3-21G Freq
 -------------------------------------------------------------------
 1/10=4,29=7,30=1,38=1,40=1/1,3;
 2/12=2,40=1/2;
 3/5=5,11=1,14=-4,16=1,25=1,30=1,70=2,71=2,116=1/1,2,3;
 4/5=101/1;
 5/5=2,98=1/2;
 8/6=3,8=1,10=1,19=11,30=-1/1;
 9/15=3,16=-3/6;
 11/6=1,8=1,15=11,17=12,24=-1,27=1,28=-2,29=300,32=6,42=3/1,2,10;
 10/6=2,21=1/2;
 8/6=4,8=1,10=1,19=11,30=-1/11,4;
 10/5=1,20=4/2;
 11/12=2,14=11,16=1,17=2,28=-2,42=3/2,10,12;
 6/7=2,8=2,9=2,10=2/1;
 7/8=11,10=1,12=2,25=1,44=2/1,2,3,16;
 1/10=4,30=1/3;
 99//99;
 Structure from the checkpoint file:  AsF3.chk
 -------------------
 Title Card Required
 -------------------
 Charge =  0 Multiplicity = 1
 Redundant internal coordinates found in file.
 As,0,0.,0.,0.4851035008
 F,0,-0.0000000017,1.4662526761,-0.3976651977
 F,0,-1.269812065,-0.7331263396,-0.3976651977
 F,0,1.2698120668,-0.7331263366,-0.3976651977
 Recover connectivity data from disk.

 GradGradGradGradGradGradGradGradGradGradGradGradGradGradGradGradGradGrad
 Berny optimization.
 Initialization pass.
                           ----------------------------
                           !    Initial Parameters    !
                           ! (Angstroms and Degrees)  !
 --------------------------                            --------------------------
 ! Name  Definition              Value          Derivative Info.                !
 --------------------------------------------------------------------------------
 ! R1    R(1,2)                  1.7115         calculate D2E/DX2 analytically  !
 ! R2    R(1,3)                  1.7115         calculate D2E/DX2 analytically  !
 ! R3    R(1,4)                  1.7115         calculate D2E/DX2 analytically  !
 ! A1    A(2,1,3)               95.7932         calculate D2E/DX2 analytically  !
 ! A2    A(2,1,4)               95.7932         calculate D2E/DX2 analytically  !
 ! A3    A(3,1,4)               95.7932         calculate D2E/DX2 analytically  !
 ! D1    D(2,1,4,3)            -96.4463         calculate D2E/DX2 analytically  !
 --------------------------------------------------------------------------------
 Trust Radius=3.00D-01 FncErr=1.00D-07 GrdErr=1.00D-07
 Number of steps in this run=      2 maximum allowed number of steps=      2.
 GradGradGradGradGradGradGradGradGradGradGradGradGradGradGradGradGradGrad

                          Input orientation:                          
 ---------------------------------------------------------------------
 Center     Atomic      Atomic             Coordinates (Angstroms)
 Number     Number       Type             X           Y           Z
 ---------------------------------------------------------------------
      1         33           0       -0.000000   -0.000000    0.485104
      2          9           0       -0.000000    1.466253   -0.397665
      3          9           0       -1.269812   -0.733126   -0.397665
      4          9           0        1.269812   -0.733126   -0.397665
 ---------------------------------------------------------------------
                    Distance matrix (angstroms):
                    1          2          3          4
     1  As   0.000000
     2  F    1.711484   0.000000
     3  F    1.711484   2.539624   0.000000
     4  F    1.711484   2.539624   2.539624   0.000000
 Stoichiometry    AsF3
 Framework group  C3V[C3(As),3SGV(F)]
 Deg. of freedom     2
 Full point group                 C3V     NOp   6
 Largest Abelian subgroup         CS      NOp   2
 Largest concise Abelian subgroup CS      NOp   2
                         Standard orientation:                         
 ---------------------------------------------------------------------
 Center     Atomic      Atomic             Coordinates (Angstroms)
 Number     Number       Type             X           Y           Z
 ---------------------------------------------------------------------
      1         33           0        0.000000    0.000000    0.397246
      2          9           0        0.000000    1.466253   -0.485523
      3          9           0       -1.269812   -0.733126   -0.485523
      4          9           0        1.269812   -0.733126   -0.485523
 ---------------------------------------------------------------------
 Rotational constants (GHZ):      5.8430471      5.8430471      4.1244040
 Standard basis: 3-21G (6D, 7F)
 There are    33 symmetry adapted basis functions of A'  symmetry.
 There are    17 symmetry adapted basis functions of A"  symmetry.
 Integral buffers will be    131072 words long.
 Raffenetti 1 integral format.
 Two-electron integral symmetry is turned on.
    50 basis functions,   102 primitive gaussians,    50 cartesian basis functions
    30 alpha electrons       30 beta electrons
       nuclear repulsion energy       326.1235979311 Hartrees.
 NAtoms=    4 NActive=    4 NUniq=    2 SFac= 4.00D+00 NAtFMM=   60 NAOKFM=F Big=F
 One-electron integrals computed using PRISM.
 NBasis=    50 RedAO= T  NBF=    33    17
 NBsUse=    50 1.00D-06 NBFU=    33    17
 Initial guess read from the checkpoint file:  AsF3.chk
 B after Tr=     0.000000   -0.000000    0.000000
         Rot=    1.000000    0.000000   -0.000000   -0.000000 Ang=   0.00 deg.
 Initial guess orbital symmetries:
       Occupied  (A1) (A1) (E) (E) (A1) (A1) (E) (E) (A1) (E) (E)
                 (A1) (E) (E) (E) (E) (A1) (A1) (E) (E) (A1) (E)
                 (E) (A1) (E) (E) (A2) (E) (E) (A1)
       Virtual   (E) (E) (A1) (A1) (A1) (E) (E) (E) (E) (A1) (A2)
                 (E) (E) (E) (E) (A1) (E) (E) (A1) (A1)
 Requested convergence on RMS density matrix=1.00D-08 within 128 cycles.
 Requested convergence on MAX density matrix=1.00D-06.
 Requested convergence on             energy=1.00D-06.
 No special actions if energy rises.
 Keep R1 ints in memory in canonical form, NReq=1659908.
 SCF Done:  E(RHF) =  -2520.24299759     A.U. after    1 cycles
             Convg  =    0.6937D-09             -V/T =  1.9940
 ExpMin= 1.14D-01 ExpMax= 5.41D+03 ExpMxC= 5.41D+03 IAcc=3 IRadAn=         5 AccDes= 0.00D+00
 HarFok:  IExCor=  205 AccDes= 0.00D+00 IRadAn=         5 IDoV=-2
 ScaDFX=  1.000000  1.000000  1.000000  1.000000
 Range of M.O.s used for correlation:    13    50
 NBasis=    50 NAE=    30 NBE=    30 NFC=    12 NFV=     0
 NROrb=     38 NOA=    18 NOB=    18 NVA=    20 NVB=    20
 Disk-based method using ON**2 memory for 18 occupieds at a time.
 Permanent disk used for amplitudes=      442650 words.
 Estimated scratch disk usage=     3657222 words.
 Actual    scratch disk usage=     3657222 words.
 JobTyp=1 Pass  1:  I=  13 to  30 NPSUse=  1 ParTrn=F ParDer=F DoDerP=T.
 (rs|ai) integrals will be sorted in core.
 Spin components of T(2) and E(2):
     alpha-alpha T2 =       0.1256275029D-01 E2=     -0.5451965289D-01
     alpha-beta  T2 =       0.7228822341D-01 E2=     -0.3017926540D+00
     beta-beta   T2 =       0.1256275029D-01 E2=     -0.5451965289D-01
 ANorm=    0.1047575164D+01
 E2 =    -0.4108319598D+00 EUMP2 =    -0.25206538295521D+04
 G2DrvN: will do     5 centers at a time, making    1 passes doing MaxLOS=2.
 Calling FoFCou, ICntrl=  3107 FMM=F I1Cent=   0 AccDes= 0.00D+00.
 FoFDir/FoFCou used for L=0 through L=2.
 End of G2Drv Frequency-dependent properties file   721 does not exist.
 End of G2Drv Frequency-dependent properties file   722 does not exist.
          IDoAtm=1111
          Differentiating once with respect to electric field.
                with respect to dipole field.
          Differentiating once with respect to nuclear coordinates.
          Keep R1 ints in memory in canonical form, NReq=1634203.
          There are    15 degrees of freedom in the 1st order CPHF.  IDoFFX=5.
     12 vectors produced by pass  0 Test12= 4.00D-15 6.67D-09 XBig12= 5.85D+00 1.87D+00.
 AX will form    12 AO Fock derivatives at one time.
     12 vectors produced by pass  1 Test12= 4.00D-15 6.67D-09 XBig12= 2.29D-01 1.87D-01.
     12 vectors produced by pass  2 Test12= 4.00D-15 6.67D-09 XBig12= 9.57D-03 3.25D-02.
     12 vectors produced by pass  3 Test12= 4.00D-15 6.67D-09 XBig12= 1.27D-04 3.75D-03.
     12 vectors produced by pass  4 Test12= 4.00D-15 6.67D-09 XBig12= 7.74D-07 2.75D-04.
     12 vectors produced by pass  5 Test12= 4.00D-15 6.67D-09 XBig12= 4.54D-09 1.90D-05.
     12 vectors produced by pass  6 Test12= 4.00D-15 6.67D-09 XBig12= 3.58D-11 2.11D-06.
      3 vectors produced by pass  7 Test12= 4.00D-15 6.67D-09 XBig12= 1.65D-13 9.99D-08.
      2 vectors produced by pass  8 Test12= 4.00D-15 6.67D-09 XBig12= 7.89D-16 7.02D-09.
 Inverted reduced A of dimension    89 with in-core refinement.
 End of Minotr Frequency-dependent properties file   721 does not exist.
 End of Minotr Frequency-dependent properties file   722 does not exist.
 MDV=    33554432.
 Form MO integral derivatives with frozen-active canonical formalism.
 Discarding MO integrals.
 Reordered first order wavefunction length =       720000
 In DefCFB: NBatch=  1 ICI= 30 ICA= 20 LFMax= 20
            Large arrays: LIAPS=     6000000 LIARS=     4830000 words.
 Semi-Direct transformation.
 ModeAB=           4 MOrb=            30 LenV=      33364006
 LASXX=       912480 LTotXX=      912480 LenRXX=     1991355
 LTotAB=     1078875 MaxLAS=     1435500 LenRXY=           0
 NonZer=     2903835 LenScr=     5078528 LnRSAI=     1435500
 LnScr1=     2869248 LExtra=           0 Total=     11374631
 MaxDsk=          -1 SrtSym=           T ITran=            4
 JobTyp=0 Pass  1:  I=   1 to  30.
 (rs|ai) integrals will be sorted in core.
 Spin components of T(2) and E(2):
     alpha-alpha T2 =       0.1256275029D-01 E2=     -0.5451965289D-01
     alpha-beta  T2 =       0.7228822341D-01 E2=     -0.3017926540D+00
     beta-beta   T2 =       0.1256275029D-01 E2=     -0.5451965289D-01
 ANorm=    0.1481495004D+01
 E2 =    -0.4108319598D+00 EUMP2 =    -0.25206538295521D+04
          IDoAtm=1111
          Differentiating once with respect to electric field.
                with respect to dipole field.
          Differentiating once with respect to nuclear coordinates.
          There are     1 degrees of freedom in the 1st order CPHF.  IDoFFX=0.
 LinEq1:  Iter=  0 NonCon=     1 RMS=9.71D-03 Max=1.19D-01
 LinEq1:  Iter=  1 NonCon=     1 RMS=1.82D-03 Max=1.95D-02
 LinEq1:  Iter=  2 NonCon=     1 RMS=5.17D-04 Max=4.11D-03
 LinEq1:  Iter=  3 NonCon=     1 RMS=1.60D-04 Max=2.13D-03
 LinEq1:  Iter=  4 NonCon=     1 RMS=1.46D-05 Max=1.00D-04
 LinEq1:  Iter=  5 NonCon=     1 RMS=1.20D-06 Max=1.35D-05
 LinEq1:  Iter=  6 NonCon=     1 RMS=1.81D-07 Max=2.43D-06
 LinEq1:  Iter=  7 NonCon=     1 RMS=2.18D-08 Max=1.81D-07
 LinEq1:  Iter=  8 NonCon=     1 RMS=2.40D-09 Max=1.79D-08
 LinEq1:  Iter=  9 NonCon=     1 RMS=1.58D-10 Max=9.23D-10
 LinEq1:  Iter= 10 NonCon=     0 RMS=1.60D-11 Max=1.59D-10
 Linear equations converged to 1.000D-10 1.000D-09 after    10 iterations.
 End of Minotr Frequency-dependent properties file   721 does not exist.
 End of Minotr Frequency-dependent properties file   722 does not exist.
 Symmetrizing basis deriv contribution to polar:
 IMax=3 JMax=2 DiffMx= 0.00D+00
 G2DrvN: will do     5 centers at a time, making    1 passes doing MaxLOS=2.
 Calling FoFCou, ICntrl=  3107 FMM=F I1Cent=   0 AccDes= 0.00D+00.
 FoFDir/FoFCou used for L=0 through L=2.
 End of G2Drv Frequency-dependent properties file   721 does not exist.
 End of G2Drv Frequency-dependent properties file   722 does not exist.
 R2 and R3 integrals will be kept in memory, NReq=     2446900.
 DD1Dir will call FoFMem   1 times, MxPair=       930
 NAB=   465 NAA=     0 NBB=     0.
 Discarding MO integrals.

 **********************************************************************

            Population analysis using the SCF density.

 **********************************************************************

 Orbital symmetries:
       Occupied  (A1) (A1) (E) (E) (A1) (A1) (E) (E) (A1) (E) (E)
                 (A1) (E) (E) (E) (E) (A1) (A1) (E) (E) (A1) (E)
                 (E) (A1) (E) (E) (A2) (E) (E) (A1)
       Virtual   (E) (E) (A1) (A1) (A1) (E) (E) (E) (E) (A1) (A2)
                 (E) (E) (E) (E) (A1) (E) (E) (A1) (A1)
 The electronic state is 1-A1.
 Alpha  occ. eigenvalues -- -429.66618 -56.15859 -49.90015 -49.90015 -49.89941
 Alpha  occ. eigenvalues --  -26.15538 -26.15419 -26.15419  -8.13906  -5.96313
 Alpha  occ. eigenvalues --   -5.96313  -5.95794  -2.19618  -2.19618  -2.18782
 Alpha  occ. eigenvalues --   -2.18782  -2.18372  -1.61044  -1.56279  -1.56279
 Alpha  occ. eigenvalues --   -0.85691  -0.69511  -0.69511  -0.68570  -0.64204
 Alpha  occ. eigenvalues --   -0.64204  -0.61664  -0.61526  -0.61526  -0.46883
 Alpha virt. eigenvalues --    0.12699   0.12699   0.24543   0.49186   0.57404
 Alpha virt. eigenvalues --    0.57568   0.57568   2.15145   2.15145   2.23126
 Alpha virt. eigenvalues --    2.26176   2.31890   2.31890   2.37130   2.37130
 Alpha virt. eigenvalues --    2.45375   3.49735   3.49735   4.11599  12.91678
          Condensed to atoms (all electrons):
              1          2          3          4
     1  As  30.908506   0.156298   0.156298   0.156298
     2  F    0.156298   9.394605  -0.005019  -0.005019
     3  F    0.156298  -0.005019   9.394605  -0.005019
     4  F    0.156298  -0.005019  -0.005019   9.394605
 Mulliken atomic charges:
              1
     1  As   1.622599
     2  F   -0.540866
     3  F   -0.540866
     4  F   -0.540866
 Sum of Mulliken atomic charges =  -0.00000
 Mulliken charges with hydrogens summed into heavy atoms:
              1
     1  As   1.622599
     2  F   -0.540866
     3  F   -0.540866
     4  F   -0.540866
 Sum of Mulliken charges with hydrogens summed into heavy atoms =  -0.00000
 APT atomic charges:
              1
     1  As   1.554885
     2  F   -0.518295
     3  F   -0.518295
     4  F   -0.518295
 Sum of APT charges=  -0.00000
 APT Atomic charges with hydrogens summed into heavy atoms:
              1
     1  As   1.554885
     2  F   -0.518295
     3  F   -0.518295
     4  F   -0.518295
 Sum of APT charges=  -0.00000
 Electronic spatial extent (au):  <R**2>=            322.6630
 Charge=             -0.0000 electrons
 Dipole moment (field-independent basis, Debye):
    X=             -0.0000    Y=              0.0000    Z=              3.3574  Tot=              3.3574
 Quadrupole moment (field-independent basis, Debye-Ang):
   XX=            -34.2595   YY=            -34.2595   ZZ=            -31.0770
   XY=              0.0000   XZ=              0.0000   YZ=              0.0000
 Traceless Quadrupole moment (field-independent basis, Debye-Ang):
   XX=             -1.0608   YY=             -1.0608   ZZ=              2.1217
   XY=              0.0000   XZ=              0.0000   YZ=              0.0000
 Octapole moment (field-independent basis, Debye-Ang**2):
  XXX=              0.0000  YYY=             -5.8442  ZZZ=              0.3980  XYY=             -0.0000
  XXY=              5.8442  XXZ=              4.8471  XZZ=             -0.0000  YZZ=              0.0000
  YYZ=              4.8471  XYZ=             -0.0000
 Hexadecapole moment (field-independent basis, Debye-Ang**3):
 XXXX=           -123.6048 YYYY=           -123.6048 ZZZZ=            -63.1089 XXXY=              0.0000
 XXXZ=             -0.0000 YYYX=              0.0000 YYYZ=              2.4295 ZZZX=             -0.0000
 ZZZY=             -0.0000 XXYY=            -41.2016 XXZZ=            -30.1263 YYZZ=            -30.1263
 XXYZ=             -2.4295 YYXZ=              0.0000 ZZXY=              0.0000
 N-N= 3.261235979311D+02 E-N=-6.703805285529D+03  KE= 2.535536325509D+03
 Symmetry A'   KE= 2.107295025611D+03
 Symmetry A"   KE= 4.282412998985D+02
  Exact polarizability:  20.699   0.000  20.699  -0.000  -0.000  13.715
 Approx polarizability:  16.978  -0.000  16.978   0.000  -0.000   9.621
 Calling FoFJK, ICntrl=    100127 FMM=F ISym2X=1 I1Cent= 0 IOpClX= 0 NMat=1 NMatS=1 NMatT=0.
 Full mass-weighted force constant matrix:
 Low frequencies ---    0.0106    0.0107    0.0158    5.0494    5.0494    5.9578
 Low frequencies ---  268.1116  268.1116  352.2694
 Harmonic frequencies (cm**-1), IR intensities (KM/Mole), Raman scattering
 activities (A**4/AMU), depolarization ratios for plane and unpolarized
 incident light, reduced masses (AMU), force constants (mDyne/A),
 and normal coordinates:
                           1         2         3         4         5
                           E         E        A1         E         E
       Frequencies ---   268.1116  268.1116  352.2694  790.6520  790.6520
    Reduced masses ---    20.2872   20.2872   23.3319   22.7502   22.7502
   Force constants ---     0.8592    0.8592    1.7059    8.3793    8.3793
    IR Intensities ---     8.1591    8.1591   44.5949   67.6403   67.6403
 Coord Atom Element:
   1     1    33         -0.11799  -0.09552  -0.00000   0.24549  -0.08261
   2     1    33          0.09552  -0.11799  -0.00000   0.08261   0.24549
   3     1    33         -0.00000  -0.00000   0.27837   0.00000   0.00000
   1     2     9          0.54910   0.44451   0.00000  -0.00693   0.00233
   2     2     9          0.19339  -0.23889  -0.41666  -0.21487  -0.63847
   3     2     9          0.15119  -0.18676  -0.36592   0.13077   0.38856
   1     3     9          0.23432  -0.37512   0.36084  -0.57261  -0.11173
   2     3     9         -0.62624   0.07589   0.20833  -0.32893  -0.07278
   3     3     9          0.08615   0.22431  -0.36592  -0.40189  -0.08104
   1     4     9         -0.31811   0.30730  -0.36084  -0.38855   0.43520
   2     4     9          0.05618   0.62832   0.20833   0.21800  -0.25684
   3     4     9         -0.23734  -0.03755  -0.36592   0.27112  -0.30753
                           6
                          A1
       Frequencies ---   799.9311
    Reduced masses ---    22.0083
   Force constants ---     8.2974
    IR Intensities ---    40.0839
 Coord Atom Element:
   1     1    33         -0.00000
   2     1    33         -0.00000
   3     1    33          0.23200
   1     2     9         -0.00000
   2     2     9          0.47158
   3     2     9         -0.30497
   1     3     9         -0.40840
   2     3     9         -0.23579
   3     3     9         -0.30497
   1     4     9          0.40840
   2     4     9         -0.23579
   3     4     9         -0.30497
 Harmonic frequencies (cm**-1), IR intensities (KM/Mole), Raman scattering
 activities (A**4/AMU), depolarization ratios for plane and unpolarized
 incident light, reduced masses (AMU), force constants (mDyne/A),
 and normal coordinates:
                     1                      2                      3
                     E                      E                     A1
 Frequencies --   268.1116               268.1116               352.2694
 Red. masses --    20.2872                20.2872                23.3319
 Frc consts  --     0.8592                 0.8592                 1.7059
 IR Inten    --     8.1591                 8.1591                44.5949
  Atom  AN      X      Y      Z        X      Y      Z        X      Y      Z
     1  33    -0.12   0.10  -0.00    -0.10  -0.12  -0.00    -0.00  -0.00   0.28
     2   9     0.55   0.19   0.15     0.44  -0.24  -0.19     0.00  -0.42  -0.37
     3   9     0.23  -0.63   0.09    -0.38   0.08   0.22     0.36   0.21  -0.37
     4   9    -0.32   0.06  -0.24     0.31   0.63  -0.04    -0.36   0.21  -0.37
                     4                      5                      6
                     E                      E                     A1
 Frequencies --   790.6520               790.6520               799.9311
 Red. masses --    22.7502                22.7502                22.0083
 Frc consts  --     8.3793                 8.3793                 8.2974
 IR Inten    --    67.6403                67.6403                40.0839
  Atom  AN      X      Y      Z        X      Y      Z        X      Y      Z
     1  33     0.25   0.08   0.00    -0.08   0.25   0.00    -0.00  -0.00   0.23
     2   9    -0.01  -0.21   0.13     0.00  -0.64   0.39    -0.00   0.47  -0.30
     3   9    -0.57  -0.33  -0.40    -0.11  -0.07  -0.08    -0.41  -0.24  -0.30
     4   9    -0.39   0.22   0.27     0.44  -0.26  -0.31     0.41  -0.24  -0.30

 -------------------
 - Thermochemistry -
 -------------------
 Temperature   298.150 Kelvin.  Pressure   1.00000 Atm.
 Atom     1 has atomic number 33 and mass  74.92160
 Atom     2 has atomic number  9 and mass  18.99840
 Atom     3 has atomic number  9 and mass  18.99840
 Atom     4 has atomic number  9 and mass  18.99840
 Molecular mass:   131.91681 amu.
 Principal axes and moments of inertia in atomic units:
                           1         2         3
     Eigenvalues --   308.86987 308.86987 437.57624
           X           -0.00000   1.00000   0.00000
           Y            1.00000   0.00000   0.00000
           Z            0.00000   0.00000   1.00000
 This molecule is an oblate symmetric top.
 Rotational symmetry number  3.
 Rotational temperatures (Kelvin)      0.28042     0.28042     0.19794
 Rotational constants (GHZ):           5.84305     5.84305     4.12440
 Zero-point vibrational energy      19557.3 (Joules/Mol)
                                    4.67431 (Kcal/Mol)
 Warning -- explicit consideration of   3 degrees of freedom as
           vibrations may cause significant error
 Vibrational temperatures:    385.75   385.75   506.84  1137.57  1137.57
          (Kelvin)           1150.92
 
 Zero-point correction=                           0.007449 (Hartree/Particle)
 Thermal correction to Energy=                    0.011804
 Thermal correction to Enthalpy=                  0.012748
 Thermal correction to Gibbs Free Energy=        -0.019850
 Sum of electronic and zero-point Energies=          -2520.646381
 Sum of electronic and thermal Energies=             -2520.642025
 Sum of electronic and thermal Enthalpies=           -2520.641081
 Sum of electronic and thermal Free Energies=        -2520.673679
 
                     E (Thermal)             CV                S
                      KCal/Mol        Cal/Mol-Kelvin    Cal/Mol-Kelvin
 Total                    7.407             12.979             68.609
 Electronic               0.000              0.000              0.000
 Translational            0.889              2.981             40.544
 Rotational               0.889              2.981             23.055
 Vibrational              5.630              7.018              5.010
 Vibration     1          0.673              1.732              1.608
 Vibration     2          0.673              1.732              1.608
 Vibration     3          0.729              1.571              1.156
                       Q            Log10(Q)             Ln(Q)
 Total Bot       0.134972D+10          9.130244         21.023164
 Total V=0       0.360191D+13         12.556533         28.912486
 Vib (Bot)       0.929632D-03         -3.031689         -6.980722
 Vib (Bot)    1  0.721517D+00         -0.141754         -0.326400
 Vib (Bot)    2  0.721517D+00         -0.141754         -0.326400
 Vib (Bot)    3  0.522973D+00         -0.281521         -0.648226
 Vib (V=0)       0.248085D+01          0.394600          0.908601
 Vib (V=0)    1  0.137783D+01          0.139196          0.320510
 Vib (V=0)    2  0.137783D+01          0.139196          0.320510
 Vib (V=0)    3  0.122353D+01          0.087616          0.201743
 Electronic      0.100000D+01          0.000000          0.000000
 Translational   0.595532D+08          7.774905         17.902381
 Rotational      0.243797D+05          4.387028         10.101504
 ***** Axes restored to original set *****
 -------------------------------------------------------------------
 Center     Atomic                   Forces (Hartrees/Bohr)
 Number     Number              X              Y              Z
 -------------------------------------------------------------------
      1       33          -0.000000000    0.000000000   -0.000002464
      2        9           0.000000000   -0.000070722    0.000000821
      3        9           0.000061247    0.000035361    0.000000821
      4        9          -0.000061247    0.000035361    0.000000821
 -------------------------------------------------------------------
 Cartesian Forces:  Max     0.000070722 RMS     0.000035370

 GradGradGradGradGradGradGradGradGradGradGradGradGradGradGradGradGradGrad
 Berny optimization.
 Internal  Forces:  Max     0.000080872 RMS     0.000063405
 Search for a local minimum.
 Step number   1 out of a maximum of    2
 All quantities printed in internal units (Hartrees-Bohrs-Radians)
 Second derivative matrix not updated -- analytic derivatives used.
 The second derivative matrix:
                          R1        R2        R3        A1        A2
           R1           0.36153
           R2           0.01001   0.36153
           R3           0.01001   0.01001   0.36153
           A1           0.00412   0.00412  -0.00133   0.06510
           A2           0.00862  -0.00116   0.00910  -0.00286   0.26372
           A3          -0.00116   0.00862   0.00910  -0.00286   0.03641
           D1          -0.00501  -0.00501  -0.00073  -0.06521  -0.03119
                          A3        D1
           A3           0.26372
           D1          -0.03119   0.07304
 ITU=  0
     Eigenvalues ---    0.12930   0.22654   0.30530   0.35227   0.35229
     Eigenvalues ---    0.38448
 Angle between quadratic step and forces=  20.35 degrees.
 Linear search not attempted -- first point.
 Iteration  1 RMS(Cart)=  0.00030566 RMS(Int)=  0.00000004
 Iteration  2 RMS(Cart)=  0.00000003 RMS(Int)=  0.00000002
 ClnCor:  largest displacement from symmetrization is 2.23D-08 for atom     4.
 Variable       Old X    -DE/DX   Delta X   Delta X   Delta X     New X
                                 (Linear)    (Quad)   (Total)
    R1        3.23424  -0.00006   0.00000  -0.00015  -0.00015   3.23409
    R2        3.23424  -0.00006   0.00000  -0.00015  -0.00015   3.23409
    R3        3.23424  -0.00006   0.00000  -0.00015  -0.00015   3.23409
    A1        1.67191  -0.00003   0.00000  -0.00023  -0.00023   1.67167
    A2        1.67191  -0.00008   0.00000  -0.00023  -0.00023   1.67167
    A3        1.67191  -0.00008   0.00000  -0.00023  -0.00023   1.67167
    D1       -1.68330   0.00005   0.00000   0.00029   0.00029  -1.68302
         Item               Value     Threshold  Converged?
 Maximum Force            0.000081     0.000450     YES
 RMS     Force            0.000063     0.000300     YES
 Maximum Displacement     0.000420     0.001800     YES
 RMS     Displacement     0.000306     0.001200     YES
 Predicted change in Energy=-4.403815D-08
 Optimization completed.
    -- Stationary point found.
                           ----------------------------
                           !   Optimized Parameters   !
                           ! (Angstroms and Degrees)  !
 --------------------------                            --------------------------
 ! Name  Definition              Value          Derivative Info.                !
 --------------------------------------------------------------------------------
 ! R1    R(1,2)                  1.7115         -DE/DX =   -0.0001              !
 ! R2    R(1,3)                  1.7115         -DE/DX =   -0.0001              !
 ! R3    R(1,4)                  1.7115         -DE/DX =   -0.0001              !
 ! A1    A(2,1,3)               95.7932         -DE/DX =    0.0                 !
 ! A2    A(2,1,4)               95.7932         -DE/DX =   -0.0001              !
 ! A3    A(3,1,4)               95.7932         -DE/DX =   -0.0001              !
 ! D1    D(2,1,4,3)            -96.4463         -DE/DX =    0.0001              !
 --------------------------------------------------------------------------------
 GradGradGradGradGradGradGradGradGradGradGradGradGradGradGradGradGradGrad

 1\1\GINC-SRU01\Freq\RMP2-FC\3-21G\As1F3\JAMES\04-Sep-2023\0\\#N Geom=A
 llCheck Guess=TCheck SCRF=Check GenChk RMP2(FC)/3-21G Freq\\Title Card
  Required\\0,1\As,0.,0.,0.4851035008\F,-0.0000000017,1.4662526761,-0.3
 976651977\F,-1.269812065,-0.7331263396,-0.3976651977\F,1.2698120668,-0
 .7331263366,-0.3976651977\\Version=AM64L-G09RevC.01\State=1-A1\HF=-252
 0.2429976\MP2=-2520.6538296\RMSD=6.937e-10\RMSF=3.537e-05\ZeroPoint=0.
 007449\Thermal=0.0118042\Dipole=0.,0.,1.0996922\DipoleDeriv=1.4949504,
 0.,0.,0.,1.4949504,0.,0.,0.,1.674753,-0.3443641,0.,0.,0.,-0.6522695,0.
 0367484,0.,0.3354417,-0.558251,-0.5752932,-0.133327,-0.0318251,-0.1333
 27,-0.4213405,-0.0183742,-0.290501,-0.1677208,-0.558251,-0.5752932,0.1
 33327,0.0318251,0.133327,-0.4213405,-0.0183742,0.290501,-0.1677208,-0.
 558251\Polar=20.6985853,0.,20.6985853,0.,0.,13.7147567\PG=C03V [C3(As1
 ),3SGV(F1)]\NImag=0\\0.40893248,0.,0.40893248,0.,0.,0.41996890,-0.0232
 6856,0.,0.,0.02418333,0.,-0.24935309,0.13811622,0.,0.27582927,0.,0.164
 13337,-0.13998963,0.,-0.14612184,0.11255873,-0.19283196,-0.09789747,-0
 .11961216,-0.00045738,-0.00792525,0.00057744,0.21291779,-0.09789747,-0
 .07978970,-0.06905811,-0.01421159,-0.01323809,-0.00900577,0.10896589,0
 .08709482,-0.14214367,-0.08206669,-0.13998963,0.00808794,0.00400281,0.
 01371545,0.12654522,0.07306092,0.11255873,-0.19283196,0.09789747,0.119
 61216,-0.00045738,0.00792525,-0.00057744,-0.01962845,0.00314317,0.0075
 1050,0.21291779,0.09789747,-0.07978969,-0.06905811,0.01421159,-0.01323
 809,-0.00900577,-0.00314317,0.00593297,0.00500296,-0.10896589,0.087094
 82,0.14214367,-0.08206668,-0.13998963,-0.00808794,0.00400281,0.0137154
 5,-0.00751050,0.00500296,0.01371545,-0.12654522,0.07306092,0.11255873\
 \0.,0.,0.00000246,0.,0.00007072,-0.00000082,-0.00006125,-0.00003536,-0
 .00000082,0.00006125,-0.00003536,-0.00000082\\\@


 IT PROBABLY IS NOT POSSIBLE FOR A SCIENTIST TO INTERROGATE NATURE 
 FROM A WHOLLY DISINTERESTED VIEWPOINT.
 EVEN IF HE HAS NO PARTICULAR AXE TO GRIND, HE IS LIKELY TO HAVE 
 A DISTINCTIVE WAY OF VIEWING NATURE.

                                                   -- JOHN LOSEE
 Job cpu time:  0 days  0 hours  0 minutes 15.6 seconds.
 File lengths (MBytes):  RWF=    101 Int=      0 D2E=      0 Chk=      2 Scr=      1
 Normal termination of Gaussian 09 at Mon Sep  4 23:04:39 2023.
