 Entering Gaussian System, Link 0=g16
 Input=CH4.com
 Output=CH4.log
 Initial command:
 /opt/g16/g16/l1.exe "/home/pnatt/scratch/Gau-2713973.inp" -scrdir="/home/pnatt/scratch/"
 Entering Link 1 = /opt/g16/g16/l1.exe PID=   2713975.
  
 Copyright (c) 1988-2019, Gaussian, Inc.  All Rights Reserved.
  
 This is part of the Gaussian(R) 16 program.  It is based on
 the Gaussian(R) 09 system (copyright 2009, Gaussian, Inc.),
 the Gaussian(R) 03 system (copyright 2003, Gaussian, Inc.),
 the Gaussian(R) 98 system (copyright 1998, Gaussian, Inc.),
 the Gaussian(R) 94 system (copyright 1995, Gaussian, Inc.),
 the Gaussian 92(TM) system (copyright 1992, Gaussian, Inc.),
 the Gaussian 90(TM) system (copyright 1990, Gaussian, Inc.),
 the Gaussian 88(TM) system (copyright 1988, Gaussian, Inc.),
 the Gaussian 86(TM) system (copyright 1986, Carnegie Mellon
 University), and the Gaussian 82(TM) system (copyright 1983,
 Carnegie Mellon University). Gaussian is a federally registered
 trademark of Gaussian, Inc.
  
 This software contains proprietary and confidential information,
 including trade secrets, belonging to Gaussian, Inc.
  
 This software is provided under written license and may be
 used, copied, transmitted, or stored only in accord with that
 written license.
  
 The following legend is applicable only to US Government
 contracts under FAR:
  
                    RESTRICTED RIGHTS LEGEND
  
 Use, reproduction and disclosure by the US Government is
 subject to restrictions as set forth in subparagraphs (a)
 and (c) of the Commercial Computer Software - Restricted
 Rights clause in FAR 52.227-19.
  
 Gaussian, Inc.
 340 Quinnipiac St., Bldg. 40, Wallingford CT 06492
  
  
 ---------------------------------------------------------------
 Warning -- This program may not be used in any manner that
 competes with the business of Gaussian, Inc. or will provide
 assistance to any competitor of Gaussian, Inc.  The licensee
 of this program is prohibited from giving any competitor of
 Gaussian, Inc. access to this program.  By using this program,
 the user acknowledges that Gaussian, Inc. is engaged in the
 business of creating and licensing software in the field of
 computational chemistry and represents and warrants to the
 licensee that it is not a competitor of Gaussian, Inc. and that
 it will not use this program in any manner prohibited above.
 ---------------------------------------------------------------
  

 Cite this work as:
 Gaussian 16, Revision C.01,
 M. J. Frisch, G. W. Trucks, H. B. Schlegel, G. E. Scuseria, 
 M. A. Robb, J. R. Cheeseman, G. Scalmani, V. Barone, 
 G. A. Petersson, H. Nakatsuji, X. Li, M. Caricato, A. V. Marenich, 
 J. Bloino, B. G. Janesko, R. Gomperts, B. Mennucci, H. P. Hratchian, 
 J. V. Ortiz, A. F. Izmaylov, J. L. Sonnenberg, D. Williams-Young, 
 F. Ding, F. Lipparini, F. Egidi, J. Goings, B. Peng, A. Petrone, 
 T. Henderson, D. Ranasinghe, V. G. Zakrzewski, J. Gao, N. Rega, 
 G. Zheng, W. Liang, M. Hada, M. Ehara, K. Toyota, R. Fukuda, 
 J. Hasegawa, M. Ishida, T. Nakajima, Y. Honda, O. Kitao, H. Nakai, 
 T. Vreven, K. Throssell, J. A. Montgomery, Jr., J. E. Peralta, 
 F. Ogliaro, M. J. Bearpark, J. J. Heyd, E. N. Brothers, K. N. Kudin, 
 V. N. Staroverov, T. A. Keith, R. Kobayashi, J. Normand, 
 K. Raghavachari, A. P. Rendell, J. C. Burant, S. S. Iyengar, 
 J. Tomasi, M. Cossi, J. M. Millam, M. Klene, C. Adamo, R. Cammi, 
 J. W. Ochterski, R. L. Martin, K. Morokuma, O. Farkas, 
 J. B. Foresman, and D. J. Fox, Gaussian, Inc., Wallingford CT, 2019.
 
 ******************************************
 Gaussian 16:  ES64L-G16RevC.01  3-Jul-2019
                 5-Aug-2026 
 ******************************************
 %chk=CH4.chk
 ----------------------------------------------
 # opt freq=hpmodes mp2/3-21g geom=connectivity
 ----------------------------------------------
 1/18=20,19=15,38=1,57=2/1,3;
 2/9=110,12=2,17=6,18=5,40=1/2;
 3/5=5,11=9,25=1,30=1,71=1/1,2,3;
 4//1;
 5/5=2,38=5/2;
 8/6=4,10=1/1;
 9/15=2,16=-3/6;
 10/5=1/2;
 6/7=2,8=2,9=2,10=2/1;
 7/12=2/1,2,3,16;
 1/18=20,19=15/3(2);
 2/9=110/2;
 99//99;
 2/9=110/2;
 3/5=5,11=9,25=1,30=1,71=1/1,2,3;
 4/5=5,16=3,69=1/1;
 5/5=2,38=5/2;
 8/6=4,10=1/1;
 9/15=2,16=-3/6;
 10/5=1/2;
 7/12=2/1,2,3,16;
 1/18=20,19=15/3(-8);
 2/9=110/2;
 6/7=2,8=2,9=2,10=2/1;
 99/9=10/99;
 -------------------
 Title Card Required
 -------------------
 Symbolic Z-matrix:
 Charge =  0 Multiplicity = 1
 C                     0.        0.        0. 
 H                     0.        0.        1.07 
 H                     0.       -1.00881  -0.35667 
 H                    -0.87365   0.5044   -0.35667 
 H                     0.87365   0.5044   -0.35667 
 

 GradGradGradGradGradGradGradGradGradGradGradGradGradGradGradGradGradGrad
 Berny optimization.
 Initialization pass.
                           ----------------------------
                           !    Initial Parameters    !
                           ! (Angstroms and Degrees)  !
 --------------------------                            --------------------------
 ! Name  Definition              Value          Derivative Info.                !
 --------------------------------------------------------------------------------
 ! R1    R(1,2)                  1.07           estimate D2E/DX2                !
 ! R2    R(1,3)                  1.07           estimate D2E/DX2                !
 ! R3    R(1,4)                  1.07           estimate D2E/DX2                !
 ! R4    R(1,5)                  1.07           estimate D2E/DX2                !
 ! A1    A(2,1,3)              109.4712         estimate D2E/DX2                !
 ! A2    A(2,1,4)              109.4712         estimate D2E/DX2                !
 ! A3    A(2,1,5)              109.4712         estimate D2E/DX2                !
 ! A4    A(3,1,4)              109.4712         estimate D2E/DX2                !
 ! A5    A(3,1,5)              109.4712         estimate D2E/DX2                !
 ! A6    A(4,1,5)              109.4712         estimate D2E/DX2                !
 ! D1    D(2,1,4,3)           -120.0            estimate D2E/DX2                !
 ! D2    D(2,1,5,3)            120.0            estimate D2E/DX2                !
 ! D3    D(2,1,5,4)           -120.0            estimate D2E/DX2                !
 ! D4    D(3,1,5,4)            120.0            estimate D2E/DX2                !
 --------------------------------------------------------------------------------
 Trust Radius=3.00D-01 FncErr=1.00D-07 GrdErr=1.00D-07 EigMax=2.50D+02 EigMin=1.00D-04
 Number of steps in this run=     24 maximum allowed number of steps=    100.
 GradGradGradGradGradGradGradGradGradGradGradGradGradGradGradGradGradGrad

                          Input orientation:                          
 ---------------------------------------------------------------------
 Center     Atomic      Atomic             Coordinates (Angstroms)
 Number     Number       Type             X           Y           Z
 ---------------------------------------------------------------------
      1          6           0        0.000000    0.000000    0.000000
      2          1           0        0.000000    0.000000    1.070000
      3          1           0        0.000000   -1.008806   -0.356667
      4          1           0       -0.873651    0.504403   -0.356667
      5          1           0        0.873651    0.504403   -0.356667
 ---------------------------------------------------------------------
                    Distance matrix (angstroms):
                    1          2          3          4          5
     1  C    0.000000
     2  H    1.070000   0.000000
     3  H    1.070000   1.747303   0.000000
     4  H    1.070000   1.747303   1.747303   0.000000
     5  H    1.070000   1.747303   1.747303   1.747303   0.000000
 Stoichiometry    CH4
 Framework group  TD[O(C),4C3(H)]
 Deg. of freedom     1
 Full point group                 TD      NOp  24
 Largest Abelian subgroup         D2      NOp   4
 Largest concise Abelian subgroup D2      NOp   4
                         Standard orientation:                         
 ---------------------------------------------------------------------
 Center     Atomic      Atomic             Coordinates (Angstroms)
 Number     Number       Type             X           Y           Z
 ---------------------------------------------------------------------
      1          6           0        0.000000    0.000000    0.000000
      2          1           0        0.617765    0.617765    0.617765
      3          1           0       -0.617765   -0.617765    0.617765
      4          1           0       -0.617765    0.617765   -0.617765
      5          1           0        0.617765   -0.617765   -0.617765
 ---------------------------------------------------------------------
 Rotational constants (GHZ):         164.2463784         164.2463784         164.2463784
 Standard basis: 3-21G (6D, 7F)
 There are     5 symmetry adapted cartesian basis functions of A   symmetry.
 There are     4 symmetry adapted cartesian basis functions of B1  symmetry.
 There are     4 symmetry adapted cartesian basis functions of B2  symmetry.
 There are     4 symmetry adapted cartesian basis functions of B3  symmetry.
 There are     5 symmetry adapted basis functions of A   symmetry.
 There are     4 symmetry adapted basis functions of B1  symmetry.
 There are     4 symmetry adapted basis functions of B2  symmetry.
 There are     4 symmetry adapted basis functions of B3  symmetry.
    17 basis functions,    27 primitive gaussians,    17 cartesian basis functions
     5 alpha electrons        5 beta electrons
       nuclear repulsion energy        13.6865185501 Hartrees.
 NAtoms=    5 NActive=    5 NUniq=    2 SFac= 4.00D+00 NAtFMM=   60 NAOKFM=F Big=F
 Integral buffers will be    131072 words long.
 Raffenetti 1 integral format.
 Two-electron integral symmetry is turned on.
 One-electron integrals computed using PRISM.
 NBasis=    17 RedAO= T EigKep=  3.16D-02  NBF=     5     4     4     4
 NBsUse=    17 1.00D-06 EigRej= -1.00D+00 NBFU=     5     4     4     4
 ExpMin= 1.83D-01 ExpMax= 1.72D+02 ExpMxC= 1.72D+02 IAcc=3 IRadAn=         5 AccDes= 0.00D+00
 Harris functional with IExCor=  205 and IRadAn=       5 diagonalized for initial guess.
 HarFok:  IExCor=  205 AccDes= 0.00D+00 IRadAn=         5 IDoV= 1 UseB2=F ITyADJ=14
 ICtDFT=  3500011 ScaDFX=  1.000000  1.000000  1.000000  1.000000
 FoFCou: FMM=F IPFlag=           0 FMFlag=      100000 FMFlg1=           0
         NFxFlg=           0 DoJE=T BraDBF=F KetDBF=T FulRan=T
         wScrn=  0.000000 ICntrl=       500 IOpCl=  0 I1Cent=   200000004 NGrid=           0
         NMat0=    1 NMatS0=      1 NMatT0=    0 NMatD0=    1 NMtDS0=    0 NMtDT0=    0
 Petite list used in FoFCou.
 Initial guess orbital symmetries:
       Occupied  (A1) (A1) (T2) (T2) (T2)
       Virtual   (A1) (T2) (T2) (T2) (T2) (T2) (T2) (A1) (T2) (T2)
                 (T2) (A1)
 The electronic state of the initial guess is 1-A1.
 Keep R1 ints in memory in symmetry-blocked form, NReq=817624.
 Requested convergence on RMS density matrix=1.00D-08 within 128 cycles.
 Requested convergence on MAX density matrix=1.00D-06.
 Requested convergence on             energy=1.00D-06.
 No special actions if energy rises.
 SCF Done:  E(RHF) =  -39.9764058485     A.U. after    8 cycles
            NFock=  8  Conv=0.25D-09     -V/T= 2.0003
 ExpMin= 1.83D-01 ExpMax= 1.72D+02 ExpMxC= 1.72D+02 IAcc=3 IRadAn=         5 AccDes= 0.00D+00
 HarFok:  IExCor=  205 AccDes= 0.00D+00 IRadAn=         5 IDoV=-2 UseB2=F ITyADJ=14
 ICtDFT= 12500011 ScaDFX=  1.000000  1.000000  1.000000  1.000000
 Range of M.O.s used for correlation:     2    17
 NBasis=    17 NAE=     5 NBE=     5 NFC=     1 NFV=     0
 NROrb=     16 NOA=     4 NOB=     4 NVA=    12 NVB=    12
 Fully direct method using O(ONN) memory.
 JobTyp=1 Pass  1:  I=   2 to   5 NPSUse=  1 ParTrn=F ParDer=F DoDerP=T.
 Spin components of T(2) and E(2):
     alpha-alpha T2 =       0.2819416993D-02 E2=     -0.7982757954D-02
     alpha-beta  T2 =       0.2874636909D-01 E2=     -0.8176909800D-01
     beta-beta   T2 =       0.2819416993D-02 E2=     -0.7982757954D-02
 ANorm=    0.1017047296D+01
 E2 =    -0.9773461391D-01 EUMP2 =    -0.40074140462390D+02
          IDoAtm=11111
          Differentiating once with respect to electric field.
                with respect to dipole field.
          Differentiating once with respect to nuclear coordinates.
 Keep R1 ints in memory in symmetry-blocked form, NReq=818414.
          There are     1 degrees of freedom in the 1st order CPHF.  IDoFFX=0 NUNeed=     1.
 LinEq1:  Iter=  0 NonCon=     1 RMS=4.41D-03 Max=1.43D-02 NDo=     1
 AX will form     1 AO Fock derivatives at one time.
 LinEq1:  Iter=  1 NonCon=     1 RMS=1.80D-03 Max=7.02D-03 NDo=     1
 LinEq1:  Iter=  2 NonCon=     1 RMS=1.35D-04 Max=4.40D-04 NDo=     1
 LinEq1:  Iter=  3 NonCon=     1 RMS=6.14D-06 Max=3.42D-05 NDo=     1
 LinEq1:  Iter=  4 NonCon=     1 RMS=3.38D-07 Max=1.49D-06 NDo=     1
 LinEq1:  Iter=  5 NonCon=     1 RMS=1.54D-08 Max=8.80D-08 NDo=     1
 LinEq1:  Iter=  6 NonCon=     1 RMS=3.45D-10 Max=1.83D-09 NDo=     1
 LinEq1:  Iter=  7 NonCon=     0 RMS=8.69D-12 Max=4.56D-11 NDo=     1
 Linear equations converged to 1.000D-10 1.000D-09 after     7 iterations.
 End of Minotr F.D. properties file   721 does not exist.
 End of Minotr F.D. properties file   722 does not exist.
 End of Minotr F.D. properties file   788 does not exist.

 **********************************************************************

            Population analysis using the SCF Density.

 **********************************************************************

 Orbital symmetries:
       Occupied  (A1) (A1) (T2) (T2) (T2)
       Virtual   (A1) (T2) (T2) (T2) (T2) (T2) (T2) (A1) (T2) (T2)
                 (T2) (A1)
 The electronic state is 1-A1.
 Alpha  occ. eigenvalues --  -11.13826  -0.95125  -0.54830  -0.54830  -0.54830
 Alpha virt. eigenvalues --    0.30001   0.35670   0.35670   0.35670   0.91538
 Alpha virt. eigenvalues --    0.91538   0.91538   1.35396   1.37170   1.37170
 Alpha virt. eigenvalues --    1.37170   1.96130
          Condensed to atoms (all electrons):
               1          2          3          4          5
     1  C    5.313108   0.372312   0.372312   0.372312   0.372312
     2  H    0.372312   0.505758  -0.026219  -0.026219  -0.026219
     3  H    0.372312  -0.026219   0.505758  -0.026219  -0.026219
     4  H    0.372312  -0.026219  -0.026219   0.505758  -0.026219
     5  H    0.372312  -0.026219  -0.026219  -0.026219   0.505758
 Mulliken charges:
               1
     1  C   -0.802355
     2  H    0.200589
     3  H    0.200589
     4  H    0.200589
     5  H    0.200589
 Sum of Mulliken charges =  -0.00000
 Mulliken charges with hydrogens summed into heavy atoms:
               1
     1  C   -0.000000
 Electronic spatial extent (au):  <R**2>=             34.9949
 Charge=             -0.0000 electrons
 Dipole moment (field-independent basis, Debye):
    X=             -0.0000    Y=             -0.0000    Z=              0.0000  Tot=              0.0000
 Quadrupole moment (field-independent basis, Debye-Ang):
   XX=             -8.3575   YY=             -8.3575   ZZ=             -8.3575
   XY=              0.0000   XZ=             -0.0000   YZ=             -0.0000
 Traceless Quadrupole moment (field-independent basis, Debye-Ang):
   XX=             -0.0000   YY=              0.0000   ZZ=              0.0000
   XY=              0.0000   XZ=             -0.0000   YZ=             -0.0000
 Octapole moment (field-independent basis, Debye-Ang**2):
  XXX=             -0.0000  YYY=             -0.0000  ZZZ=              0.0000  XYY=              0.0000
  XXY=             -0.0000  XXZ=             -0.0000  XZZ=             -0.0000  YZZ=             -0.0000
  YYZ=             -0.0000  XYZ=              0.6836
 Hexadecapole moment (field-independent basis, Debye-Ang**3):
 XXXX=            -15.0377 YYYY=            -15.0377 ZZZZ=            -15.0377 XXXY=             -0.0000
 XXXZ=             -0.0000 YYYX=             -0.0000 YYYZ=             -0.0000 ZZZX=             -0.0000
 ZZZY=             -0.0000 XXYY=             -4.5929 XXZZ=             -4.5929 YYZZ=             -4.5929
 XXYZ=             -0.0000 YYXZ=             -0.0000 ZZXY=             -0.0000
 N-N= 1.368651855011D+01 E-N=-1.198200651192D+02  KE= 3.996302502086D+01
 Symmetry A    KE= 3.424875328209D+01
 Symmetry B1   KE= 1.904757246256D+00
 Symmetry B2   KE= 1.904757246256D+00
 Symmetry B3   KE= 1.904757246256D+00
 Calling FoFJK, ICntrl=  10002127 FMM=F ISym2X=1 I1Cent= 0 IOpClX= 0 NMat=1 NMatS=1 NMatT=0.
 ***** Axes restored to original set *****
 -------------------------------------------------------------------
 Center     Atomic                   Forces (Hartrees/Bohr)
 Number     Number              X              Y              Z
 -------------------------------------------------------------------
      1        6           0.000000000   -0.000000000   -0.000000000
      2        1          -0.000000000   -0.000000000    0.016488978
      3        1          -0.000000000   -0.015545958   -0.005496326
      4        1          -0.013463194    0.007772979   -0.005496326
      5        1           0.013463194    0.007772979   -0.005496326
 -------------------------------------------------------------------
 Cartesian Forces:  Max     0.016488978 RMS     0.008514872

 GradGradGradGradGradGradGradGradGradGradGradGradGradGradGradGradGradGrad
 Berny optimization.
 FormGI is forming the generalized inverse of G from B-inverse, IUseBI=4.
 Internal  Forces:  Max     0.016488978 RMS     0.008813729
 Search for a local minimum.
 Step number   1 out of a maximum of   24
 All quantities printed in internal units (Hartrees-Bohrs-Radians)
 Mixed Optimization -- RFO/linear search
 Second derivative matrix not updated -- first step.
 The second derivative matrix:
                          R1        R2        R3        R4        A1
           R1           0.37230
           R2           0.00000   0.37230
           R3           0.00000   0.00000   0.37230
           R4           0.00000   0.00000   0.00000   0.37230
           A1           0.00000   0.00000   0.00000   0.00000   0.16000
           A2           0.00000   0.00000   0.00000   0.00000   0.00000
           A3           0.00000   0.00000   0.00000   0.00000   0.00000
           A4           0.00000   0.00000   0.00000   0.00000   0.00000
           A5           0.00000   0.00000   0.00000   0.00000   0.00000
           A6           0.00000   0.00000   0.00000   0.00000   0.00000
           D1           0.00000   0.00000   0.00000   0.00000   0.00000
           D2           0.00000   0.00000   0.00000   0.00000   0.00000
           D3           0.00000   0.00000   0.00000   0.00000   0.00000
           D4           0.00000   0.00000   0.00000   0.00000   0.00000
                          A2        A3        A4        A5        A6
           A2           0.16000
           A3           0.00000   0.16000
           A4           0.00000   0.00000   0.16000
           A5           0.00000   0.00000   0.00000   0.16000
           A6           0.00000   0.00000   0.00000   0.00000   0.16000
           D1           0.00000   0.00000   0.00000   0.00000   0.00000
           D2           0.00000   0.00000   0.00000   0.00000   0.00000
           D3           0.00000   0.00000   0.00000   0.00000   0.00000
           D4           0.00000   0.00000   0.00000   0.00000   0.00000
                          D1        D2        D3        D4
           D1           0.00499
           D2           0.00000   0.00499
           D3           0.00000   0.00000   0.00499
           D4           0.00000   0.00000   0.00000   0.00499
 ITU=  0
     Eigenvalues ---    0.05269   0.05891   0.08766   0.16000   0.16000
     Eigenvalues ---    0.37230   0.37230   0.37230   0.37230
 RFO step:  Lambda=-2.89857951D-03 EMin= 5.26881007D-02
 Linear search not attempted -- first point.
 Iteration  1 RMS(Cart)=  0.02349077 RMS(Int)=  0.00000000
 Iteration  2 RMS(Cart)=  0.00000000 RMS(Int)=  0.00000000
 ClnCor:  largest displacement from symmetrization is 1.43D-14 for atom     3.
 Variable       Old X    -DE/DX   Delta X   Delta X   Delta X     New X
                                 (Linear)    (Quad)   (Total)
    R1        2.02201   0.01649   0.00000   0.04395   0.04395   2.06595
    R2        2.02201   0.01649   0.00000   0.04395   0.04395   2.06595
    R3        2.02201   0.01649   0.00000   0.04395   0.04395   2.06595
    R4        2.02201   0.01649   0.00000   0.04395   0.04395   2.06595
    A1        1.91063  -0.00000   0.00000  -0.00000  -0.00000   1.91063
    A2        1.91063   0.00000   0.00000   0.00000   0.00000   1.91063
    A3        1.91063   0.00000   0.00000   0.00000   0.00000   1.91063
    A4        1.91063   0.00000   0.00000   0.00000   0.00000   1.91063
    A5        1.91063   0.00000   0.00000   0.00000   0.00000   1.91063
    A6        1.91063  -0.00000   0.00000  -0.00000   0.00000   1.91063
    D1       -2.09440   0.00000   0.00000   0.00000   0.00000  -2.09440
    D2        2.09440  -0.00000   0.00000  -0.00000   0.00000   2.09440
    D3       -2.09440   0.00000   0.00000   0.00000   0.00000  -2.09440
    D4        2.09440   0.00000   0.00000   0.00000   0.00000   2.09440
         Item               Value     Threshold  Converged?
 Maximum Force            0.016489     0.000450     NO 
 RMS     Force            0.008814     0.000300     NO 
 Maximum Displacement     0.043947     0.001800     NO 
 RMS     Displacement     0.023491     0.001200     NO 
 Predicted change in Energy=-1.460485D-03
 GradGradGradGradGradGradGradGradGradGradGradGradGradGradGradGradGradGrad

                          Input orientation:                          
 ---------------------------------------------------------------------
 Center     Atomic      Atomic             Coordinates (Angstroms)
 Number     Number       Type             X           Y           Z
 ---------------------------------------------------------------------
      1          6           0        0.000000    0.000000    0.000000
      2          1           0       -0.000000   -0.000000    1.093256
      3          1           0       -0.000000   -1.030731   -0.364419
      4          1           0       -0.892640    0.515366   -0.364419
      5          1           0        0.892640    0.515366   -0.364419
 ---------------------------------------------------------------------
                    Distance matrix (angstroms):
                    1          2          3          4          5
     1  C    0.000000
     2  H    1.093256   0.000000
     3  H    1.093256   1.785279   0.000000
     4  H    1.093256   1.785279   1.785279   0.000000
     5  H    1.093256   1.785279   1.785279   1.785279   0.000000
 Stoichiometry    CH4
 Framework group  TD[O(C),4C3(H)]
 Deg. of freedom     1
 Full point group                 TD      NOp  24
 Largest Abelian subgroup         D2      NOp   4
 Largest concise Abelian subgroup D2      NOp   4
                         Standard orientation:                         
 ---------------------------------------------------------------------
 Center     Atomic      Atomic             Coordinates (Angstroms)
 Number     Number       Type             X           Y           Z
 ---------------------------------------------------------------------
      1          6           0        0.000000    0.000000    0.000000
      2          1           0        0.631192    0.631192    0.631192
      3          1           0       -0.631192   -0.631192    0.631192
      4          1           0       -0.631192    0.631192   -0.631192
      5          1           0        0.631192   -0.631192   -0.631192
 ---------------------------------------------------------------------
 Rotational constants (GHZ):         157.3329655         157.3329655         157.3329655
 Standard basis: 3-21G (6D, 7F)
 There are     5 symmetry adapted cartesian basis functions of A   symmetry.
 There are     4 symmetry adapted cartesian basis functions of B1  symmetry.
 There are     4 symmetry adapted cartesian basis functions of B2  symmetry.
 There are     4 symmetry adapted cartesian basis functions of B3  symmetry.
 There are     5 symmetry adapted basis functions of A   symmetry.
 There are     4 symmetry adapted basis functions of B1  symmetry.
 There are     4 symmetry adapted basis functions of B2  symmetry.
 There are     4 symmetry adapted basis functions of B3  symmetry.
    17 basis functions,    27 primitive gaussians,    17 cartesian basis functions
     5 alpha electrons        5 beta electrons
       nuclear repulsion energy        13.3953773888 Hartrees.
 NAtoms=    5 NActive=    5 NUniq=    2 SFac= 4.00D+00 NAtFMM=   60 NAOKFM=F Big=F
 Integral buffers will be    131072 words long.
 Raffenetti 1 integral format.
 Two-electron integral symmetry is turned on.
 One-electron integrals computed using PRISM.
 NBasis=    17 RedAO= T EigKep=  3.41D-02  NBF=     5     4     4     4
 NBsUse=    17 1.00D-06 EigRej= -1.00D+00 NBFU=     5     4     4     4
 Initial guess from the checkpoint file:  "CH4.chk"
 B after Tr=    -0.000000    0.000000    0.000000
         Rot=    1.000000   -0.000000   -0.000000    0.000000 Ang=   0.00 deg.
 Initial guess orbital symmetries:
       Occupied  (A1) (A1) (T2) (T2) (T2)
       Virtual   (A1) (T2) (T2) (T2) (T2) (T2) (T2) (A1) (T2) (T2)
                 (T2) (A1)
 ExpMin= 1.83D-01 ExpMax= 1.72D+02 ExpMxC= 1.72D+02 IAcc=3 IRadAn=         5 AccDes= 0.00D+00
 Harris functional with IExCor=  205 and IRadAn=       5 diagonalized for initial guess.
 HarFok:  IExCor=  205 AccDes= 0.00D+00 IRadAn=         5 IDoV= 1 UseB2=F ITyADJ=14
 ICtDFT=  3500011 ScaDFX=  1.000000  1.000000  1.000000  1.000000
 FoFCou: FMM=F IPFlag=           0 FMFlag=      100000 FMFlg1=           0
         NFxFlg=           0 DoJE=T BraDBF=F KetDBF=T FulRan=T
         wScrn=  0.000000 ICntrl=       500 IOpCl=  0 I1Cent=   200000004 NGrid=           0
         NMat0=    1 NMatS0=      1 NMatT0=    0 NMatD0=    1 NMtDS0=    0 NMtDT0=    0
 Petite list used in FoFCou.
 Keep R1 ints in memory in symmetry-blocked form, NReq=817624.
 Requested convergence on RMS density matrix=1.00D-08 within 128 cycles.
 Requested convergence on MAX density matrix=1.00D-06.
 Requested convergence on             energy=1.00D-06.
 No special actions if energy rises.
 SCF Done:  E(RHF) =  -39.9765866414     A.U. after    8 cycles
            NFock=  8  Conv=0.41D-09     -V/T= 2.0037
 ExpMin= 1.83D-01 ExpMax= 1.72D+02 ExpMxC= 1.72D+02 IAcc=3 IRadAn=         5 AccDes= 0.00D+00
 HarFok:  IExCor=  205 AccDes= 0.00D+00 IRadAn=         5 IDoV=-2 UseB2=F ITyADJ=14
 ICtDFT= 12500011 ScaDFX=  1.000000  1.000000  1.000000  1.000000
 Range of M.O.s used for correlation:     2    17
 NBasis=    17 NAE=     5 NBE=     5 NFC=     1 NFV=     0
 NROrb=     16 NOA=     4 NOB=     4 NVA=    12 NVB=    12
 Fully direct method using O(ONN) memory.
 JobTyp=1 Pass  1:  I=   2 to   5 NPSUse=  1 ParTrn=F ParDer=F DoDerP=T.
 Spin components of T(2) and E(2):
     alpha-alpha T2 =       0.2866341333D-02 E2=     -0.8021173044D-02
     alpha-beta  T2 =       0.2977143314D-01 E2=     -0.8288274265D-01
     beta-beta   T2 =       0.2866341333D-02 E2=     -0.8021173044D-02
 ANorm=    0.1017597227D+01
 E2 =    -0.9892508874D-01 EUMP2 =    -0.40075511730158D+02
          IDoAtm=11111
          Differentiating once with respect to electric field.
                with respect to dipole field.
          Differentiating once with respect to nuclear coordinates.
 Keep R1 ints in memory in symmetry-blocked form, NReq=818414.
          There are     1 degrees of freedom in the 1st order CPHF.  IDoFFX=0 NUNeed=     1.
 LinEq1:  Iter=  0 NonCon=     1 RMS=4.77D-03 Max=1.45D-02 NDo=     1
 AX will form     1 AO Fock derivatives at one time.
 LinEq1:  Iter=  1 NonCon=     1 RMS=2.01D-03 Max=7.92D-03 NDo=     1
 LinEq1:  Iter=  2 NonCon=     1 RMS=1.36D-04 Max=4.43D-04 NDo=     1
 LinEq1:  Iter=  3 NonCon=     1 RMS=6.75D-06 Max=3.64D-05 NDo=     1
 LinEq1:  Iter=  4 NonCon=     1 RMS=3.62D-07 Max=1.62D-06 NDo=     1
 LinEq1:  Iter=  5 NonCon=     1 RMS=1.60D-08 Max=9.16D-08 NDo=     1
 LinEq1:  Iter=  6 NonCon=     1 RMS=3.62D-10 Max=1.95D-09 NDo=     1
 LinEq1:  Iter=  7 NonCon=     0 RMS=8.32D-12 Max=4.23D-11 NDo=     1
 Linear equations converged to 1.000D-10 1.000D-09 after     7 iterations.
 End of Minotr F.D. properties file   721 does not exist.
 End of Minotr F.D. properties file   722 does not exist.
 End of Minotr F.D. properties file   788 does not exist.
 Calling FoFJK, ICntrl=  10002127 FMM=F ISym2X=1 I1Cent= 0 IOpClX= 0 NMat=1 NMatS=1 NMatT=0.
 ***** Axes restored to original set *****
 -------------------------------------------------------------------
 Center     Atomic                   Forces (Hartrees/Bohr)
 Number     Number              X              Y              Z
 -------------------------------------------------------------------
      1        6           0.000000000    0.000000000   -0.000000000
      2        1           0.000000000    0.000000000   -0.000513164
      3        1           0.000000000    0.000483816    0.000171055
      4        1           0.000418997   -0.000241908    0.000171055
      5        1          -0.000418997   -0.000241908    0.000171055
 -------------------------------------------------------------------
 Cartesian Forces:  Max     0.000513164 RMS     0.000264997

 GradGradGradGradGradGradGradGradGradGradGradGradGradGradGradGradGradGrad
 Berny optimization.
 Using GEDIIS/GDIIS optimizer.
 FormGI is forming the generalized inverse of G from B-inverse, IUseBI=4.
 Internal  Forces:  Max     0.000513164 RMS     0.000274298
 Search for a local minimum.
 Step number   2 out of a maximum of   24
 All quantities printed in internal units (Hartrees-Bohrs-Radians)
 Mixed Optimization -- En-DIIS/RFO-DIIS
 Update second derivatives using D2CorX and points    1    2
 DE= -1.37D-03 DEPred=-1.46D-03 R= 9.39D-01
 TightC=F SS=  1.41D+00  RLast= 8.79D-02 DXNew= 5.0454D-01 2.6368D-01
 Trust test= 9.39D-01 RLast= 8.79D-02 DXMaxT set to 3.00D-01
 The second derivative matrix:
                          R1        R2        R3        R4        A1
           R1           0.37594
           R2           0.00364   0.37594
           R3           0.00364   0.00364   0.37594
           R4           0.00364   0.00364   0.00364   0.37594
           A1          -0.00000  -0.00000  -0.00000  -0.00000   0.16000
           A2           0.00000   0.00000   0.00000   0.00000  -0.00000
           A3           0.00000   0.00000   0.00000   0.00000  -0.00000
           A4          -0.00000  -0.00000  -0.00000  -0.00000  -0.00000
           A5           0.00000   0.00000   0.00000   0.00000  -0.00000
           A6          -0.00000  -0.00000  -0.00000  -0.00000   0.00000
           D1           0.00000   0.00000   0.00000   0.00000  -0.00000
           D2           0.00000   0.00000   0.00000   0.00000  -0.00000
           D3          -0.00000  -0.00000  -0.00000  -0.00000   0.00000
           D4          -0.00000  -0.00000  -0.00000  -0.00000   0.00000
                          A2        A3        A4        A5        A6
           A2           0.16000
           A3           0.00000   0.16000
           A4           0.00000   0.00000   0.16000
           A5           0.00000   0.00000   0.00000   0.16000
           A6          -0.00000  -0.00000  -0.00000  -0.00000   0.16000
           D1           0.00000   0.00000   0.00000   0.00000  -0.00000
           D2           0.00000   0.00000   0.00000   0.00000  -0.00000
           D3          -0.00000  -0.00000  -0.00000  -0.00000   0.00000
           D4          -0.00000  -0.00000  -0.00000  -0.00000   0.00000
                          D1        D2        D3        D4
           D1           0.00499
           D2           0.00000   0.00499
           D3          -0.00000  -0.00000   0.00499
           D4          -0.00000  -0.00000   0.00000   0.00499
 ITU=  1  0
 Use linear search instead of GDIIS.
     Eigenvalues ---    0.05269   0.05891   0.08766   0.16000   0.16000
     Eigenvalues ---    0.37230   0.37230   0.37230   0.38688
 RFO step:  Lambda= 0.00000000D+00 EMin= 5.26881007D-02
 Quartic linear search produced a step of -0.03222.
 Iteration  1 RMS(Cart)=  0.00075691 RMS(Int)=  0.00000000
 Iteration  2 RMS(Cart)=  0.00000000 RMS(Int)=  0.00000000
 ClnCor:  largest displacement from symmetrization is 1.55D-14 for atom     3.
 Variable       Old X    -DE/DX   Delta X   Delta X   Delta X     New X
                                 (Linear)    (Quad)   (Total)
    R1        2.06595  -0.00051  -0.00142  -0.00000  -0.00142   2.06454
    R2        2.06595  -0.00051  -0.00142   0.00000  -0.00142   2.06454
    R3        2.06595  -0.00051  -0.00142   0.00000  -0.00142   2.06454
    R4        2.06595  -0.00051  -0.00142  -0.00000  -0.00142   2.06454
    A1        1.91063  -0.00000   0.00000  -0.00000  -0.00000   1.91063
    A2        1.91063   0.00000   0.00000  -0.00000   0.00000   1.91063
    A3        1.91063  -0.00000  -0.00000  -0.00000   0.00000   1.91063
    A4        1.91063   0.00000  -0.00000   0.00000   0.00000   1.91063
    A5        1.91063   0.00000   0.00000   0.00000  -0.00000   1.91063
    A6        1.91063  -0.00000   0.00000  -0.00000   0.00000   1.91063
    D1       -2.09440  -0.00000   0.00000   0.00000   0.00000  -2.09440
    D2        2.09440  -0.00000   0.00000  -0.00000  -0.00000   2.09440
    D3       -2.09440   0.00000  -0.00000   0.00000   0.00000  -2.09440
    D4        2.09440   0.00000  -0.00000   0.00000   0.00000   2.09440
         Item               Value     Threshold  Converged?
 Maximum Force            0.000513     0.000450     NO 
 RMS     Force            0.000274     0.000300     YES
 Maximum Displacement     0.001416     0.001800     YES
 RMS     Displacement     0.000757     0.001200     YES
 Predicted change in Energy=-1.355138D-06
 GradGradGradGradGradGradGradGradGradGradGradGradGradGradGradGradGradGrad

                          Input orientation:                          
 ---------------------------------------------------------------------
 Center     Atomic      Atomic             Coordinates (Angstroms)
 Number     Number       Type             X           Y           Z
 ---------------------------------------------------------------------
      1          6           0       -0.000000    0.000000    0.000000
      2          1           0       -0.000000   -0.000000    1.092506
      3          1           0        0.000000   -1.030025   -0.364169
      4          1           0       -0.892028    0.515012   -0.364169
      5          1           0        0.892028    0.515012   -0.364169
 ---------------------------------------------------------------------
                    Distance matrix (angstroms):
                    1          2          3          4          5
     1  C    0.000000
     2  H    1.092506   0.000000
     3  H    1.092506   1.784056   0.000000
     4  H    1.092506   1.784056   1.784056   0.000000
     5  H    1.092506   1.784056   1.784056   1.784056   0.000000
 Stoichiometry    CH4
 Framework group  TD[O(C),4C3(H)]
 Deg. of freedom     1
 Full point group                 TD      NOp  24
 Largest Abelian subgroup         D2      NOp   4
 Largest concise Abelian subgroup D2      NOp   4
                         Standard orientation:                         
 ---------------------------------------------------------------------
 Center     Atomic      Atomic             Coordinates (Angstroms)
 Number     Number       Type             X           Y           Z
 ---------------------------------------------------------------------
      1          6           0        0.000000    0.000000    0.000000
      2          1           0        0.630759    0.630759    0.630759
      3          1           0       -0.630759   -0.630759    0.630759
      4          1           0       -0.630759    0.630759   -0.630759
      5          1           0        0.630759   -0.630759   -0.630759
 ---------------------------------------------------------------------
 Rotational constants (GHZ):         157.5488671         157.5488671         157.5488671
 Standard basis: 3-21G (6D, 7F)
 There are     5 symmetry adapted cartesian basis functions of A   symmetry.
 There are     4 symmetry adapted cartesian basis functions of B1  symmetry.
 There are     4 symmetry adapted cartesian basis functions of B2  symmetry.
 There are     4 symmetry adapted cartesian basis functions of B3  symmetry.
 There are     5 symmetry adapted basis functions of A   symmetry.
 There are     4 symmetry adapted basis functions of B1  symmetry.
 There are     4 symmetry adapted basis functions of B2  symmetry.
 There are     4 symmetry adapted basis functions of B3  symmetry.
    17 basis functions,    27 primitive gaussians,    17 cartesian basis functions
     5 alpha electrons        5 beta electrons
       nuclear repulsion energy        13.4045652051 Hartrees.
 NAtoms=    5 NActive=    5 NUniq=    2 SFac= 4.00D+00 NAtFMM=   60 NAOKFM=F Big=F
 Integral buffers will be    131072 words long.
 Raffenetti 1 integral format.
 Two-electron integral symmetry is turned on.
 One-electron integrals computed using PRISM.
 NBasis=    17 RedAO= T EigKep=  3.40D-02  NBF=     5     4     4     4
 NBsUse=    17 1.00D-06 EigRej= -1.00D+00 NBFU=     5     4     4     4
 Initial guess from the checkpoint file:  "CH4.chk"
 B after Tr=     0.000000    0.000000   -0.000000
         Rot=    1.000000    0.000000   -0.000000   -0.000000 Ang=   0.00 deg.
 Initial guess orbital symmetries:
       Occupied  (A1) (A1) (T2) (T2) (T2)
       Virtual   (A1) (T2) (T2) (T2) (T2) (T2) (T2) (A1) (T2) (T2)
                 (T2) (A1)
 Keep R1 ints in memory in symmetry-blocked form, NReq=817624.
 Requested convergence on RMS density matrix=1.00D-08 within 128 cycles.
 Requested convergence on MAX density matrix=1.00D-06.
 Requested convergence on             energy=1.00D-06.
 No special actions if energy rises.
 SCF Done:  E(RHF) =  -39.9766268770     A.U. after    6 cycles
            NFock=  6  Conv=0.25D-08     -V/T= 2.0036
 ExpMin= 1.83D-01 ExpMax= 1.72D+02 ExpMxC= 1.72D+02 IAcc=3 IRadAn=         5 AccDes= 0.00D+00
 HarFok:  IExCor=  205 AccDes= 0.00D+00 IRadAn=         5 IDoV=-2 UseB2=F ITyADJ=14
 ICtDFT= 12500011 ScaDFX=  1.000000  1.000000  1.000000  1.000000
 Range of M.O.s used for correlation:     2    17
 NBasis=    17 NAE=     5 NBE=     5 NFC=     1 NFV=     0
 NROrb=     16 NOA=     4 NOB=     4 NVA=    12 NVB=    12
 Fully direct method using O(ONN) memory.
 JobTyp=1 Pass  1:  I=   2 to   5 NPSUse=  1 ParTrn=F ParDer=F DoDerP=T.
 Spin components of T(2) and E(2):
     alpha-alpha T2 =       0.2864812010D-02 E2=     -0.8019946456D-02
     alpha-beta  T2 =       0.2973752847D-01 E2=     -0.8284641399D-01
     beta-beta   T2 =       0.2864812010D-02 E2=     -0.8019946456D-02
 ANorm=    0.1017579064D+01
 E2 =    -0.9888630691D-01 EUMP2 =    -0.40075513183906D+02
          IDoAtm=11111
          Differentiating once with respect to electric field.
                with respect to dipole field.
          Differentiating once with respect to nuclear coordinates.
 Keep R1 ints in memory in symmetry-blocked form, NReq=818414.
          There are     1 degrees of freedom in the 1st order CPHF.  IDoFFX=0 NUNeed=     1.
 LinEq1:  Iter=  0 NonCon=     1 RMS=4.76D-03 Max=1.45D-02 NDo=     1
 AX will form     1 AO Fock derivatives at one time.
 LinEq1:  Iter=  1 NonCon=     1 RMS=2.01D-03 Max=7.89D-03 NDo=     1
 LinEq1:  Iter=  2 NonCon=     1 RMS=1.36D-04 Max=4.40D-04 NDo=     1
 LinEq1:  Iter=  3 NonCon=     1 RMS=6.73D-06 Max=3.63D-05 NDo=     1
 LinEq1:  Iter=  4 NonCon=     1 RMS=3.61D-07 Max=1.62D-06 NDo=     1
 LinEq1:  Iter=  5 NonCon=     1 RMS=1.60D-08 Max=9.15D-08 NDo=     1
 LinEq1:  Iter=  6 NonCon=     1 RMS=3.62D-10 Max=1.95D-09 NDo=     1
 LinEq1:  Iter=  7 NonCon=     0 RMS=8.34D-12 Max=4.24D-11 NDo=     1
 Linear equations converged to 1.000D-10 1.000D-09 after     7 iterations.
 End of Minotr F.D. properties file   721 does not exist.
 End of Minotr F.D. properties file   722 does not exist.
 End of Minotr F.D. properties file   788 does not exist.
 Calling FoFJK, ICntrl=  10002127 FMM=F ISym2X=1 I1Cent= 0 IOpClX= 0 NMat=1 NMatS=1 NMatT=0.
 ***** Axes restored to original set *****
 -------------------------------------------------------------------
 Center     Atomic                   Forces (Hartrees/Bohr)
 Number     Number              X              Y              Z
 -------------------------------------------------------------------
      1        6           0.000000000    0.000000000   -0.000000000
      2        1          -0.000000000   -0.000000000    0.000000220
      3        1          -0.000000000   -0.000000208   -0.000000073
      4        1          -0.000000180    0.000000104   -0.000000073
      5        1           0.000000180    0.000000104   -0.000000073
 -------------------------------------------------------------------
 Cartesian Forces:  Max     0.000000220 RMS     0.000000114

 GradGradGradGradGradGradGradGradGradGradGradGradGradGradGradGradGradGrad
 Berny optimization.
 Using GEDIIS/GDIIS optimizer.
 FormGI is forming the generalized inverse of G from B-inverse, IUseBI=4.
 Internal  Forces:  Max     0.000000220 RMS     0.000000118
 Search for a local minimum.
 Step number   3 out of a maximum of   24
 All quantities printed in internal units (Hartrees-Bohrs-Radians)
 Mixed Optimization -- En-DIIS/RFO-DIIS
 Swapping is turned off.
 Update second derivatives using D2CorX and points    1    2    3
 DE= -1.45D-06 DEPred=-1.36D-06 R= 1.07D+00
 TightC=F SS=  1.41D+00  RLast= 2.83D-03 DXNew= 5.0454D-01 8.4963D-03
 Trust test= 1.07D+00 RLast= 2.83D-03 DXMaxT set to 3.00D-01
 The second derivative matrix:
                          R1        R2        R3        R4        A1
           R1           0.36986
           R2          -0.00244   0.36986
           R3          -0.00244  -0.00244   0.36986
           R4          -0.00244  -0.00244  -0.00244   0.36986
           A1           0.00000   0.00000   0.00000   0.00000   0.16000
           A2          -0.00000  -0.00000  -0.00000  -0.00000  -0.00000
           A3           0.00000   0.00000   0.00000   0.00000   0.00000
           A4          -0.00000  -0.00000  -0.00000  -0.00000  -0.00000
           A5          -0.00000  -0.00000  -0.00000  -0.00000  -0.00000
           A6           0.00000   0.00000   0.00000   0.00000   0.00000
           D1           0.00000   0.00000   0.00000   0.00000   0.00000
           D2           0.00000   0.00000   0.00000   0.00000   0.00000
           D3           0.00000   0.00000   0.00000   0.00000   0.00000
           D4          -0.00000  -0.00000  -0.00000  -0.00000  -0.00000
                          A2        A3        A4        A5        A6
           A2           0.16000
           A3          -0.00000   0.16000
           A4           0.00000  -0.00000   0.16000
           A5           0.00000  -0.00000   0.00000   0.16000
           A6          -0.00000   0.00000  -0.00000  -0.00000   0.16000
           D1          -0.00000   0.00000  -0.00000  -0.00000   0.00000
           D2          -0.00000   0.00000  -0.00000  -0.00000   0.00000
           D3          -0.00000   0.00000  -0.00000  -0.00000   0.00000
           D4           0.00000  -0.00000   0.00000   0.00000  -0.00000
                          D1        D2        D3        D4
           D1           0.00499
           D2           0.00000   0.00499
           D3           0.00000   0.00000   0.00499
           D4          -0.00000  -0.00000  -0.00000   0.00499
 ITU=  1  1  0
     Eigenvalues ---    0.05269   0.05891   0.08766   0.16000   0.16000
     Eigenvalues ---    0.36255   0.37230   0.37230   0.37230
 En-DIIS/RFO-DIIS/Sim-DIIS IScMMF=       -3 using points:     3    2
 RFO step:  Lambda= 0.00000000D+00.
 DidBck=F Rises=F RFO-DIIS coefs:    0.99957    0.00043
 Iteration  1 RMS(Cart)=  0.00000032 RMS(Int)=  0.00000000
 ClnCor:  largest displacement from symmetrization is 4.68D-14 for atom     3.
 Variable       Old X    -DE/DX   Delta X   Delta X   Delta X     New X
                                 (Linear)    (Quad)   (Total)
    R1        2.06454   0.00000   0.00000  -0.00000   0.00000   2.06454
    R2        2.06454   0.00000   0.00000   0.00000   0.00000   2.06454
    R3        2.06454   0.00000   0.00000  -0.00000   0.00000   2.06454
    R4        2.06454   0.00000   0.00000   0.00000   0.00000   2.06454
    A1        1.91063  -0.00000  -0.00000  -0.00000   0.00000   1.91063
    A2        1.91063  -0.00000  -0.00000  -0.00000   0.00000   1.91063
    A3        1.91063   0.00000  -0.00000   0.00000   0.00000   1.91063
    A4        1.91063   0.00000  -0.00000   0.00000   0.00000   1.91063
    A5        1.91063  -0.00000  -0.00000   0.00000   0.00000   1.91063
    A6        1.91063   0.00000  -0.00000   0.00000   0.00000   1.91063
    D1       -2.09440   0.00000   0.00000   0.00000   0.00000  -2.09440
    D2        2.09440  -0.00000   0.00000  -0.00000   0.00000   2.09440
    D3       -2.09440   0.00000   0.00000   0.00000   0.00000  -2.09440
    D4        2.09440   0.00000   0.00000   0.00000  -0.00000   2.09440
         Item               Value     Threshold  Converged?
 Maximum Force            0.000000     0.000450     YES
 RMS     Force            0.000000     0.000300     YES
 Maximum Displacement     0.000001     0.001800     YES
 RMS     Displacement     0.000000     0.001200     YES
 Predicted change in Energy=-2.675610D-13
 Optimization completed.
    -- Stationary point found.
                           ----------------------------
                           !   Optimized Parameters   !
                           ! (Angstroms and Degrees)  !
 --------------------------                            --------------------------
 ! Name  Definition              Value          Derivative Info.                !
 --------------------------------------------------------------------------------
 ! R1    R(1,2)                  1.0925         -DE/DX =    0.0                 !
 ! R2    R(1,3)                  1.0925         -DE/DX =    0.0                 !
 ! R3    R(1,4)                  1.0925         -DE/DX =    0.0                 !
 ! R4    R(1,5)                  1.0925         -DE/DX =    0.0                 !
 ! A1    A(2,1,3)              109.4712         -DE/DX =    0.0                 !
 ! A2    A(2,1,4)              109.4712         -DE/DX =    0.0                 !
 ! A3    A(2,1,5)              109.4712         -DE/DX =    0.0                 !
 ! A4    A(3,1,4)              109.4712         -DE/DX =    0.0                 !
 ! A5    A(3,1,5)              109.4712         -DE/DX =    0.0                 !
 ! A6    A(4,1,5)              109.4712         -DE/DX =    0.0                 !
 ! D1    D(2,1,4,3)           -120.0            -DE/DX =    0.0                 !
 ! D2    D(2,1,5,3)            120.0            -DE/DX =    0.0                 !
 ! D3    D(2,1,5,4)           -120.0            -DE/DX =    0.0                 !
 ! D4    D(3,1,5,4)            120.0            -DE/DX =    0.0                 !
 --------------------------------------------------------------------------------
 GradGradGradGradGradGradGradGradGradGradGradGradGradGradGradGradGradGrad

                          Input orientation:                          
 ---------------------------------------------------------------------
 Center     Atomic      Atomic             Coordinates (Angstroms)
 Number     Number       Type             X           Y           Z
 ---------------------------------------------------------------------
      1          6           0       -0.000000    0.000000    0.000000
      2          1           0       -0.000000   -0.000000    1.092506
      3          1           0       -0.000000   -1.030025   -0.364169
      4          1           0       -0.892028    0.515012   -0.364169
      5          1           0        0.892028    0.515012   -0.364169
 ---------------------------------------------------------------------
                    Distance matrix (angstroms):
                    1          2          3          4          5
     1  C    0.000000
     2  H    1.092506   0.000000
     3  H    1.092506   1.784056   0.000000
     4  H    1.092506   1.784056   1.784056   0.000000
     5  H    1.092506   1.784056   1.784056   1.784056   0.000000
 Stoichiometry    CH4
 Framework group  TD[O(C),4C3(H)]
 Deg. of freedom     1
 Full point group                 TD      NOp  24
 Largest Abelian subgroup         D2      NOp   4
 Largest concise Abelian subgroup D2      NOp   4
                         Standard orientation:                         
 ---------------------------------------------------------------------
 Center     Atomic      Atomic             Coordinates (Angstroms)
 Number     Number       Type             X           Y           Z
 ---------------------------------------------------------------------
      1          6           0        0.000000    0.000000    0.000000
      2          1           0        0.630759    0.630759    0.630759
      3          1           0       -0.630759   -0.630759    0.630759
      4          1           0       -0.630759    0.630759   -0.630759
      5          1           0        0.630759   -0.630759   -0.630759
 ---------------------------------------------------------------------
 Rotational constants (GHZ):         157.5488671         157.5488671         157.5488671

 **********************************************************************

            Population analysis using the SCF Density.

 **********************************************************************

 Orbital symmetries:
       Occupied  (A1) (A1) (T2) (T2) (T2)
       Virtual   (A1) (T2) (T2) (T2) (T2) (T2) (T2) (A1) (T2) (T2)
                 (T2) (A1)
 The electronic state is 1-A1.
 Alpha  occ. eigenvalues --  -11.14905  -0.94194  -0.54228  -0.54228  -0.54228
 Alpha virt. eigenvalues --    0.29409   0.34949   0.34949   0.34949   0.92890
 Alpha virt. eigenvalues --    0.92890   0.92890   1.31849   1.34979   1.34979
 Alpha virt. eigenvalues --    1.34979   1.95173
          Condensed to atoms (all electrons):
               1          2          3          4          5
     1  C    5.308656   0.369735   0.369735   0.369735   0.369735
     2  H    0.369735   0.509437  -0.025357  -0.025357  -0.025357
     3  H    0.369735  -0.025357   0.509437  -0.025357  -0.025357
     4  H    0.369735  -0.025357  -0.025357   0.509437  -0.025357
     5  H    0.369735  -0.025357  -0.025357  -0.025357   0.509437
 Mulliken charges:
               1
     1  C   -0.787595
     2  H    0.196899
     3  H    0.196899
     4  H    0.196899
     5  H    0.196899
 Sum of Mulliken charges =   0.00000
 Mulliken charges with hydrogens summed into heavy atoms:
               1
     1  C    0.000000
 Electronic spatial extent (au):  <R**2>=             35.8409
 Charge=             -0.0000 electrons
 Dipole moment (field-independent basis, Debye):
    X=              0.0000    Y=              0.0000    Z=              0.0000  Tot=              0.0000
 Quadrupole moment (field-independent basis, Debye-Ang):
   XX=             -8.4251   YY=             -8.4251   ZZ=             -8.4251
   XY=             -0.0000   XZ=             -0.0000   YZ=             -0.0000
 Traceless Quadrupole moment (field-independent basis, Debye-Ang):
   XX=              0.0000   YY=              0.0000   ZZ=             -0.0000
   XY=             -0.0000   XZ=             -0.0000   YZ=             -0.0000
 Octapole moment (field-independent basis, Debye-Ang**2):
  XXX=              0.0000  YYY=              0.0000  ZZZ=              0.0000  XYY=             -0.0000
  XXY=             -0.0000  XXZ=              0.0000  XZZ=              0.0000  YZZ=              0.0000
  YYZ=              0.0000  XYZ=              0.7485
 Hexadecapole moment (field-independent basis, Debye-Ang**3):
 XXXX=            -15.5634 YYYY=            -15.5634 ZZZZ=            -15.5634 XXXY=             -0.0000
 XXXZ=             -0.0000 YYYX=             -0.0000 YYYZ=             -0.0000 ZZZX=             -0.0000
 ZZZY=              0.0000 XXYY=             -4.7249 XXZZ=             -4.7249 YYZZ=             -4.7249
 XXYZ=              0.0000 YYXZ=             -0.0000 ZZXY=              0.0000
 N-N= 1.340456520511D+01 E-N=-1.191601795236D+02  KE= 3.983347177029D+01
 Symmetry A    KE= 3.422358535791D+01
 Symmetry B1   KE= 1.869962137459D+00
 Symmetry B2   KE= 1.869962137459D+00
 Symmetry B3   KE= 1.869962137459D+00
 Unable to Open any file for archive entry.
 1\1\GINC-BS001\FOpt\RMP2-FC\3-21G\C1H4\PNATT\05-Aug-2026\0\\# opt freq
 =hpmodes mp2/3-21g geom=connectivity\\Title Card Required\\0,1\C,0.,0.
 000000001,0.000000001\H,-0.000000006,-0.0000000007,1.0925064765\H,0.,-
 1.0300249815,-0.3641688257\H,-0.8920277989,0.5150124948,-0.3641688282\
 H,0.8920278048,0.5150124914,-0.3641688185\\Version=ES64L-G16RevC.01\St
 ate=1-A1\HF=-39.9766269\MP2=-40.0755132\RMSD=2.474e-09\RMSF=1.137e-07\
 Dipole=0.,0.,0.\PG=TD [O(C1),4C3(H1)]\\@
 The archive entry for this job was punched.


 ERWIN WITH HIS PSI CAN DO
 CALCULATIONS QUITE A FEW.
 BUT ONE THING HAS NOT BEEN SEEN
 JUST WHAT DOES PSI REALLY MEAN.
 -- WALTER HUCKEL, TRANS. BY FELIX BLOCH
 Job cpu time:       0 days  0 hours  0 minutes  2.8 seconds.
 Elapsed time:       0 days  0 hours  0 minutes  2.6 seconds.
 File lengths (MBytes):  RWF=      6 Int=      0 D2E=      0 Chk=      1 Scr=      1
 Normal termination of Gaussian 16 at Wed Aug  5 14:59:22 2026.
 Link1:  Proceeding to internal job step number  2.
 -------------------------------------------------------------------
 #N Geom=AllCheck Guess=TCheck SCRF=Check GenChk RMP2(FC)/3-21G Freq
 -------------------------------------------------------------------
 1/10=4,29=7,30=1,38=1,40=1/1,3;
 2/12=2,40=1/2;
 3/5=5,11=1,14=-4,25=1,30=1,70=2,71=2,116=1,140=1/1,2,3;
 4/5=101/1;
 5/5=2,38=6,98=1/2;
 8/6=3,8=1,10=1,19=11,30=-1/1;
 9/15=3,16=-3/6;
 11/6=1,8=1,15=11,17=12,24=-1,27=1,28=-2,29=300,32=6,42=3/1,2,10;
 10/6=2,21=1/2;
 8/6=4,8=1,10=1,19=11,30=-1/11,4;
 10/5=1,20=4/2;
 11/12=2,14=11,16=1,17=2,28=-2,42=3,76=2/2,10,12;
 6/7=2,8=2,9=2,10=2/1;
 7/8=11,10=1,12=2,25=1,44=2/1,2,3,16;
 1/10=4,30=1/3;
 99//99;
 Structure from the checkpoint file:  "CH4.chk"
 -------------------
 Title Card Required
 -------------------
 Charge =  0 Multiplicity = 1
 Redundant internal coordinates found in file.  (old form).
 C,0,0.,0.000000001,0.000000001
 H,0,-0.000000006,-0.0000000007,1.0925064765
 H,0,0.,-1.0300249815,-0.3641688257
 H,0,-0.8920277989,0.5150124948,-0.3641688282
 H,0,0.8920278048,0.5150124914,-0.3641688185
 Recover connectivity data from disk.

 GradGradGradGradGradGradGradGradGradGradGradGradGradGradGradGradGradGrad
 Berny optimization.
 Initialization pass.
                           ----------------------------
                           !    Initial Parameters    !
                           ! (Angstroms and Degrees)  !
 --------------------------                            --------------------------
 ! Name  Definition              Value          Derivative Info.                !
 --------------------------------------------------------------------------------
 ! R1    R(1,2)                  1.0925         calculate D2E/DX2 analytically  !
 ! R2    R(1,3)                  1.0925         calculate D2E/DX2 analytically  !
 ! R3    R(1,4)                  1.0925         calculate D2E/DX2 analytically  !
 ! R4    R(1,5)                  1.0925         calculate D2E/DX2 analytically  !
 ! A1    A(2,1,3)              109.4712         calculate D2E/DX2 analytically  !
 ! A2    A(2,1,4)              109.4712         calculate D2E/DX2 analytically  !
 ! A3    A(2,1,5)              109.4712         calculate D2E/DX2 analytically  !
 ! A4    A(3,1,4)              109.4712         calculate D2E/DX2 analytically  !
 ! A5    A(3,1,5)              109.4712         calculate D2E/DX2 analytically  !
 ! A6    A(4,1,5)              109.4712         calculate D2E/DX2 analytically  !
 ! D1    D(2,1,4,3)           -120.0            calculate D2E/DX2 analytically  !
 ! D2    D(2,1,5,3)            120.0            calculate D2E/DX2 analytically  !
 ! D3    D(2,1,5,4)           -120.0            calculate D2E/DX2 analytically  !
 ! D4    D(3,1,5,4)            120.0            calculate D2E/DX2 analytically  !
 --------------------------------------------------------------------------------
 Trust Radius=3.00D-01 FncErr=1.00D-07 GrdErr=1.00D-07 EigMax=2.50D+02 EigMin=1.00D-04
 Number of steps in this run=      2 maximum allowed number of steps=      2.
 GradGradGradGradGradGradGradGradGradGradGradGradGradGradGradGradGradGrad

                          Input orientation:                          
 ---------------------------------------------------------------------
 Center     Atomic      Atomic             Coordinates (Angstroms)
 Number     Number       Type             X           Y           Z
 ---------------------------------------------------------------------
      1          6           0        0.000000    0.000000    0.000000
      2          1           0       -0.000000   -0.000000    1.092506
      3          1           0       -0.000000   -1.030025   -0.364169
      4          1           0       -0.892028    0.515012   -0.364169
      5          1           0        0.892028    0.515012   -0.364169
 ---------------------------------------------------------------------
                    Distance matrix (angstroms):
                    1          2          3          4          5
     1  C    0.000000
     2  H    1.092506   0.000000
     3  H    1.092506   1.784056   0.000000
     4  H    1.092506   1.784056   1.784056   0.000000
     5  H    1.092506   1.784056   1.784056   1.784056   0.000000
 Stoichiometry    CH4
 Framework group  TD[O(C),4C3(H)]
 Deg. of freedom     1
 Full point group                 TD      NOp  24
 Largest Abelian subgroup         D2      NOp   4
 Largest concise Abelian subgroup D2      NOp   4
                         Standard orientation:                         
 ---------------------------------------------------------------------
 Center     Atomic      Atomic             Coordinates (Angstroms)
 Number     Number       Type             X           Y           Z
 ---------------------------------------------------------------------
      1          6           0        0.000000    0.000000    0.000000
      2          1           0        0.630759    0.630759    0.630759
      3          1           0       -0.630759   -0.630759    0.630759
      4          1           0       -0.630759    0.630759   -0.630759
      5          1           0        0.630759   -0.630759   -0.630759
 ---------------------------------------------------------------------
 Rotational constants (GHZ):         157.5488671         157.5488671         157.5488671
 Standard basis: 3-21G (6D, 7F)
 There are     5 symmetry adapted cartesian basis functions of A   symmetry.
 There are     4 symmetry adapted cartesian basis functions of B1  symmetry.
 There are     4 symmetry adapted cartesian basis functions of B2  symmetry.
 There are     4 symmetry adapted cartesian basis functions of B3  symmetry.
 There are     5 symmetry adapted basis functions of A   symmetry.
 There are     4 symmetry adapted basis functions of B1  symmetry.
 There are     4 symmetry adapted basis functions of B2  symmetry.
 There are     4 symmetry adapted basis functions of B3  symmetry.
    17 basis functions,    27 primitive gaussians,    17 cartesian basis functions
     5 alpha electrons        5 beta electrons
       nuclear repulsion energy        13.4045652051 Hartrees.
 NAtoms=    5 NActive=    5 NUniq=    2 SFac= 4.00D+00 NAtFMM=   60 NAOKFM=F Big=F
 Integral buffers will be    131072 words long.
 Raffenetti 1 integral format.
 Two-electron integral symmetry is turned on.
 One-electron integrals computed using PRISM.
 NBasis=    17 RedAO= T EigKep=  3.40D-02  NBF=     5     4     4     4
 NBsUse=    17 1.00D-06 EigRej= -1.00D+00 NBFU=     5     4     4     4
 Initial guess from the checkpoint file:  "CH4.chk"
 B after Tr=     0.000000    0.000000    0.000000
         Rot=    1.000000   -0.000000    0.000000    0.000000 Ang=   0.00 deg.
 Initial guess orbital symmetries:
       Occupied  (A1) (A1) (T2) (T2) (T2)
       Virtual   (A1) (T2) (T2) (T2) (T2) (T2) (T2) (A1) (T2) (T2)
                 (T2) (A1)
 Keep R1 ints in memory in symmetry-blocked form, NReq=817624.
 Requested convergence on RMS density matrix=1.00D-08 within 128 cycles.
 Requested convergence on MAX density matrix=1.00D-06.
 Requested convergence on             energy=1.00D-06.
 No special actions if energy rises.
 SCF Done:  E(RHF) =  -39.9766268770     A.U. after    1 cycles
            NFock=  1  Conv=0.30D-09     -V/T= 2.0036
 ExpMin= 1.83D-01 ExpMax= 1.72D+02 ExpMxC= 1.72D+02 IAcc=3 IRadAn=         5 AccDes= 0.00D+00
 HarFok:  IExCor=  205 AccDes= 0.00D+00 IRadAn=         5 IDoV=-2 UseB2=F ITyADJ=14
 ICtDFT= 12500011 ScaDFX=  1.000000  1.000000  1.000000  1.000000
 Range of M.O.s used for correlation:     2    17
 NBasis=    17 NAE=     5 NBE=     5 NFC=     1 NFV=     0
 NROrb=     16 NOA=     4 NOB=     4 NVA=    12 NVB=    12
 Disk-based method using ON**2 memory for  4 occupieds at a time.
 Permanent disk used for amplitudes=        4260 words.
 Estimated scratch disk usage=      796273 words.
 Actual    scratch disk usage=      796273 words.
 JobTyp=1 Pass  1:  I=   2 to   5 NPSUse=  1 ParTrn=F ParDer=F DoDerP=T.
 (rs|ai) integrals will be sorted in core.
 Spin components of T(2) and E(2):
     alpha-alpha T2 =       0.2864812010D-02 E2=     -0.8019946459D-02
     alpha-beta  T2 =       0.2973752848D-01 E2=     -0.8284641401D-01
     beta-beta   T2 =       0.2864812010D-02 E2=     -0.8019946459D-02
 ANorm=    0.1017579064D+01
 E2 =    -0.9888630693D-01 EUMP2 =    -0.40075513183928D+02
 G2DrvN: will do     6 centers at a time, making    1 passes.
 Calling FoFCou, ICntrl=  3107 FMM=F I1Cent=   0 AccDes= 0.00D+00.
 End of G2Drv F.D. properties file   721 does not exist.
 End of G2Drv F.D. properties file   722 does not exist.
 End of G2Drv F.D. properties file   788 does not exist.
          IDoAtm=11111
          Differentiating once with respect to electric field.
                with respect to dipole field.
          Differentiating once with respect to nuclear coordinates.
 Keep R1 ints in memory in symmetry-blocked form, NReq=818330.
          There are    18 degrees of freedom in the 1st order CPHF.  IDoFFX=6 NUNeed=    18.
     15 vectors produced by pass  0 Test12= 3.33D-16 5.56D-09 XBig12= 2.44D+00 9.23D-01.
 AX will form    15 AO Fock derivatives at one time.
     15 vectors produced by pass  1 Test12= 3.33D-16 5.56D-09 XBig12= 4.83D-03 3.83D-02.
     15 vectors produced by pass  2 Test12= 3.33D-16 5.56D-09 XBig12= 6.14D-06 1.13D-03.
     10 vectors produced by pass  3 Test12= 3.33D-16 5.56D-09 XBig12= 1.43D-08 6.17D-05.
      1 vectors produced by pass  4 Test12= 3.33D-16 5.56D-09 XBig12= 1.41D-11 2.76D-06.
      1 vectors produced by pass  5 Test12= 3.33D-16 5.56D-09 XBig12= 2.36D-14 1.03D-07.
 InvSVY:  IOpt=1 It=  1 EMax= 8.88D-16
 Solved reduced A of dimension    57 with    15 vectors.
 End of Minotr F.D. properties file   721 does not exist.
 End of Minotr F.D. properties file   722 does not exist.
 End of Minotr F.D. properties file   788 does not exist.
 MDV=   104857600.
 Form MO integral derivatives with frozen-active canonical formalism.
 Discarding MO integrals.
 Reordered first order wavefunction length =         7200
 In DefCFB: NBatch=  1 ICI=  5 ICA= 12 LFMax= 12
            Large arrays: LIAPS=       69360 LIARS=       64260 words.
 Semi-Direct transformation.
 ModeAB=           4 MOrb=             5 LenV=     104732756
 LASXX=         8875 LTotXX=        8875 LenRXX=       19450
 LTotAB=       10575 MaxLAS=        7395 LenRXY=           0
 NonZer=       28325 LenScr=      785920 LnRSAI=        7395
 LnScr1=      785920 LExtra=           0 Total=      1598685
 MaxDsk=          -1 SrtSym=           T ITran=            4
 JobTyp=0 Pass  1:  I=   1 to   5.
 (rs|ai) integrals will be sorted in core.
 Spin components of T(2) and E(2):
     alpha-alpha T2 =       0.2864812010D-02 E2=     -0.8019946459D-02
     alpha-beta  T2 =       0.2973752848D-01 E2=     -0.8284641401D-01
     beta-beta   T2 =       0.2864812010D-02 E2=     -0.8019946459D-02
 ANorm=    0.1439074114D+01
 E2 =    -0.9888630693D-01 EUMP2 =    -0.40075513183928D+02
          IDoAtm=11111
          Differentiating once with respect to electric field.
                with respect to dipole field.
          Differentiating once with respect to nuclear coordinates.
          There are     1 degrees of freedom in the 1st order CPHF.  IDoFFX=0 NUNeed=     1.
 LinEq1:  Iter=  0 NonCon=     1 RMS=4.76D-03 Max=1.45D-02 NDo=     1
 LinEq1:  Iter=  1 NonCon=     1 RMS=2.01D-03 Max=7.89D-03 NDo=     1
 LinEq1:  Iter=  2 NonCon=     1 RMS=1.36D-04 Max=4.40D-04 NDo=     1
 LinEq1:  Iter=  3 NonCon=     1 RMS=6.73D-06 Max=3.63D-05 NDo=     1
 LinEq1:  Iter=  4 NonCon=     1 RMS=3.61D-07 Max=1.62D-06 NDo=     1
 LinEq1:  Iter=  5 NonCon=     1 RMS=1.60D-08 Max=9.15D-08 NDo=     1
 LinEq1:  Iter=  6 NonCon=     1 RMS=3.62D-10 Max=1.95D-09 NDo=     1
 LinEq1:  Iter=  7 NonCon=     0 RMS=8.34D-12 Max=4.24D-11 NDo=     1
 Linear equations converged to 1.000D-10 1.000D-09 after     7 iterations.
 End of Minotr F.D. properties file   721 does not exist.
 End of Minotr F.D. properties file   722 does not exist.
 End of Minotr F.D. properties file   788 does not exist.
 Symmetrizing basis deriv contribution to polar:
 IMax=3 JMax=2 DiffMx= 0.00D+00
 G2DrvN: will do     6 centers at a time, making    1 passes.
 Calling FoFCou, ICntrl=  3107 FMM=F I1Cent=   0 AccDes= 0.00D+00.
 End of G2Drv F.D. properties file   721 does not exist.
 End of G2Drv F.D. properties file   722 does not exist.
 End of G2Drv F.D. properties file   788 does not exist.
 R2 and R3 integrals will be kept in memory, NReq=      823562.
 DD1Dir will call FoFMem   1 times, MxPair=        30
 NAB=    15 NAA=     0 NBB=     0.
 Discarding MO integrals.

 **********************************************************************

            Population analysis using the SCF Density.

 **********************************************************************

 Orbital symmetries:
       Occupied  (A1) (A1) (T2) (T2) (T2)
       Virtual   (A1) (T2) (T2) (T2) (T2) (T2) (T2) (A1) (T2) (T2)
                 (T2) (A1)
 The electronic state is 1-A1.
 Alpha  occ. eigenvalues --  -11.14905  -0.94194  -0.54228  -0.54228  -0.54228
 Alpha virt. eigenvalues --    0.29409   0.34949   0.34949   0.34949   0.92890
 Alpha virt. eigenvalues --    0.92890   0.92890   1.31849   1.34979   1.34979
 Alpha virt. eigenvalues --    1.34979   1.95173
          Condensed to atoms (all electrons):
               1          2          3          4          5
     1  C    5.308656   0.369735   0.369735   0.369735   0.369735
     2  H    0.369735   0.509437  -0.025357  -0.025357  -0.025357
     3  H    0.369735  -0.025357   0.509437  -0.025357  -0.025357
     4  H    0.369735  -0.025357  -0.025357   0.509437  -0.025357
     5  H    0.369735  -0.025357  -0.025357  -0.025357   0.509437
 Mulliken charges:
               1
     1  C   -0.787595
     2  H    0.196899
     3  H    0.196899
     4  H    0.196899
     5  H    0.196899
 Sum of Mulliken charges =   0.00000
 Mulliken charges with hydrogens summed into heavy atoms:
               1
     1  C    0.000000
 APT charges:
               1
     1  C   -0.033102
     2  H    0.008275
     3  H    0.008275
     4  H    0.008275
     5  H    0.008275
 Sum of APT charges =   0.00000
 APT charges with hydrogens summed into heavy atoms:
               1
     1  C    0.000000
 Electronic spatial extent (au):  <R**2>=             35.8409
 Charge=              0.0000 electrons
 Dipole moment (field-independent basis, Debye):
    X=              0.0000    Y=              0.0000    Z=              0.0000  Tot=              0.0000
 Quadrupole moment (field-independent basis, Debye-Ang):
   XX=             -8.4251   YY=             -8.4251   ZZ=             -8.4251
   XY=              0.0000   XZ=              0.0000   YZ=              0.0000
 Traceless Quadrupole moment (field-independent basis, Debye-Ang):
   XX=              0.0000   YY=             -0.0000   ZZ=             -0.0000
   XY=              0.0000   XZ=              0.0000   YZ=              0.0000
 Octapole moment (field-independent basis, Debye-Ang**2):
  XXX=              0.0000  YYY=              0.0000  ZZZ=              0.0000  XYY=              0.0000
  XXY=              0.0000  XXZ=              0.0000  XZZ=             -0.0000  YZZ=              0.0000
  YYZ=             -0.0000  XYZ=              0.7485
 Hexadecapole moment (field-independent basis, Debye-Ang**3):
 XXXX=            -15.5634 YYYY=            -15.5634 ZZZZ=            -15.5634 XXXY=              0.0000
 XXXZ=             -0.0000 YYYX=              0.0000 YYYZ=              0.0000 ZZZX=              0.0000
 ZZZY=              0.0000 XXYY=             -4.7249 XXZZ=             -4.7249 YYZZ=             -4.7249
 XXYZ=              0.0000 YYXZ=              0.0000 ZZXY=              0.0000
 N-N= 1.340456520511D+01 E-N=-1.191601795386D+02  KE= 3.983347177941D+01
 Symmetry A    KE= 3.422358536749D+01
 Symmetry B1   KE= 1.869962137306D+00
 Symmetry B2   KE= 1.869962137306D+00
 Symmetry B3   KE= 1.869962137306D+00
  Exact polarizability:      11.405      -0.000      11.405       0.000      -0.000      11.405
 Approx polarizability:       8.953      -0.000       8.953       0.000      -0.000       8.953
 Calling FoFJK, ICntrl=  10100127 FMM=F ISym2X=1 I1Cent= 0 IOpClX= 0 NMat=1 NMatS=1 NMatT=0.
 Full mass-weighted force constant matrix:
 Low frequencies ---   -1.6724   -1.6724   -1.6724    0.0013    0.0014    0.0014
 Low frequencies --- 1456.6822 1456.6822 1456.6822
 Diagonal vibrational polarizability:
        0.2919239       0.2919239       0.2919239
 Harmonic frequencies (cm**-1), IR intensities (KM/Mole), Raman scattering
 activities (A**4/AMU), depolarization ratios for plane and unpolarized
 incident light, reduced masses (AMU), force constants (mDyne/A),
 and normal coordinates:
                           1         2         3         4         5
                          T2        T2        T2         E         E
       Frequencies ---  1456.6822 1456.6822 1456.6822 1667.7945 1667.7945
    Reduced masses ---     1.1834    1.1834    1.1834    1.0078    1.0078
   Force constants ---     1.4795    1.4795    1.4795    1.6517    1.6517
    IR Intensities ---    18.3091   18.3091   18.3091    0.0000    0.0000
 Coord Atom Element:
   1     1     6          0.05257  -0.08780   0.07417   0.00000  -0.00000
   2     1     6          0.01166  -0.07706  -0.09949   0.00000  -0.00000
   3     1     6         -0.11434  -0.04822   0.02396   0.00000  -0.00000
   1     2     1         -0.34217   0.03477  -0.35738  -0.28472  -0.29258
   2     2     1         -0.14641  -0.01658   0.47360  -0.11102   0.39286
   3     2     1          0.45650  -0.15460  -0.11710   0.39574  -0.10028
   1     3     1          0.07138   0.20919  -0.44402   0.28472   0.29258
   2     3     1          0.26714   0.15783   0.38696   0.11102  -0.39286
   3     3     1          0.22421   0.44169  -0.02552   0.39574  -0.10028
   1     4     1         -0.38434   0.31351   0.00246   0.28472   0.29258
   2     4     1          0.07701   0.47538   0.11870  -0.11102   0.39286
   3     4     1          0.41434   0.12413   0.24274  -0.39574   0.10028
   1     5     1          0.02922   0.48792  -0.08418  -0.28472  -0.29258
   2     5     1         -0.33654   0.30097   0.20534   0.11102  -0.39286
   3     5     1          0.26637   0.16295  -0.38535  -0.39574   0.10028
                           6         7         8         9
                          A1        T2        T2        T2
       Frequencies ---  3086.4629 3194.6749 3194.6749 3194.6749
    Reduced masses ---     1.0078    1.0978    1.0978    1.0978
   Force constants ---     5.6566    6.6014    6.6014    6.6014
    IR Intensities ---     0.0000   22.6482   22.6482   22.6482
 Coord Atom Element:
   1     1     6         -0.00000  -0.06148  -0.00480   0.06622
   2     1     6         -0.00000  -0.05597   0.05230  -0.04816
   3     1     6         -0.00000  -0.03572  -0.07368  -0.03850
   1     2     1          0.28868   0.48308   0.08428   0.08653
   2     2     1          0.28868   0.48471   0.10119   0.05266
   3     2     1          0.28868   0.49070   0.06388   0.05552
   1     3     1         -0.28868   0.24927  -0.39803  -0.16550
   2     3     1         -0.28868   0.25090  -0.38112  -0.19938
   3     3     1          0.28868  -0.27805   0.37479   0.17371
   1     4     1         -0.28868   0.11673   0.42662  -0.22874
   2     4     1          0.28868  -0.15151  -0.41256   0.23409
   3     4     1         -0.28868   0.12435   0.40622  -0.25975
   1     5     1          0.28868  -0.11709  -0.05568  -0.48077
   2     5     1         -0.28868   0.08231   0.06975   0.48612
   3     5     1         -0.28868   0.08830   0.03244   0.48898
 Harmonic frequencies (cm**-1), IR intensities (KM/Mole), Raman scattering
 activities (A**4/AMU), depolarization ratios for plane and unpolarized
 incident light, reduced masses (AMU), force constants (mDyne/A),
 and normal coordinates:
                      1                      2                      3
                     T2                     T2                     T2
 Frequencies --   1456.6822              1456.6822              1456.6822
 Red. masses --      1.1834                 1.1834                 1.1834
 Frc consts  --      1.4795                 1.4795                 1.4795
 IR Inten    --     18.3091                18.3091                18.3091
  Atom  AN      X      Y      Z        X      Y      Z        X      Y      Z
     1   6     0.05   0.01  -0.11    -0.09  -0.08  -0.05     0.07  -0.10   0.02
     2   1    -0.34  -0.15   0.46     0.03  -0.02  -0.15    -0.36   0.47  -0.12
     3   1     0.07   0.27   0.22     0.21   0.16   0.44    -0.44   0.39  -0.03
     4   1    -0.38   0.08   0.41     0.31   0.48   0.12     0.00   0.12   0.24
     5   1     0.03  -0.34   0.27     0.49   0.30   0.16    -0.08   0.21  -0.39
                      4                      5                      6
                      E                      E                     A1
 Frequencies --   1667.7945              1667.7945              3086.4629
 Red. masses --      1.0078                 1.0078                 1.0078
 Frc consts  --      1.6517                 1.6517                 5.6566
 IR Inten    --      0.0000                 0.0000                 0.0000
  Atom  AN      X      Y      Z        X      Y      Z        X      Y      Z
     1   6     0.00   0.00   0.00    -0.00  -0.00  -0.00    -0.00  -0.00  -0.00
     2   1    -0.28  -0.11   0.40    -0.29   0.39  -0.10     0.29   0.29   0.29
     3   1     0.28   0.11   0.40     0.29  -0.39  -0.10    -0.29  -0.29   0.29
     4   1     0.28  -0.11  -0.40     0.29   0.39   0.10    -0.29   0.29  -0.29
     5   1    -0.28   0.11  -0.40    -0.29  -0.39   0.10     0.29  -0.29  -0.29
                      7                      8                      9
                     T2                     T2                     T2
 Frequencies --   3194.6749              3194.6749              3194.6749
 Red. masses --      1.0978                 1.0978                 1.0978
 Frc consts  --      6.6014                 6.6014                 6.6014
 IR Inten    --     22.6482                22.6482                22.6482
  Atom  AN      X      Y      Z        X      Y      Z        X      Y      Z
     1   6    -0.06  -0.06  -0.04    -0.00   0.05  -0.07     0.07  -0.05  -0.04
     2   1     0.48   0.48   0.49     0.08   0.10   0.06     0.09   0.05   0.06
     3   1     0.25   0.25  -0.28    -0.40  -0.38   0.37    -0.17  -0.20   0.17
     4   1     0.12  -0.15   0.12     0.43  -0.41   0.41    -0.23   0.23  -0.26
     5   1    -0.12   0.08   0.09    -0.06   0.07   0.03    -0.48   0.49   0.49

 -------------------
 - Thermochemistry -
 -------------------
 Temperature   298.150 Kelvin.  Pressure   1.00000 Atm.
 Atom     1 has atomic number  6 and mass  12.00000
 Atom     2 has atomic number  1 and mass   1.00783
 Atom     3 has atomic number  1 and mass   1.00783
 Atom     4 has atomic number  1 and mass   1.00783
 Atom     5 has atomic number  1 and mass   1.00783
 Molecular mass:    16.03130 amu.
 Principal axes and moments of inertia in atomic units:
                           1         2         3
     Eigenvalues --    11.45512  11.45512  11.45512
           X           -0.30760  -0.00396   0.95151
           Y            0.88811   0.35773   0.28860
           Z           -0.34153   0.93382  -0.10652
 This molecule is a spherical top.
 Rotational symmetry number 12.
 Rotational temperatures (Kelvin)      7.56115     7.56115     7.56115
 Rotational constants (GHZ):         157.54887   157.54887   157.54887
 Zero-point vibrational energy     121876.3 (Joules/Mol)
                                   29.12913 (Kcal/Mol)
 Vibrational temperatures:   2095.84  2095.84  2095.84  2399.58  2399.58
          (Kelvin)           4440.73  4596.42  4596.42  4596.42
 
 Zero-point correction=                           0.046420 (Hartree/Particle)
 Thermal correction to Energy=                    0.049275
 Thermal correction to Enthalpy=                  0.050219
 Thermal correction to Gibbs Free Energy=         0.029101
 Sum of electronic and zero-point Energies=            -40.029093
 Sum of electronic and thermal Energies=               -40.026238
 Sum of electronic and thermal Enthalpies=             -40.025294
 Sum of electronic and thermal Free Energies=          -40.046413
 
                     E (Thermal)             CV                S
                      KCal/Mol        Cal/Mol-Kelvin    Cal/Mol-Kelvin
 Total                   30.921              6.306             44.449
 Electronic               0.000              0.000              0.000
 Translational            0.889              2.981             34.261
 Rotational               0.889              2.981             10.133
 Vibrational             29.143              0.344              0.054
                       Q            Log10(Q)             Ln(Q)
 Total Bot       0.411814D-13        -13.385299        -30.820790
 Total V=0       0.925770D+08          7.966503         18.343551
 Vib (Bot)       0.446303D-21        -21.350370        -49.161043
 Vib (V=0)       0.100330D+01          0.001432          0.003298
 Electronic      0.100000D+01          0.000000          0.000000
 Translational   0.252294D+07          6.401907         14.740936
 Rotational      0.365733D+02          1.563164          3.599318
 ***** Axes restored to original set *****
 -------------------------------------------------------------------
 Center     Atomic                   Forces (Hartrees/Bohr)
 Number     Number              X              Y              Z
 -------------------------------------------------------------------
      1        6           0.000000000    0.000000000    0.000000000
      2        1          -0.000000000    0.000000000    0.000000220
      3        1          -0.000000000   -0.000000208   -0.000000073
      4        1          -0.000000180    0.000000104   -0.000000073
      5        1           0.000000180    0.000000104   -0.000000073
 -------------------------------------------------------------------
 Cartesian Forces:  Max     0.000000220 RMS     0.000000114
 FormGI is forming the generalized inverse of G from B-inverse, IUseBI=4.

 GradGradGradGradGradGradGradGradGradGradGradGradGradGradGradGradGradGrad
 Berny optimization.
 Internal  Forces:  Max     0.000000220 RMS     0.000000118
 Search for a local minimum.
 Step number   1 out of a maximum of    2
 All quantities printed in internal units (Hartrees-Bohrs-Radians)
 Second derivative matrix not updated -- analytic derivatives used.
 The second derivative matrix:
                          R1        R2        R3        R4        A1
           R1           0.35658
           R2           0.00225   0.35658
           R3           0.00225   0.00225   0.35658
           R4           0.00225   0.00225   0.00225   0.35658
           A1           0.00249   0.00249  -0.00157  -0.00342   0.02247
           A2           0.00391  -0.00101   0.00435  -0.00725  -0.00980
           A3           0.00764  -0.00613  -0.00679   0.00528  -0.01483
           A4          -0.00101   0.00391   0.00435  -0.00725  -0.00980
           A5          -0.00613   0.00764  -0.00679   0.00528  -0.01483
           A6          -0.00690  -0.00690   0.00644   0.00737   0.02678
           D1          -0.00483  -0.00483  -0.00341   0.01307  -0.01552
           D2           0.00398   0.00398  -0.01023   0.00227   0.00936
           D3          -0.00524   0.00922  -0.00512   0.00114   0.00468
           D4          -0.00922   0.00524   0.00512  -0.00114  -0.00468
                          A2        A3        A4        A5        A6
           A2           0.04255
           A3          -0.02575   0.08311
           A4          -0.00205   0.02764   0.04255
           A5           0.02764  -0.04000  -0.02575   0.08311
           A6          -0.03259  -0.03017  -0.03259  -0.03017   0.09874
           D1          -0.01280   0.01700  -0.01280   0.01700   0.00712
           D2          -0.01084   0.00824  -0.01084   0.00824  -0.00415
           D3          -0.01638  -0.00088   0.00554   0.00912  -0.00208
           D4          -0.00554  -0.00912   0.01638   0.00088   0.00208
                          D1        D2        D3        D4
           D1           0.03469
           D2           0.00181   0.02156
           D3           0.00091   0.01078   0.02187
           D4          -0.00091  -0.01078   0.01109   0.02187
 ITU=  0
     Eigenvalues ---    0.04387   0.04947   0.07525   0.14920   0.14966
     Eigenvalues ---    0.35585   0.35587   0.35633   0.36333
 Angle between quadratic step and forces=  90.00 degrees.
 Linear search not attempted -- first point.
 Iteration  1 RMS(Cart)=  0.00000032 RMS(Int)=  0.00000000
 ClnCor:  largest displacement from symmetrization is 6.21D-14 for atom     3.
 Variable       Old X    -DE/DX   Delta X   Delta X   Delta X     New X
                                 (Linear)    (Quad)   (Total)
    R1        2.06454   0.00000   0.00000   0.00000   0.00000   2.06454
    R2        2.06454   0.00000   0.00000   0.00000   0.00000   2.06454
    R3        2.06454   0.00000   0.00000   0.00000   0.00000   2.06454
    R4        2.06454   0.00000   0.00000   0.00000   0.00000   2.06454
    A1        1.91063   0.00000   0.00000   0.00000   0.00000   1.91063
    A2        1.91063   0.00000   0.00000   0.00000   0.00000   1.91063
    A3        1.91063  -0.00000   0.00000  -0.00000   0.00000   1.91063
    A4        1.91063  -0.00000   0.00000  -0.00000  -0.00000   1.91063
    A5        1.91063   0.00000   0.00000   0.00000   0.00000   1.91063
    A6        1.91063   0.00000   0.00000   0.00000   0.00000   1.91063
    D1       -2.09440  -0.00000   0.00000  -0.00000  -0.00000  -2.09440
    D2        2.09440   0.00000   0.00000   0.00000   0.00000   2.09440
    D3       -2.09440  -0.00000   0.00000  -0.00000   0.00000  -2.09440
    D4        2.09440  -0.00000   0.00000  -0.00000   0.00000   2.09440
         Item               Value     Threshold  Converged?
 Maximum Force            0.000000     0.000450     YES
 RMS     Force            0.000000     0.000300     YES
 Maximum Displacement     0.000001     0.001800     YES
 RMS     Displacement     0.000000     0.001200     YES
 Predicted change in Energy=-2.672079D-13
 Optimization completed.
    -- Stationary point found.
                           ----------------------------
                           !   Optimized Parameters   !
                           ! (Angstroms and Degrees)  !
 --------------------------                            --------------------------
 ! Name  Definition              Value          Derivative Info.                !
 --------------------------------------------------------------------------------
 ! R1    R(1,2)                  1.0925         -DE/DX =    0.0                 !
 ! R2    R(1,3)                  1.0925         -DE/DX =    0.0                 !
 ! R3    R(1,4)                  1.0925         -DE/DX =    0.0                 !
 ! R4    R(1,5)                  1.0925         -DE/DX =    0.0                 !
 ! A1    A(2,1,3)              109.4712         -DE/DX =    0.0                 !
 ! A2    A(2,1,4)              109.4712         -DE/DX =    0.0                 !
 ! A3    A(2,1,5)              109.4712         -DE/DX =    0.0                 !
 ! A4    A(3,1,4)              109.4712         -DE/DX =    0.0                 !
 ! A5    A(3,1,5)              109.4712         -DE/DX =    0.0                 !
 ! A6    A(4,1,5)              109.4712         -DE/DX =    0.0                 !
 ! D1    D(2,1,4,3)           -120.0            -DE/DX =    0.0                 !
 ! D2    D(2,1,5,3)            120.0            -DE/DX =    0.0                 !
 ! D3    D(2,1,5,4)           -120.0            -DE/DX =    0.0                 !
 ! D4    D(3,1,5,4)            120.0            -DE/DX =    0.0                 !
 --------------------------------------------------------------------------------
 GradGradGradGradGradGradGradGradGradGradGradGradGradGradGradGradGradGrad

 Dipole is zero, so no output in dipole orientation.

 ----------------------------------------------------------------------

 Electric dipole moment (input orientation):
 (Debye = 10**-18 statcoulomb cm , SI units = C m)
                  (au)            (Debye)         (10**-30 SI)
   Tot        0.000000D+00      0.000000D+00      0.000000D+00
   x          0.000000D+00      0.000000D+00      0.000000D+00
   y          0.000000D+00      0.000000D+00      0.000000D+00
   z          0.000000D+00      0.000000D+00      0.000000D+00

 Dipole polarizability, Alpha (input orientation).
 (esu units = cm**3 , SI units = C**2 m**2 J**-1)
 Alpha(0;0):
               (au)            (10**-24 esu)      (10**-40 SI)
   iso        0.114050D+02      0.169005D+01      0.188044D+01
   aniso      0.000000D+00      0.000000D+00      0.000000D+00
   xx         0.114050D+02      0.169005D+01      0.188044D+01
   yx         0.000000D+00      0.000000D+00      0.000000D+00
   yy         0.114050D+02      0.169005D+01      0.188044D+01
   zx         0.000000D+00      0.000000D+00      0.000000D+00
   zy         0.000000D+00      0.000000D+00      0.000000D+00
   zz         0.114050D+02      0.169005D+01      0.188044D+01

 ----------------------------------------------------------------------
 Unable to Open any file for archive entry.
 1\1\GINC-BS001\Freq\RMP2-FC\3-21G\C1H4\PNATT\05-Aug-2026\0\\#N Geom=Al
 lCheck Guess=TCheck SCRF=Check GenChk RMP2(FC)/3-21G Freq\\Title Card 
 Required\\0,1\C,0.,0.000000001,0.000000001\H,-0.000000006,-0.000000000
 7,1.0925064765\H,0.,-1.0300249815,-0.3641688257\H,-0.8920277989,0.5150
 124948,-0.3641688282\H,0.8920278048,0.5150124914,-0.3641688185\\Versio
 n=ES64L-G16RevC.01\State=1-A1\HF=-39.9766269\MP2=-40.0755132\RMSD=2.99
 0e-10\RMSF=1.138e-07\ZeroPoint=0.0464202\Thermal=0.0492753\ETot=-40.02
 62379\HTot=-40.0252937\GTot=-40.0464127\Dipole=0.,0.,0.\DipoleDeriv=-0
 .0331019,0.,0.,0.,-0.0331019,0.,0.,0.,-0.0331019,0.0807112,0.,0.,0.,0.
 0807112,0.,0.,0.,-0.1365959,0.0807112,0.,0.,0.,-0.1124507,-0.068293,0.
 ,-0.068293,0.0565659,-0.0641602,0.0836415,-0.0591435,0.0836415,0.03242
 07,0.0341465,-0.0591435,0.0341465,0.0565659,-0.0641602,-0.0836415,0.05
 91435,-0.0836415,0.0324207,0.0341465,0.0591435,0.0341465,0.0565659\Pol
 ar=11.4050379,0.,11.4050379,0.,0.,11.4050379\PG=TD [O(C1),4C3(H1)]\NIm
 ag=0\\0.57086740,0.,0.57086740,0.,0.,0.57086740,-0.05240674,0.,0.,0.05
 198573,0.,-0.05240674,0.,0.,0.05198573,0.,0.,-0.32333706,0.,0.,0.35658
 086,-0.05240674,0.,0.,-0.00105765,0.,0.,0.05198573,0.,-0.29323370,-0.0
 8514519,0.,0.00133833,0.00153239,0.,0.32273696,0.,-0.08514519,-0.08251
 011,0.,-0.03666031,-0.01108127,0.,0.09572502,0.08582964,-0.23302696,0.
 10428113,-0.07373789,0.00073933,-0.00103749,0.00132709,0.00073933,-0.0
 0159702,0.00053579,0.25504915,0.10428113,-0.11261348,0.04257259,-0.001
 03749,-0.00045866,-0.00076620,0.02958718,-0.01542080,0.01304024,-0.117
 23872,0.11967354,-0.07373789,0.04257259,-0.08251011,-0.03174876,0.0183
 3015,-0.01108127,0.01156107,-0.00605611,0.00388087,0.08290030,-0.04786
 251,0.08582964,-0.23302696,-0.10428113,0.07373789,0.00073933,0.0010374
 9,-0.00132709,0.00073933,0.00159702,-0.00053579,-0.02350086,-0.0155921
 0,0.01102528,0.25504915,-0.10428113,-0.11261348,0.04257259,0.00103749,
 -0.00045866,-0.00076620,-0.02958718,-0.01542080,0.01304024,0.01559210,
 0.00881940,-0.00698413,0.11723872,0.11967354,0.07373789,0.04257259,-0.
 08251011,0.03174876,0.01833015,-0.01108127,-0.01156107,-0.00605611,0.0
 0388087,-0.01102528,-0.00698413,0.00388087,-0.08290029,-0.04786251,0.0
 8582963\\0.,0.,0.,0.,0.,-0.00000022,0.,0.00000021,0.00000007,0.0000001
 8,-0.00000010,0.00000007,-0.00000018,-0.00000010,0.00000007\\\@
 The archive entry for this job was punched.


 OF ALL THE WONDERS OF THE UNIVERSE, THE GREATEST IS MAN.

                                    -- ARISTOTLE
 Job cpu time:       0 days  0 hours  0 minutes  2.2 seconds.
 Elapsed time:       0 days  0 hours  0 minutes  2.0 seconds.
 File lengths (MBytes):  RWF=     19 Int=      0 D2E=      0 Chk=      1 Scr=      1
 Normal termination of Gaussian 16 at Wed Aug  5 14:59:24 2026.
