 Entering Gaussian System, Link 0=g09
 Input=clf3.com
 Output=clf3.log
 Initial command:
 /usr/local/g09/l1.exe /scratch/pammy/Gau-8359.inp -scrdir=/scratch/pammy/
 Entering Link 1 = /usr/local/g09/l1.exe PID=      8360.
  
 Copyright (c) 1988,1990,1992,1993,1995,1998,2003,2009,2011,
            Gaussian, Inc.  All Rights Reserved.
  
 This is part of the Gaussian(R) 09 program.  It is based on
 the Gaussian(R) 03 system (copyright 2003, Gaussian, Inc.),
 the Gaussian(R) 98 system (copyright 1998, Gaussian, Inc.),
 the Gaussian(R) 94 system (copyright 1995, Gaussian, Inc.),
 the Gaussian 92(TM) system (copyright 1992, Gaussian, Inc.),
 the Gaussian 90(TM) system (copyright 1990, Gaussian, Inc.),
 the Gaussian 88(TM) system (copyright 1988, Gaussian, Inc.),
 the Gaussian 86(TM) system (copyright 1986, Carnegie Mellon
 University), and the Gaussian 82(TM) system (copyright 1983,
 Carnegie Mellon University). Gaussian is a federally registered
 trademark of Gaussian, Inc.
  
 This software contains proprietary and confidential information,
 including trade secrets, belonging to Gaussian, Inc.
  
 This software is provided under written license and may be
 used, copied, transmitted, or stored only in accord with that
 written license.
  
 The following legend is applicable only to US Government
 contracts under FAR:
  
                    RESTRICTED RIGHTS LEGEND
  
 Use, reproduction and disclosure by the US Government is
 subject to restrictions as set forth in subparagraphs (a)
 and (c) of the Commercial Computer Software - Restricted
 Rights clause in FAR 52.227-19.
  
 Gaussian, Inc.
 340 Quinnipiac St., Bldg. 40, Wallingford CT 06492
  
  
 ---------------------------------------------------------------
 Warning -- This program may not be used in any manner that
 competes with the business of Gaussian, Inc. or will provide
 assistance to any competitor of Gaussian, Inc.  The licensee
 of this program is prohibited from giving any competitor of
 Gaussian, Inc. access to this program.  By using this program,
 the user acknowledges that Gaussian, Inc. is engaged in the
 business of creating and licensing software in the field of
 computational chemistry and represents and warrants to the
 licensee that it is not a competitor of Gaussian, Inc. and that
 it will not use this program in any manner prohibited above.
 ---------------------------------------------------------------
  

 Cite this work as:
 Gaussian 09, Revision C.01,
 M. J. Frisch, G. W. Trucks, H. B. Schlegel, G. E. Scuseria, 
 M. A. Robb, J. R. Cheeseman, G. Scalmani, V. Barone, B. Mennucci, 
 G. A. Petersson, H. Nakatsuji, M. Caricato, X. Li, H. P. Hratchian, 
 A. F. Izmaylov, J. Bloino, G. Zheng, J. L. Sonnenberg, M. Hada, 
 M. Ehara, K. Toyota, R. Fukuda, J. Hasegawa, M. Ishida, T. Nakajima, 
 Y. Honda, O. Kitao, H. Nakai, T. Vreven, J. A. Montgomery, Jr., 
 J. E. Peralta, F. Ogliaro, M. Bearpark, J. J. Heyd, E. Brothers, 
 K. N. Kudin, V. N. Staroverov, T. Keith, R. Kobayashi, J. Normand, 
 K. Raghavachari, A. Rendell, J. C. Burant, S. S. Iyengar, J. Tomasi, 
 M. Cossi, N. Rega, J. M. Millam, M. Klene, J. E. Knox, J. B. Cross, 
 V. Bakken, C. Adamo, J. Jaramillo, R. Gomperts, R. E. Stratmann, 
 O. Yazyev, A. J. Austin, R. Cammi, C. Pomelli, J. W. Ochterski, 
 R. L. Martin, K. Morokuma, V. G. Zakrzewski, G. A. Voth, 
 P. Salvador, J. J. Dannenberg, S. Dapprich, A. D. Daniels, 
 O. Farkas, J. B. Foresman, J. V. Ortiz, J. Cioslowski, 
 and D. J. Fox, Gaussian, Inc., Wallingford CT, 2010.
 
 ******************************************
 Gaussian 09:  AM64L-G09RevC.01 23-Sep-2011
                21-Jun-2024 
 ******************************************
 %chk=clf3.chk
 ----------------------------------------------
 # opt freq=hpmodes mp2/3-21g geom=connectivity
 ----------------------------------------------
 1/18=20,19=15,38=1,57=2/1,3;
 2/9=110,12=2,17=6,18=5,40=1/2;
 3/5=5,11=9,16=1,25=1,30=1,71=1/1,2,3;
 4//1;
 5/5=2,38=5/2;
 8/6=4,10=1/1;
 9/15=2,16=-3/6;
 10/5=1/2;
 6/7=2,8=2,9=2,10=2/1;
 7/12=2/1,2,3,16;
 1/18=20,19=15/3(2);
 2/9=110/2;
 99//99;
 2/9=110/2;
 3/5=5,11=9,16=1,25=1,30=1,71=1/1,2,3;
 4/5=5,16=3/1;
 5/5=2,38=5/2;
 8/6=4,10=1/1;
 9/15=2,16=-3/6;
 10/5=1/2;
 7/12=2/1,2,3,16;
 1/18=20,19=15/3(-8);
 2/9=110/2;
 6/7=2,8=2,9=2,10=2/1;
 99//99;
 -------------------
 Title Card Required
 -------------------
 Charge =  0 Multiplicity = 1
 Symbolic Z-Matrix:
 Cl                    0.37009   0.37764  -1.29 
 F                     0.37009   0.37764   0.28 
 F                    -0.41491   1.7373   -1.29 
 F                     0.37009   0.37764  -2.86 
 

 GradGradGradGradGradGradGradGradGradGradGradGradGradGradGradGradGradGrad
 Berny optimization.
 Initialization pass.
                           ----------------------------
                           !    Initial Parameters    !
                           ! (Angstroms and Degrees)  !
 --------------------------                            --------------------------
 ! Name  Definition              Value          Derivative Info.                !
 --------------------------------------------------------------------------------
 ! R1    R(1,2)                  1.57           estimate D2E/DX2                !
 ! R2    R(1,3)                  1.57           estimate D2E/DX2                !
 ! R3    R(1,4)                  1.57           estimate D2E/DX2                !
 ! A1    A(2,1,3)               90.0            estimate D2E/DX2                !
 ! A2    A(3,1,4)               90.0            estimate D2E/DX2                !
 ! A3    L(2,1,4,3,-1)         180.0            estimate D2E/DX2                !
 ! A4    L(2,1,4,3,-2)         180.0            estimate D2E/DX2                !
 ! D1    D(2,1,3,4)            180.0            estimate D2E/DX2                !
 --------------------------------------------------------------------------------
 Trust Radius=3.00D-01 FncErr=1.00D-07 GrdErr=1.00D-07
 Number of steps in this run=     20 maximum allowed number of steps=    100.
 GradGradGradGradGradGradGradGradGradGradGradGradGradGradGradGradGradGrad

                          Input orientation:                          
 ---------------------------------------------------------------------
 Center     Atomic      Atomic             Coordinates (Angstroms)
 Number     Number       Type             X           Y           Z
 ---------------------------------------------------------------------
      1         17           0        0.370091    0.377644   -1.290000
      2          9           0        0.370091    0.377644    0.280000
      3          9           0       -0.414909    1.737303   -1.290000
      4          9           0        0.370091    0.377644   -2.860000
 ---------------------------------------------------------------------
                    Distance matrix (angstroms):
                    1          2          3          4
     1  Cl   0.000000
     2  F    1.570000   0.000000
     3  F    1.570000   2.220315   0.000000
     4  F    1.570000   3.140000   2.220315   0.000000
 Stoichiometry    ClF3
 Framework group  C2V[C2(FCl),SGV(F2)]
 Deg. of freedom     3
 Full point group                 C2V     NOp   4
 Largest Abelian subgroup         C2V     NOp   4
 Largest concise Abelian subgroup C2      NOp   2
                         Standard orientation:                         
 ---------------------------------------------------------------------
 Center     Atomic      Atomic             Coordinates (Angstroms)
 Number     Number       Type             X           Y           Z
 ---------------------------------------------------------------------
      1         17           0       -0.000000   -0.000000    0.321136
      2          9           0       -0.000000    1.570000    0.321136
      3          9           0        0.000000    0.000000   -1.248864
      4          9           0       -0.000000   -1.570000    0.321136
 ---------------------------------------------------------------------
 Rotational constants (GHZ):     13.6019267      5.3959857      3.8633614
 Standard basis: 3-21G (6D, 7F)
 There are    19 symmetry adapted basis functions of A1  symmetry.
 There are     2 symmetry adapted basis functions of A2  symmetry.
 There are     7 symmetry adapted basis functions of B1  symmetry.
 There are    12 symmetry adapted basis functions of B2  symmetry.
 Integral buffers will be    131072 words long.
 Raffenetti 1 integral format.
 Two-electron integral symmetry is turned on.
    40 basis functions,    72 primitive gaussians,    40 cartesian basis functions
    22 alpha electrons       22 beta electrons
       nuclear repulsion energy       206.9693963955 Hartrees.



 Warning!  Cl atom    1 may be hypervalent but has no d functions.



 NAtoms=    4 NActive=    4 NUniq=    3 SFac= 1.78D+00 NAtFMM=   60 NAOKFM=F Big=F
 One-electron integrals computed using PRISM.
 NBasis=    40 RedAO= T  NBF=    19     2     7    12
 NBsUse=    40 1.00D-06 NBFU=    19     2     7    12
 Harris functional with IExCor=  205 diagonalized for initial guess.
 ExpMin= 1.67D-01 ExpMax= 1.38D+03 ExpMxC= 1.38D+03 IAcc=1 IRadAn=         1 AccDes= 0.00D+00
 HarFok:  IExCor=  205 AccDes= 0.00D+00 IRadAn=         1 IDoV= 1
 ScaDFX=  1.000000  1.000000  1.000000  1.000000
 FoFCou: FMM=F IPFlag=           0 FMFlag=      100000 FMFlg1=           0
         NFxFlg=           0 DoJE=T BraDBF=F KetDBF=T FulRan=T
         Omega=  0.000000  0.000000  1.000000  0.000000  0.000000 ICntrl=     500 IOpCl=  0
         NMat0=    1 NMatS0=    1 NMatT0=    0 NMatD0=    1 NMtDS0=    0 NMtDT0=    0
         I1Cent=           4 NGrid=           0.
 Petite list used in FoFCou.
 Initial guess orbital symmetries:
       Occupied  (A1) (B2) (A1) (A1) (A1) (B2) (A1) (B1) (A1) (B2)
                 (A1) (A1) (B2) (A1) (B1) (B2) (A2) (A1) (B1) (B2)
                 (A1) (B1)
       Virtual   (A1) (B2) (A1) (A1) (B2) (B1) (B2) (A2) (B1) (A1)
                 (A1) (B1) (B2) (A1) (B2) (A1) (A1) (B2)
 The electronic state of the initial guess is 1-A1.
 Requested convergence on RMS density matrix=1.00D-08 within 128 cycles.
 Requested convergence on MAX density matrix=1.00D-06.
 Requested convergence on             energy=1.00D-06.
 No special actions if energy rises.
 Keep R1 ints in memory in canonical form, NReq=1160190.
 SCF Done:  E(RHF) =  -753.579862247     A.U. after   12 cycles
             Convg  =    0.3939D-08             -V/T =  1.9999
 ExpMin= 1.67D-01 ExpMax= 1.38D+03 ExpMxC= 1.38D+03 IAcc=3 IRadAn=         5 AccDes= 0.00D+00
 HarFok:  IExCor=  205 AccDes= 0.00D+00 IRadAn=         5 IDoV=-2
 ScaDFX=  1.000000  1.000000  1.000000  1.000000
 Range of M.O.s used for correlation:     9    40
 NBasis=    40 NAE=    22 NBE=    22 NFC=     8 NFV=     0
 NROrb=     32 NOA=    14 NOB=    14 NVA=    18 NVB=    18
 Fully direct method using O(ONN) memory.
 JobTyp=1 Pass  1:  I=   9 to  22 NPSUse=  1 ParTrn=F ParDer=F DoDerP=T.
 Spin components of T(2) and E(2):
     alpha-alpha T2 =       0.1239399823D-01 E2=     -0.5534876382D-01
     alpha-beta  T2 =       0.7925803896D-01 E2=     -0.3153379452D+00
     beta-beta   T2 =       0.1239399823D-01 E2=     -0.5534876382D-01
 ANorm=    0.1050735949D+01
 E2 =    -0.4260354728D+00 EUMP2 =    -0.75400589772027D+03
          IDoAtm=1111
          Differentiating once with respect to electric field.
                with respect to dipole field.
          Differentiating once with respect to nuclear coordinates.
          Keep R1 ints in memory in canonical form, NReq=1137347.
          There are     1 degrees of freedom in the 1st order CPHF.  IDoFFX=0.
 LinEq1:  Iter=  0 NonCon=     1 RMS=1.04D-02 Max=1.32D-01
 AX will form     1 AO Fock derivatives at one time.
 LinEq1:  Iter=  1 NonCon=     1 RMS=1.88D-03 Max=1.55D-02
 LinEq1:  Iter=  2 NonCon=     1 RMS=5.96D-04 Max=6.55D-03
 LinEq1:  Iter=  3 NonCon=     1 RMS=2.02D-04 Max=2.07D-03
 LinEq1:  Iter=  4 NonCon=     1 RMS=4.36D-05 Max=3.22D-04
 LinEq1:  Iter=  5 NonCon=     1 RMS=1.10D-05 Max=1.07D-04
 LinEq1:  Iter=  6 NonCon=     1 RMS=3.42D-06 Max=2.55D-05
 LinEq1:  Iter=  7 NonCon=     1 RMS=5.95D-07 Max=4.20D-06
 LinEq1:  Iter=  8 NonCon=     1 RMS=8.23D-08 Max=8.52D-07
 LinEq1:  Iter=  9 NonCon=     1 RMS=1.19D-08 Max=1.09D-07
 LinEq1:  Iter= 10 NonCon=     1 RMS=1.29D-09 Max=7.76D-09
 LinEq1:  Iter= 11 NonCon=     1 RMS=1.05D-10 Max=6.33D-10
 LinEq1:  Iter= 12 NonCon=     0 RMS=9.94D-12 Max=7.08D-11
 Linear equations converged to 1.000D-10 1.000D-09 after    12 iterations.
 End of Minotr Frequency-dependent properties file   721 does not exist.
 End of Minotr Frequency-dependent properties file   722 does not exist.

 **********************************************************************

            Population analysis using the SCF density.

 **********************************************************************

 Orbital symmetries:
       Occupied  (A1) (A1) (B2) (A1) (A1) (B2) (A1) (B1) (A1) (B2)
                 (A1) (A1) (B2) (B1) (A1) (B2) (B1) (A2) (B2) (A1)
                 (B1) (A1)
       Virtual   (A1) (B2) (A1) (B1) (A1) (B2) (B2) (B1) (A2) (A1)
                 (B1) (A1) (B2) (A1) (B2) (A1) (A1) (B2)
 The electronic state is 1-A1.
 Alpha  occ. eigenvalues -- -104.39057 -26.28507 -26.13781 -26.13665 -10.77557
 Alpha  occ. eigenvalues --   -8.23654  -8.23305  -8.22887  -1.76565  -1.61522
 Alpha  occ. eigenvalues --   -1.61224  -1.16056  -0.82740  -0.82282  -0.81310
 Alpha  occ. eigenvalues --   -0.73696  -0.70091  -0.64680  -0.61739  -0.61349
 Alpha  occ. eigenvalues --   -0.50628  -0.48280
 Alpha virt. eigenvalues --    0.07163   0.26068   0.57924   0.67556   0.68738
 Alpha virt. eigenvalues --    0.73412   2.00096   2.13042   2.17913   2.25697
 Alpha virt. eigenvalues --    2.31322   2.34516   2.37600   2.38755   2.48718
 Alpha virt. eigenvalues --    3.40681   3.72030   4.13837
          Condensed to atoms (all electrons):
              1          2          3          4
     1  Cl  15.663044  -0.092221   0.075356  -0.092221
     2  F   -0.092221   9.658879  -0.019923   0.001102
     3  F    0.075356  -0.019923   9.314856  -0.019923
     4  F   -0.092221   0.001102  -0.019923   9.658879
 Mulliken atomic charges:
              1
     1  Cl   1.446042
     2  F   -0.547838
     3  F   -0.350366
     4  F   -0.547838
 Sum of Mulliken atomic charges =  -0.00000
 Mulliken charges with hydrogens summed into heavy atoms:
              1
     1  Cl   1.446042
     2  F   -0.547838
     3  F   -0.350366
     4  F   -0.547838
 Sum of Mulliken charges with hydrogens summed into heavy atoms =  -0.00000
 Electronic spatial extent (au):  <R**2>=            285.0101
 Charge=             -0.0000 electrons
 Dipole moment (field-independent basis, Debye):
    X=              0.0000    Y=              0.0000    Z=              0.5480  Tot=              0.5480
 Quadrupole moment (field-independent basis, Debye-Ang):
   XX=            -24.7530   YY=            -34.7617   ZZ=            -25.9646
   XY=             -0.0000   XZ=             -0.0000   YZ=              0.0000
 Traceless Quadrupole moment (field-independent basis, Debye-Ang):
   XX=              3.7401   YY=             -6.2686   ZZ=              2.5285
   XY=             -0.0000   XZ=             -0.0000   YZ=              0.0000
 Octapole moment (field-independent basis, Debye-Ang**2):
  XXX=              0.0000  YYY=              0.0000  ZZZ=             -0.0238  XYY=              0.0000
  XXY=              0.0000  XXZ=             -1.2621  XZZ=              0.0000  YZZ=              0.0000
  YYZ=             -3.9631  XYZ=             -0.0000
 Hexadecapole moment (field-independent basis, Debye-Ang**3):
 XXXX=            -17.1295 YYYY=           -185.5818 ZZZZ=            -71.9178 XXXY=             -0.0000
 XXXZ=              0.0000 YYYX=             -0.0000 YYYZ=              0.0000 ZZZX=              0.0000
 ZZZY=              0.0000 XXYY=            -28.7444 XXZZ=            -14.8815 YYZZ=            -38.6549
 XXYZ=             -0.0000 YYXZ=              0.0000 ZZXY=             -0.0000
 N-N= 2.069693963955D+02 E-N=-2.212076540366D+03  KE= 7.536695257089D+02
 Symmetry A1   KE= 5.469072378374D+02
 Symmetry A2   KE= 6.285475047896D+00
 Symmetry B1   KE= 5.946432533914D+01
 Symmetry B2   KE= 1.410124874845D+02
 Calling FoFJK, ICntrl=      2127 FMM=F ISym2X=1 I1Cent= 0 IOpClX= 0 NMat=1 NMatS=1 NMatT=0.
 ***** Axes restored to original set *****
 -------------------------------------------------------------------
 Center     Atomic                   Forces (Hartrees/Bohr)
 Number     Number              X              Y              Z
 -------------------------------------------------------------------
      1       17           0.081427498   -0.141036564   -0.000000000
      2        9          -0.007960778    0.013788472    0.185679364
      3        9          -0.065505942    0.113459619    0.000000000
      4        9          -0.007960778    0.013788472   -0.185679364
 -------------------------------------------------------------------
 Cartesian Forces:  Max     0.185679364 RMS     0.097102398

 GradGradGradGradGradGradGradGradGradGradGradGradGradGradGradGradGradGrad
 Berny optimization.
 Internal  Forces:  Max     0.185679364 RMS     0.104645433
 Search for a local minimum.
 Step number   1 out of a maximum of   20
 All quantities printed in internal units (Hartrees-Bohrs-Radians)
 Mixed Optimization -- RFO/linear search
 Second derivative matrix not updated -- first step.
 The second derivative matrix:
                          R1        R2        R3        A1        A2
           R1           0.57486
           R2           0.00000   0.57486
           R3           0.00000   0.00000   0.57486
           A1           0.00000   0.00000   0.00000   0.25000
           A2           0.00000   0.00000   0.00000   0.00000   0.25000
           A3           0.00000   0.00000   0.00000   0.00000   0.00000
           A4           0.00000   0.00000   0.00000   0.00000   0.00000
           D1           0.00000   0.00000   0.00000   0.00000   0.00000
                          A3        A4        D1
           A3           0.02090
           A4           0.00000   0.02090
           D1           0.00000   0.00000   0.02090
 ITU=  0
     Eigenvalues ---    0.02090   0.09726   0.25000   0.57486   0.57486
     Eigenvalues ---    0.57486
 RFO step:  Lambda=-1.28937696D-01 EMin= 2.08950907D-02
 Linear search not attempted -- first point.
 Maximum step size (   0.300) exceeded in Quadratic search.
    -- Step size scaled by   0.666
 Iteration  1 RMS(Cart)=  0.09649441 RMS(Int)=  0.00267282
 Iteration  2 RMS(Cart)=  0.00325445 RMS(Int)=  0.00000638
 Iteration  3 RMS(Cart)=  0.00000646 RMS(Int)=  0.00000000
 Iteration  4 RMS(Cart)=  0.00000000 RMS(Int)=  0.00000001
 ClnCor:  largest displacement from symmetrization is 1.27D-11 for atom     3.
 Variable       Old X    -DE/DX   Delta X   Delta X   Delta X     New X
                                 (Linear)    (Quad)   (Total)
    R1        2.96687   0.18568   0.00000   0.17570   0.17570   3.14257
    R2        2.96687   0.13101   0.00000   0.12397   0.12397   3.09084
    R3        2.96687   0.18568   0.00000   0.17570   0.17570   3.14257
    A1        1.57080  -0.01575   0.00000  -0.04636  -0.04636   1.52444
    A2        1.57080  -0.01575   0.00000  -0.04636  -0.04636   1.52444
    A3        3.14159  -0.03149   0.00000  -0.09271  -0.09271   3.04888
    A4        3.14159  -0.00000   0.00000  -0.00000   0.00000   3.14159
    D1        3.14159  -0.00000   0.00000  -0.00000   0.00000   3.14159
         Item               Value     Threshold  Converged?
 Maximum Force            0.185679     0.000450     NO 
 RMS     Force            0.104645     0.000300     NO 
 Maximum Displacement     0.172320     0.001800     NO 
 RMS     Displacement     0.096222     0.001200     NO 
 Predicted change in Energy=-6.307733D-02
 GradGradGradGradGradGradGradGradGradGradGradGradGradGradGradGradGradGrad

                          Input orientation:                          
 ---------------------------------------------------------------------
 Center     Atomic      Atomic             Coordinates (Angstroms)
 Number     Number       Type             X           Y           Z
 ---------------------------------------------------------------------
      1         17           0        0.397556    0.330071   -1.290000
      2          9           0        0.359025    0.396810    0.371188
      3          9           0       -0.420244    1.746543   -1.290000
      4          9           0        0.359025    0.396810   -2.951188
 ---------------------------------------------------------------------
                    Distance matrix (angstroms):
                    1          2          3          4
     1  Cl   0.000000
     2  F    1.662974   0.000000
     3  F    1.635601   2.277847   0.000000
     4  F    1.662974   3.322376   2.277847   0.000000
 Stoichiometry    ClF3
 Framework group  C2V[C2(FCl),SGV(F2)]
 Deg. of freedom     3
 Full point group                 C2V     NOp   4
 Largest Abelian subgroup         C2V     NOp   4
 Largest concise Abelian subgroup C2      NOp   2
                         Standard orientation:                         
 ---------------------------------------------------------------------
 Center     Atomic      Atomic             Coordinates (Angstroms)
 Number     Number       Type             X           Y           Z
 ---------------------------------------------------------------------
      1         17           0        0.000000   -0.000000    0.366080
      2          9           0        0.000000    1.661188    0.289018
      3          9           0       -0.000000    0.000000   -1.269521
      4          9           0       -0.000000   -1.661188    0.289018
 ---------------------------------------------------------------------
 Rotational constants (GHZ):     13.1340857      4.8198401      3.5259248
 Standard basis: 3-21G (6D, 7F)
 There are    19 symmetry adapted basis functions of A1  symmetry.
 There are     2 symmetry adapted basis functions of A2  symmetry.
 There are     7 symmetry adapted basis functions of B1  symmetry.
 There are    12 symmetry adapted basis functions of B2  symmetry.
 Integral buffers will be    131072 words long.
 Raffenetti 1 integral format.
 Two-electron integral symmetry is turned on.
    40 basis functions,    72 primitive gaussians,    40 cartesian basis functions
    22 alpha electrons       22 beta electrons
       nuclear repulsion energy       197.4101881670 Hartrees.



 Warning!  Cl atom    1 may be hypervalent but has no d functions.



 NAtoms=    4 NActive=    4 NUniq=    3 SFac= 1.78D+00 NAtFMM=   60 NAOKFM=F Big=F
 One-electron integrals computed using PRISM.
 NBasis=    40 RedAO= T  NBF=    19     2     7    12
 NBsUse=    40 1.00D-06 NBFU=    19     2     7    12
 Initial guess read from the read-write file.
 B after Tr=     0.000000    0.000000    0.000000
         Rot=    1.000000   -0.000000   -0.000000    0.000000 Ang=   0.00 deg.
 Initial guess orbital symmetries:
       Occupied  (A1) (A1) (B2) (A1) (A1) (B2) (A1) (B1) (A1) (B2)
                 (A1) (A1) (B2) (B1) (A1) (B2) (B1) (A2) (B2) (A1)
                 (B1) (A1)
       Virtual   (A1) (B2) (A1) (B1) (A1) (B2) (B2) (B1) (A2) (A1)
                 (B1) (A1) (B2) (A1) (B2) (A1) (A1) (B2)
 Harris functional with IExCor=  205 diagonalized for initial guess.
 ExpMin= 1.67D-01 ExpMax= 1.38D+03 ExpMxC= 1.38D+03 IAcc=1 IRadAn=         1 AccDes= 0.00D+00
 HarFok:  IExCor=  205 AccDes= 0.00D+00 IRadAn=         1 IDoV= 1
 ScaDFX=  1.000000  1.000000  1.000000  1.000000
 FoFCou: FMM=F IPFlag=           0 FMFlag=      100000 FMFlg1=           0
         NFxFlg=           0 DoJE=T BraDBF=F KetDBF=T FulRan=T
         Omega=  0.000000  0.000000  1.000000  0.000000  0.000000 ICntrl=     500 IOpCl=  0
         NMat0=    1 NMatS0=    1 NMatT0=    0 NMatD0=    1 NMtDS0=    0 NMtDT0=    0
         I1Cent=           4 NGrid=           0.
 Petite list used in FoFCou.
 Requested convergence on RMS density matrix=1.00D-08 within 128 cycles.
 Requested convergence on MAX density matrix=1.00D-06.
 Requested convergence on             energy=1.00D-06.
 No special actions if energy rises.
 Keep R1 ints in memory in canonical form, NReq=1160190.
 SCF Done:  E(RHF) =  -753.627765697     A.U. after   13 cycles
             Convg  =    0.3039D-08             -V/T =  2.0008
 ExpMin= 1.67D-01 ExpMax= 1.38D+03 ExpMxC= 1.38D+03 IAcc=3 IRadAn=         5 AccDes= 0.00D+00
 HarFok:  IExCor=  205 AccDes= 0.00D+00 IRadAn=         5 IDoV=-2
 ScaDFX=  1.000000  1.000000  1.000000  1.000000
 Range of M.O.s used for correlation:     9    40
 NBasis=    40 NAE=    22 NBE=    22 NFC=     8 NFV=     0
 NROrb=     32 NOA=    14 NOB=    14 NVA=    18 NVB=    18
 Fully direct method using O(ONN) memory.
 JobTyp=1 Pass  1:  I=   9 to  22 NPSUse=  1 ParTrn=F ParDer=F DoDerP=T.
 Spin components of T(2) and E(2):
     alpha-alpha T2 =       0.1311652226D-01 E2=     -0.5646946824D-01
     alpha-beta  T2 =       0.9081780493D-01 E2=     -0.3278477656D+00
     beta-beta   T2 =       0.1311652226D-01 E2=     -0.5646946824D-01
 ANorm=    0.1056906263D+01
 E2 =    -0.4407867021D+00 EUMP2 =    -0.75406855239876D+03
          IDoAtm=1111
          Differentiating once with respect to electric field.
                with respect to dipole field.
          Differentiating once with respect to nuclear coordinates.
          Keep R1 ints in memory in canonical form, NReq=1137347.
          There are     1 degrees of freedom in the 1st order CPHF.  IDoFFX=0.
 LinEq1:  Iter=  0 NonCon=     1 RMS=1.20D-02 Max=1.52D-01
 AX will form     1 AO Fock derivatives at one time.
 LinEq1:  Iter=  1 NonCon=     1 RMS=2.36D-03 Max=1.89D-02
 LinEq1:  Iter=  2 NonCon=     1 RMS=7.55D-04 Max=8.52D-03
 LinEq1:  Iter=  3 NonCon=     1 RMS=2.45D-04 Max=2.24D-03
 LinEq1:  Iter=  4 NonCon=     1 RMS=5.39D-05 Max=5.01D-04
 LinEq1:  Iter=  5 NonCon=     1 RMS=1.39D-05 Max=1.66D-04
 LinEq1:  Iter=  6 NonCon=     1 RMS=4.45D-06 Max=2.34D-05
 LinEq1:  Iter=  7 NonCon=     1 RMS=7.30D-07 Max=6.37D-06
 LinEq1:  Iter=  8 NonCon=     1 RMS=7.96D-08 Max=4.91D-07
 LinEq1:  Iter=  9 NonCon=     1 RMS=1.09D-08 Max=1.23D-07
 LinEq1:  Iter= 10 NonCon=     1 RMS=1.82D-09 Max=1.21D-08
 LinEq1:  Iter= 11 NonCon=     1 RMS=2.08D-10 Max=1.62D-09
 LinEq1:  Iter= 12 NonCon=     0 RMS=2.52D-11 Max=1.85D-10
 Linear equations converged to 1.000D-10 1.000D-09 after    12 iterations.
 End of Minotr Frequency-dependent properties file   721 does not exist.
 End of Minotr Frequency-dependent properties file   722 does not exist.
 Calling FoFJK, ICntrl=      2127 FMM=F ISym2X=1 I1Cent= 0 IOpClX= 0 NMat=1 NMatS=1 NMatT=0.
 ***** Axes restored to original set *****
 -------------------------------------------------------------------
 Center     Atomic                   Forces (Hartrees/Bohr)
 Number     Number              X              Y              Z
 -------------------------------------------------------------------
      1       17           0.046418859   -0.080399821    0.000000000
      2        9          -0.005513880    0.009550321    0.090612951
      3        9          -0.035391098    0.061299179   -0.000000000
      4        9          -0.005513880    0.009550321   -0.090612951
 -------------------------------------------------------------------
 Cartesian Forces:  Max     0.090612951 RMS     0.050244069

 GradGradGradGradGradGradGradGradGradGradGradGradGradGradGradGradGradGrad
 Berny optimization.
 Using GEDIIS/GDIIS optimizer.
 Internal  Forces:  Max     0.091026636 RMS     0.052306507
 Search for a local minimum.
 Step number   2 out of a maximum of   20
 All quantities printed in internal units (Hartrees-Bohrs-Radians)
 Mixed Optimization -- RFO/linear search
 Update second derivatives using D2CorX and points    1    2
 DE= -6.27D-02 DEPred=-6.31D-02 R= 9.93D-01
 SS=  1.41D+00  RLast= 3.00D-01 DXNew= 5.0454D-01 9.0000D-01
 Trust test= 9.93D-01 RLast= 3.00D-01 DXMaxT set to 5.05D-01
 The second derivative matrix:
                          R1        R2        R3        A1        A2
           R1           0.55882
           R2          -0.02571   0.54757
           R3          -0.01604  -0.02571   0.55882
           A1           0.00679   0.00610   0.00679   0.24877
           A2           0.00679   0.00610   0.00679  -0.00123   0.24877
           A3          -0.03348  -0.02101  -0.03348   0.00294   0.00294
           A4          -0.00000  -0.00000  -0.00000   0.00000   0.00000
           D1          -0.00000  -0.00000  -0.00000   0.00000   0.00000
                          A3        A4        D1
           A3           0.02768
           A4           0.00000   0.02090
           D1           0.00000  -0.00000   0.02090
 ITU=  1  0
 Use linear search instead of GDIIS.
 Linear search step of   0.600 exceeds DXMaxT=   0.505 but not scaled.
 Quartic linear search produced a step of  2.00000.
 Iteration  1 RMS(Cart)=  0.12552016 RMS(Int)=  0.07334764
 Iteration  2 RMS(Cart)=  0.07011601 RMS(Int)=  0.00024373
 Iteration  3 RMS(Cart)=  0.00035013 RMS(Int)=  0.00000007
 Iteration  4 RMS(Cart)=  0.00000007 RMS(Int)=  0.00000000
 ClnCor:  largest displacement from symmetrization is 3.97D-08 for atom     1.
 Variable       Old X    -DE/DX   Delta X   Delta X   Delta X     New X
                                 (Linear)    (Quad)   (Total)
    R1        3.14257   0.09103   0.35139   0.00000   0.35139   3.49396
    R2        3.09084   0.07078   0.24794   0.00000   0.24794   3.33877
    R3        3.14257   0.09103   0.35139   0.00000   0.35139   3.49396
    A1        1.52444  -0.00714  -0.09271   0.00000  -0.09271   1.43173
    A2        1.52444  -0.00714  -0.09271   0.00000  -0.09271   1.43173
    A3        3.04888  -0.01428  -0.18543   0.00000  -0.18543   2.86345
    A4        3.14159  -0.00000   0.00000   0.00000  -0.00000   3.14159
    D1       -3.14159  -0.00000   0.00000   0.00000  -0.00000   3.14159
         Item               Value     Threshold  Converged?
 Maximum Force            0.091027     0.000450     NO 
 RMS     Force            0.052307     0.000300     NO 
 Maximum Displacement     0.321035     0.001800     NO 
 RMS     Displacement     0.188075     0.001200     NO 
 Predicted change in Energy=-7.464527D-04
 GradGradGradGradGradGradGradGradGradGradGradGradGradGradGradGradGradGrad

                          Input orientation:                          
 ---------------------------------------------------------------------
 Center     Atomic      Atomic             Coordinates (Angstroms)
 Number     Number       Type             X           Y           Z
 ---------------------------------------------------------------------
      1         17           0        0.458767    0.224052   -1.290000
      2          9           0        0.330615    0.446017    0.541072
      3          9           0       -0.424635    1.754148   -1.290000
      4          9           0        0.330615    0.446017   -3.121072
 ---------------------------------------------------------------------
                    Distance matrix (angstroms):
                    1          2          3          4
     1  Cl   0.000000
     2  F    1.848923   0.000000
     3  F    1.766803   2.373696   0.000000
     4  F    1.848923   3.662144   2.373696   0.000000
 Stoichiometry    ClF3
 Framework group  C2V[C2(FCl),SGV(F2)]
 Deg. of freedom     3
 Full point group                 C2V     NOp   4
 Largest Abelian subgroup         C2V     NOp   4
 Largest concise Abelian subgroup C2      NOp   2
                         Standard orientation:                         
 ---------------------------------------------------------------------
 Center     Atomic      Atomic             Coordinates (Angstroms)
 Number     Number       Type             X           Y           Z
 ---------------------------------------------------------------------
      1         17           0        0.000000   -0.000000    0.466243
      2          9           0        0.000000    1.831072    0.209940
      3          9           0       -0.000000    0.000000   -1.300560
      4          9           0       -0.000000   -1.831072    0.209940
 ---------------------------------------------------------------------
 Rotational constants (GHZ):     12.2044837      3.9669728      2.9938463
 Standard basis: 3-21G (6D, 7F)
 There are    19 symmetry adapted basis functions of A1  symmetry.
 There are     2 symmetry adapted basis functions of A2  symmetry.
 There are     7 symmetry adapted basis functions of B1  symmetry.
 There are    12 symmetry adapted basis functions of B2  symmetry.
 Integral buffers will be    131072 words long.
 Raffenetti 1 integral format.
 Two-electron integral symmetry is turned on.
    40 basis functions,    72 primitive gaussians,    40 cartesian basis functions
    22 alpha electrons       22 beta electrons
       nuclear repulsion energy       181.2246906436 Hartrees.



 Warning!  Cl atom    1 may be hypervalent but has no d functions.



 NAtoms=    4 NActive=    4 NUniq=    3 SFac= 1.78D+00 NAtFMM=   60 NAOKFM=F Big=F
 One-electron integrals computed using PRISM.
 NBasis=    40 RedAO= T  NBF=    19     2     7    12
 NBsUse=    40 1.00D-06 NBFU=    19     2     7    12
 Initial guess read from the read-write file.
 B after Tr=     0.000000    0.000000    0.000000
         Rot=    1.000000   -0.000000   -0.000000    0.000000 Ang=   0.00 deg.
 Initial guess orbital symmetries:
       Occupied  (A1) (A1) (B2) (A1) (A1) (B2) (A1) (B1) (A1) (A1)
                 (B2) (A1) (B2) (B1) (A1) (B2) (B1) (A2) (B2) (A1)
                 (B1) (A1)
       Virtual   (A1) (B2) (A1) (B1) (A1) (B2) (B2) (B1) (A2) (A1)
                 (B1) (A1) (A1) (B2) (B2) (A1) (A1) (B2)
 Harris functional with IExCor=  205 diagonalized for initial guess.
 ExpMin= 1.67D-01 ExpMax= 1.38D+03 ExpMxC= 1.38D+03 IAcc=1 IRadAn=         1 AccDes= 0.00D+00
 HarFok:  IExCor=  205 AccDes= 0.00D+00 IRadAn=         1 IDoV= 1
 ScaDFX=  1.000000  1.000000  1.000000  1.000000
 FoFCou: FMM=F IPFlag=           0 FMFlag=      100000 FMFlg1=           0
         NFxFlg=           0 DoJE=T BraDBF=F KetDBF=T FulRan=T
         Omega=  0.000000  0.000000  1.000000  0.000000  0.000000 ICntrl=     500 IOpCl=  0
         NMat0=    1 NMatS0=    1 NMatT0=    0 NMatD0=    1 NMtDS0=    0 NMtDT0=    0
         I1Cent=           4 NGrid=           0.
 Petite list used in FoFCou.
 Requested convergence on RMS density matrix=1.00D-08 within 128 cycles.
 Requested convergence on MAX density matrix=1.00D-06.
 Requested convergence on             energy=1.00D-06.
 No special actions if energy rises.
 Keep R1 ints in memory in canonical form, NReq=1160190.
 SCF Done:  E(RHF) =  -753.629482068     A.U. after   14 cycles
             Convg  =    0.4587D-08             -V/T =  2.0019
 ExpMin= 1.67D-01 ExpMax= 1.38D+03 ExpMxC= 1.38D+03 IAcc=3 IRadAn=         5 AccDes= 0.00D+00
 HarFok:  IExCor=  205 AccDes= 0.00D+00 IRadAn=         5 IDoV=-2
 ScaDFX=  1.000000  1.000000  1.000000  1.000000
 Range of M.O.s used for correlation:     9    40
 NBasis=    40 NAE=    22 NBE=    22 NFC=     8 NFV=     0
 NROrb=     32 NOA=    14 NOB=    14 NVA=    18 NVB=    18
 Fully direct method using O(ONN) memory.
 JobTyp=1 Pass  1:  I=   9 to  22 NPSUse=  1 ParTrn=F ParDer=F DoDerP=T.
 Spin components of T(2) and E(2):
     alpha-alpha T2 =       0.1439296414D-01 E2=     -0.5840187531D-01
     alpha-beta  T2 =       0.1255828640D+00 E2=     -0.3581225619D+00
     beta-beta   T2 =       0.1439296414D-01 E2=     -0.5840187531D-01
 ANorm=    0.1074415558D+01
 E2 =    -0.4749263125D+00 EUMP2 =    -0.75410440838050D+03
          IDoAtm=1111
          Differentiating once with respect to electric field.
                with respect to dipole field.
          Differentiating once with respect to nuclear coordinates.
          Keep R1 ints in memory in canonical form, NReq=1137347.
          There are     1 degrees of freedom in the 1st order CPHF.  IDoFFX=0.
 LinEq1:  Iter=  0 NonCon=     1 RMS=1.50D-02 Max=1.66D-01
 AX will form     1 AO Fock derivatives at one time.
 LinEq1:  Iter=  1 NonCon=     1 RMS=3.39D-03 Max=2.54D-02
 LinEq1:  Iter=  2 NonCon=     1 RMS=1.15D-03 Max=1.03D-02
 LinEq1:  Iter=  3 NonCon=     1 RMS=3.55D-04 Max=2.46D-03
 LinEq1:  Iter=  4 NonCon=     1 RMS=9.18D-05 Max=1.28D-03
 LinEq1:  Iter=  5 NonCon=     1 RMS=1.53D-05 Max=1.41D-04
 LinEq1:  Iter=  6 NonCon=     1 RMS=2.50D-06 Max=1.93D-05
 LinEq1:  Iter=  7 NonCon=     1 RMS=4.41D-07 Max=3.78D-06
 LinEq1:  Iter=  8 NonCon=     1 RMS=2.58D-07 Max=2.95D-06
 LinEq1:  Iter=  9 NonCon=     1 RMS=6.16D-08 Max=4.01D-07
 LinEq1:  Iter= 10 NonCon=     1 RMS=7.83D-09 Max=5.06D-08
 LinEq1:  Iter= 11 NonCon=     1 RMS=1.13D-09 Max=8.38D-09
 LinEq1:  Iter= 12 NonCon=     1 RMS=1.13D-10 Max=1.01D-09
 LinEq1:  Iter= 13 NonCon=     0 RMS=7.33D-12 Max=3.92D-11
 Linear equations converged to 1.000D-10 1.000D-09 after    13 iterations.
 End of Minotr Frequency-dependent properties file   721 does not exist.
 End of Minotr Frequency-dependent properties file   722 does not exist.
 Calling FoFJK, ICntrl=      2127 FMM=F ISym2X=1 I1Cent= 0 IOpClX= 0 NMat=1 NMatS=1 NMatT=0.
 ***** Axes restored to original set *****
 -------------------------------------------------------------------
 Center     Atomic                   Forces (Hartrees/Bohr)
 Number     Number              X              Y              Z
 -------------------------------------------------------------------
      1       17          -0.000075262    0.000130357    0.000000000
      2        9           0.001131758   -0.001960262    0.002585132
      3        9          -0.002188253    0.003790166    0.000000000
      4        9           0.001131758   -0.001960262   -0.002585132
 -------------------------------------------------------------------
 Cartesian Forces:  Max     0.003790166 RMS     0.001888326

 GradGradGradGradGradGradGradGradGradGradGradGradGradGradGradGradGradGrad
 Berny optimization.
 Using GEDIIS/GDIIS optimizer.
 Internal  Forces:  Max     0.006056241 RMS     0.003245449
 Search for a local minimum.
 Step number   3 out of a maximum of   20
 All quantities printed in internal units (Hartrees-Bohrs-Radians)
 Mixed Optimization -- RFO/linear search
 Update second derivatives using D2CorX and points    2    3
 The second derivative matrix:
                          R1        R2        R3        A1        A2
           R1           0.44431
           R2          -0.08816   0.51561
           R3          -0.13055  -0.08816   0.44431
           A1           0.01500   0.01013   0.01500   0.24828
           A2           0.01500   0.01013   0.01500  -0.00172   0.24828
           A3          -0.01707  -0.01295  -0.01707   0.00195   0.00195
           A4           0.00000   0.00000   0.00000   0.00000   0.00000
           D1          -0.00000  -0.00000  -0.00000   0.00000   0.00000
                          A3        A4        D1
           A3           0.02571
           A4          -0.00000   0.02090
           D1          -0.00000  -0.00000   0.02090
 ITU=  0  1  0
 Use linear search instead of GDIIS.
     Eigenvalues ---    0.02090   0.10186   0.25000   0.25435   0.57486
     Eigenvalues ---    0.57510
 RFO step:  Lambda=-5.85172091D-04 EMin= 2.08950907D-02
 Quartic linear search produced a step of  0.02253.
 Iteration  1 RMS(Cart)=  0.03826443 RMS(Int)=  0.00065638
 Iteration  2 RMS(Cart)=  0.00067258 RMS(Int)=  0.00000009
 Iteration  3 RMS(Cart)=  0.00000012 RMS(Int)=  0.00000001
 ClnCor:  largest displacement from symmetrization is 5.02D-09 for atom     1.
 Variable       Old X    -DE/DX   Delta X   Delta X   Delta X     New X
                                 (Linear)    (Quad)   (Total)
    R1        3.49396   0.00225   0.00792   0.00669   0.01461   3.50856
    R2        3.33877   0.00438   0.00559   0.00942   0.01501   3.35378
    R3        3.49396   0.00225   0.00792   0.00669   0.01461   3.50856
    A1        1.43173   0.00303  -0.00209   0.02963   0.02754   1.45926
    A2        1.43173   0.00303  -0.00209   0.02963   0.02754   1.45926
    A3        2.86345   0.00606  -0.00418   0.05925   0.05508   2.91853
    A4        3.14159  -0.00000  -0.00000  -0.00000  -0.00000   3.14159
    D1       -3.14159  -0.00000   0.00000  -0.00000  -0.00000   3.14159
         Item               Value     Threshold  Converged?
 Maximum Force            0.006056     0.000450     NO 
 RMS     Force            0.003245     0.000300     NO 
 Maximum Displacement     0.050379     0.001800     NO 
 RMS     Displacement     0.038390     0.001200     NO 
 Predicted change in Energy=-3.190575D-04
 GradGradGradGradGradGradGradGradGradGradGradGradGradGradGradGradGradGrad

                          Input orientation:                          
 ---------------------------------------------------------------------
 Center     Atomic      Atomic             Coordinates (Angstroms)
 Number     Number       Type             X           Y           Z
 ---------------------------------------------------------------------
      1         17           0        0.447346    0.243833   -1.290000
      2          9           0        0.344021    0.422797    0.555116
      3          9           0       -0.440026    1.780807   -1.290000
      4          9           0        0.344021    0.422797   -3.135116
 ---------------------------------------------------------------------
                    Distance matrix (angstroms):
                    1          2          3          4
     1  Cl   0.000000
     2  F    1.856652   0.000000
     3  F    1.774745   2.421441   0.000000
     4  F    1.856652   3.690231   2.421441   0.000000
 Stoichiometry    ClF3
 Framework group  C2V[C2(FCl),SGV(F2)]
 Deg. of freedom     3
 Full point group                 C2V     NOp   4
 Largest Abelian subgroup         C2V     NOp   4
 Largest concise Abelian subgroup C2      NOp   2
                         Standard orientation:                         
 ---------------------------------------------------------------------
 Center     Atomic      Atomic             Coordinates (Angstroms)
 Number     Number       Type             X           Y           Z
 ---------------------------------------------------------------------
      1         17           0       -0.000000    0.000000    0.447554
      2          9           0       -0.000000    1.845116    0.240905
      3          9           0        0.000000   -0.000000   -1.327191
      4          9           0       -0.000000   -1.845116    0.240905
 ---------------------------------------------------------------------
 Rotational constants (GHZ):     11.8432822      3.9068155      2.9377290
 Standard basis: 3-21G (6D, 7F)
 There are    19 symmetry adapted basis functions of A1  symmetry.
 There are     2 symmetry adapted basis functions of A2  symmetry.
 There are     7 symmetry adapted basis functions of B1  symmetry.
 There are    12 symmetry adapted basis functions of B2  symmetry.
 Integral buffers will be    131072 words long.
 Raffenetti 1 integral format.
 Two-electron integral symmetry is turned on.
    40 basis functions,    72 primitive gaussians,    40 cartesian basis functions
    22 alpha electrons       22 beta electrons
       nuclear repulsion energy       179.8538613958 Hartrees.
 NAtoms=    4 NActive=    4 NUniq=    3 SFac= 1.78D+00 NAtFMM=   60 NAOKFM=F Big=F
 One-electron integrals computed using PRISM.
 NBasis=    40 RedAO= T  NBF=    19     2     7    12
 NBsUse=    40 1.00D-06 NBFU=    19     2     7    12
 Initial guess read from the read-write file.
 B after Tr=     0.000000    0.000000    0.000000
         Rot=    1.000000    0.000000    0.000000    0.000000 Ang=   0.00 deg.
 Initial guess orbital symmetries:
       Occupied  (A1) (A1) (B2) (A1) (A1) (B2) (A1) (B1) (A1) (A1)
                 (B2) (A1) (B1) (B2) (A1) (B2) (B1) (A2) (B2) (A1)
                 (B1) (A1)
       Virtual   (A1) (B2) (A1) (B1) (A1) (B2) (B2) (B1) (A2) (A1)
                 (B1) (A1) (A1) (B2) (B2) (A1) (A1) (B2)
 Harris functional with IExCor=  205 diagonalized for initial guess.
 ExpMin= 1.67D-01 ExpMax= 1.38D+03 ExpMxC= 1.38D+03 IAcc=1 IRadAn=         1 AccDes= 0.00D+00
 HarFok:  IExCor=  205 AccDes= 0.00D+00 IRadAn=         1 IDoV= 1
 ScaDFX=  1.000000  1.000000  1.000000  1.000000
 FoFCou: FMM=F IPFlag=           0 FMFlag=      100000 FMFlg1=           0
         NFxFlg=           0 DoJE=T BraDBF=F KetDBF=T FulRan=T
         Omega=  0.000000  0.000000  1.000000  0.000000  0.000000 ICntrl=     500 IOpCl=  0
         NMat0=    1 NMatS0=    1 NMatT0=    0 NMatD0=    1 NMtDS0=    0 NMtDT0=    0
         I1Cent=           4 NGrid=           0.
 Petite list used in FoFCou.
 Requested convergence on RMS density matrix=1.00D-08 within 128 cycles.
 Requested convergence on MAX density matrix=1.00D-06.
 Requested convergence on             energy=1.00D-06.
 No special actions if energy rises.
 Keep R1 ints in memory in canonical form, NReq=1160190.
 SCF Done:  E(RHF) =  -753.627538613     A.U. after   12 cycles
             Convg  =    0.2460D-08             -V/T =  2.0020
 ExpMin= 1.67D-01 ExpMax= 1.38D+03 ExpMxC= 1.38D+03 IAcc=3 IRadAn=         5 AccDes= 0.00D+00
 HarFok:  IExCor=  205 AccDes= 0.00D+00 IRadAn=         5 IDoV=-2
 ScaDFX=  1.000000  1.000000  1.000000  1.000000
 Range of M.O.s used for correlation:     9    40
 NBasis=    40 NAE=    22 NBE=    22 NFC=     8 NFV=     0
 NROrb=     32 NOA=    14 NOB=    14 NVA=    18 NVB=    18
 Fully direct method using O(ONN) memory.
 JobTyp=1 Pass  1:  I=   9 to  22 NPSUse=  1 ParTrn=F ParDer=F DoDerP=T.
 Spin components of T(2) and E(2):
     alpha-alpha T2 =       0.1457089494D-01 E2=     -0.5860443256D-01
     alpha-beta  T2 =       0.1278638244D+00 E2=     -0.3599450215D+00
     beta-beta   T2 =       0.1457089494D-01 E2=     -0.5860443256D-01
 ANorm=    0.1075641954D+01
 E2 =    -0.4771538866D+00 EUMP2 =    -0.75410469249941D+03
          IDoAtm=1111
          Differentiating once with respect to electric field.
                with respect to dipole field.
          Differentiating once with respect to nuclear coordinates.
          Keep R1 ints in memory in canonical form, NReq=1137347.
          There are     1 degrees of freedom in the 1st order CPHF.  IDoFFX=0.
 LinEq1:  Iter=  0 NonCon=     1 RMS=1.56D-02 Max=1.81D-01
 AX will form     1 AO Fock derivatives at one time.
 LinEq1:  Iter=  1 NonCon=     1 RMS=3.58D-03 Max=2.86D-02
 LinEq1:  Iter=  2 NonCon=     1 RMS=1.19D-03 Max=1.06D-02
 LinEq1:  Iter=  3 NonCon=     1 RMS=3.79D-04 Max=2.98D-03
 LinEq1:  Iter=  4 NonCon=     1 RMS=9.59D-05 Max=1.27D-03
 LinEq1:  Iter=  5 NonCon=     1 RMS=1.54D-05 Max=1.16D-04
 LinEq1:  Iter=  6 NonCon=     1 RMS=4.46D-06 Max=6.33D-05
 LinEq1:  Iter=  7 NonCon=     1 RMS=2.24D-06 Max=2.66D-05
 LinEq1:  Iter=  8 NonCon=     1 RMS=4.83D-07 Max=4.18D-06
 LinEq1:  Iter=  9 NonCon=     1 RMS=7.49D-08 Max=4.91D-07
 LinEq1:  Iter= 10 NonCon=     1 RMS=8.67D-09 Max=5.64D-08
 LinEq1:  Iter= 11 NonCon=     1 RMS=1.27D-09 Max=9.70D-09
 LinEq1:  Iter= 12 NonCon=     1 RMS=1.25D-10 Max=1.15D-09
 LinEq1:  Iter= 13 NonCon=     0 RMS=7.86D-12 Max=4.26D-11
 Linear equations converged to 1.000D-10 1.000D-09 after    13 iterations.
 End of Minotr Frequency-dependent properties file   721 does not exist.
 End of Minotr Frequency-dependent properties file   722 does not exist.
 Calling FoFJK, ICntrl=      2127 FMM=F ISym2X=1 I1Cent= 0 IOpClX= 0 NMat=1 NMatS=1 NMatT=0.
 ***** Axes restored to original set *****
 -------------------------------------------------------------------
 Center     Atomic                   Forces (Hartrees/Bohr)
 Number     Number              X              Y              Z
 -------------------------------------------------------------------
      1       17          -0.000406202    0.000703562   -0.000000000
      2        9          -0.000120928    0.000209453    0.000511236
      3        9           0.000648057   -0.001122468    0.000000000
      4        9          -0.000120928    0.000209453   -0.000511236
 -------------------------------------------------------------------
 Cartesian Forces:  Max     0.001122468 RMS     0.000498299

 GradGradGradGradGradGradGradGradGradGradGradGradGradGradGradGradGradGrad
 Berny optimization.
 Using GEDIIS/GDIIS optimizer.
 Internal  Forces:  Max     0.001296114 RMS     0.000562195
 Search for a local minimum.
 Step number   4 out of a maximum of   20
 All quantities printed in internal units (Hartrees-Bohrs-Radians)
 Mixed Optimization -- En-DIIS/RFO-DIIS
 Update second derivatives using D2CorX and points    3    4
 DE= -2.84D-04 DEPred=-3.19D-04 R= 8.90D-01
 SS=  1.41D+00  RLast= 7.21D-02 DXNew= 8.4853D-01 2.1637D-01
 Trust test= 8.90D-01 RLast= 7.21D-02 DXMaxT set to 5.05D-01
 The second derivative matrix:
                          R1        R2        R3        A1        A2
           R1           0.43285
           R2          -0.09889   0.52346
           R3          -0.14201  -0.09889   0.43285
           A1          -0.01440  -0.02243  -0.01440   0.17427
           A2          -0.01440  -0.02243  -0.01440  -0.07573   0.17427
           A3          -0.00471   0.03523  -0.00471   0.02335   0.02335
           A4           0.00000   0.00000   0.00000   0.00000   0.00000
           D1           0.00000   0.00000   0.00000   0.00000   0.00000
                          A3        A4        D1
           A3           0.08729
           A4          -0.00000   0.02090
           D1           0.00000  -0.00000   0.02090
 ITU=  1  0  1  0
 Use linear search instead of GDIIS.
     Eigenvalues ---    0.02090   0.11915   0.22753   0.25000   0.57486
     Eigenvalues ---    0.58980
 RFO step:  Lambda=-3.33199233D-06 EMin= 2.08950907D-02
 Quartic linear search produced a step of -0.06499.
 Iteration  1 RMS(Cart)=  0.00265193 RMS(Int)=  0.00000279
 Iteration  2 RMS(Cart)=  0.00000296 RMS(Int)=  0.00000000
 Iteration  3 RMS(Cart)=  0.00000000 RMS(Int)=  0.00000000
 ClnCor:  largest displacement from symmetrization is 6.39D-09 for atom     1.
 Variable       Old X    -DE/DX   Delta X   Delta X   Delta X     New X
                                 (Linear)    (Quad)   (Total)
    R1        3.50856   0.00053  -0.00095   0.00180   0.00085   3.50942
    R2        3.35378  -0.00130  -0.00098  -0.00112  -0.00209   3.35169
    R3        3.50856   0.00053  -0.00095   0.00180   0.00085   3.50942
    A1        1.45926  -0.00021  -0.00179   0.00001  -0.00178   1.45748
    A2        1.45926  -0.00021  -0.00179   0.00001  -0.00178   1.45748
    A3        2.91853  -0.00043  -0.00358   0.00002  -0.00356   2.91496
    A4        3.14159  -0.00000   0.00000   0.00000  -0.00000   3.14159
    D1        3.14159  -0.00000   0.00000   0.00000   0.00000   3.14159
         Item               Value     Threshold  Converged?
 Maximum Force            0.001296     0.000450     NO 
 RMS     Force            0.000562     0.000300     NO 
 Maximum Displacement     0.004089     0.001800     NO 
 RMS     Displacement     0.002653     0.001200     NO 
 Predicted change in Energy=-2.832604D-06
 GradGradGradGradGradGradGradGradGradGradGradGradGradGradGradGradGradGrad

                          Input orientation:                          
 ---------------------------------------------------------------------
 Center     Atomic      Atomic             Coordinates (Angstroms)
 Number     Number       Type             X           Y           Z
 ---------------------------------------------------------------------
      1         17           0        0.448042    0.242627   -1.290000
      2          9           0        0.343049    0.424481    0.555193
      3          9           0       -0.438777    1.778644   -1.290000
      4          9           0        0.343049    0.424481   -3.135193
 ---------------------------------------------------------------------
                    Distance matrix (angstroms):
                    1          2          3          4
     1  Cl   0.000000
     2  F    1.857103   0.000000
     3  F    1.773639   2.418624   0.000000
     4  F    1.857103   3.690386   2.418624   0.000000
 Stoichiometry    ClF3
 Framework group  C2V[C2(FCl),SGV(F2)]
 Deg. of freedom     3
 Full point group                 C2V     NOp   4
 Largest Abelian subgroup         C2V     NOp   4
 Largest concise Abelian subgroup C2      NOp   2
                         Standard orientation:                         
 ---------------------------------------------------------------------
 Center     Atomic      Atomic             Coordinates (Angstroms)
 Number     Number       Type             X           Y           Z
 ---------------------------------------------------------------------
      1         17           0        0.000000   -0.000000    0.448693
      2          9           0        0.000000    1.845193    0.238707
      3          9           0       -0.000000    0.000000   -1.324945
      4          9           0       -0.000000   -1.845193    0.238707
 ---------------------------------------------------------------------
 Rotational constants (GHZ):     11.8759879      3.9064883      2.9395519
 Standard basis: 3-21G (6D, 7F)
 There are    19 symmetry adapted basis functions of A1  symmetry.
 There are     2 symmetry adapted basis functions of A2  symmetry.
 There are     7 symmetry adapted basis functions of B1  symmetry.
 There are    12 symmetry adapted basis functions of B2  symmetry.
 Integral buffers will be    131072 words long.
 Raffenetti 1 integral format.
 Two-electron integral symmetry is turned on.
    40 basis functions,    72 primitive gaussians,    40 cartesian basis functions
    22 alpha electrons       22 beta electrons
       nuclear repulsion energy       179.9018682254 Hartrees.
 NAtoms=    4 NActive=    4 NUniq=    3 SFac= 1.78D+00 NAtFMM=   60 NAOKFM=F Big=F
 One-electron integrals computed using PRISM.
 NBasis=    40 RedAO= T  NBF=    19     2     7    12
 NBsUse=    40 1.00D-06 NBFU=    19     2     7    12
 Initial guess read from the read-write file.
 B after Tr=     0.000000   -0.000000    0.000000
         Rot=    1.000000   -0.000000    0.000000    0.000000 Ang=   0.00 deg.
 Initial guess orbital symmetries:
       Occupied  (A1) (A1) (B2) (A1) (A1) (A1) (B2) (B1) (A1) (A1)
                 (B2) (A1) (B1) (B2) (A1) (B2) (B1) (A2) (B2) (A1)
                 (B1) (A1)
       Virtual   (A1) (B2) (A1) (B1) (A1) (B2) (B2) (B1) (A2) (A1)
                 (B1) (A1) (A1) (B2) (B2) (A1) (A1) (B2)
 Requested convergence on RMS density matrix=1.00D-08 within 128 cycles.
 Requested convergence on MAX density matrix=1.00D-06.
 Requested convergence on             energy=1.00D-06.
 No special actions if energy rises.
 Keep R1 ints in memory in canonical form, NReq=1160190.
 SCF Done:  E(RHF) =  -753.627609707     A.U. after   10 cycles
             Convg  =    0.4093D-08             -V/T =  2.0019
 ExpMin= 1.67D-01 ExpMax= 1.38D+03 ExpMxC= 1.38D+03 IAcc=3 IRadAn=         5 AccDes= 0.00D+00
 HarFok:  IExCor=  205 AccDes= 0.00D+00 IRadAn=         5 IDoV=-2
 ScaDFX=  1.000000  1.000000  1.000000  1.000000
 Range of M.O.s used for correlation:     9    40
 NBasis=    40 NAE=    22 NBE=    22 NFC=     8 NFV=     0
 NROrb=     32 NOA=    14 NOB=    14 NVA=    18 NVB=    18
 Fully direct method using O(ONN) memory.
 JobTyp=1 Pass  1:  I=   9 to  22 NPSUse=  1 ParTrn=F ParDer=F DoDerP=T.
 Spin components of T(2) and E(2):
     alpha-alpha T2 =       0.1456046386D-01 E2=     -0.5859254226D-01
     alpha-beta  T2 =       0.1278282916D+00 E2=     -0.3599018996D+00
     beta-beta   T2 =       0.1456046386D-01 E2=     -0.5859254226D-01
 ANorm=    0.1075615740D+01
 E2 =    -0.4770869841D+00 EUMP2 =    -0.75410469669088D+03
          IDoAtm=1111
          Differentiating once with respect to electric field.
                with respect to dipole field.
          Differentiating once with respect to nuclear coordinates.
          Keep R1 ints in memory in canonical form, NReq=1137347.
          There are     1 degrees of freedom in the 1st order CPHF.  IDoFFX=0.
 LinEq1:  Iter=  0 NonCon=     1 RMS=1.56D-02 Max=1.80D-01
 AX will form     1 AO Fock derivatives at one time.
 LinEq1:  Iter=  1 NonCon=     1 RMS=3.57D-03 Max=2.85D-02
 LinEq1:  Iter=  2 NonCon=     1 RMS=1.19D-03 Max=1.05D-02
 LinEq1:  Iter=  3 NonCon=     1 RMS=3.77D-04 Max=2.96D-03
 LinEq1:  Iter=  4 NonCon=     1 RMS=9.53D-05 Max=1.26D-03
 LinEq1:  Iter=  5 NonCon=     1 RMS=1.54D-05 Max=1.17D-04
 LinEq1:  Iter=  6 NonCon=     1 RMS=4.87D-06 Max=7.05D-05
 LinEq1:  Iter=  7 NonCon=     1 RMS=2.32D-06 Max=2.72D-05
 LinEq1:  Iter=  8 NonCon=     1 RMS=4.83D-07 Max=4.25D-06
 LinEq1:  Iter=  9 NonCon=     1 RMS=7.46D-08 Max=4.85D-07
 LinEq1:  Iter= 10 NonCon=     1 RMS=8.65D-09 Max=5.63D-08
 LinEq1:  Iter= 11 NonCon=     1 RMS=1.26D-09 Max=9.65D-09
 LinEq1:  Iter= 12 NonCon=     1 RMS=1.24D-10 Max=1.14D-09
 LinEq1:  Iter= 13 NonCon=     0 RMS=7.84D-12 Max=4.26D-11
 Linear equations converged to 1.000D-10 1.000D-09 after    13 iterations.
 End of Minotr Frequency-dependent properties file   721 does not exist.
 End of Minotr Frequency-dependent properties file   722 does not exist.
 Calling FoFJK, ICntrl=      2127 FMM=F ISym2X=1 I1Cent= 0 IOpClX= 0 NMat=1 NMatS=1 NMatT=0.
 ***** Axes restored to original set *****
 -------------------------------------------------------------------
 Center     Atomic                   Forces (Hartrees/Bohr)
 Number     Number              X              Y              Z
 -------------------------------------------------------------------
      1       17          -0.000357494    0.000619198    0.000000000
      2        9          -0.000025206    0.000043658    0.000440252
      3        9           0.000407907   -0.000706515    0.000000000
      4        9          -0.000025206    0.000043658   -0.000440252
 -------------------------------------------------------------------
 Cartesian Forces:  Max     0.000706515 RMS     0.000361650

 GradGradGradGradGradGradGradGradGradGradGradGradGradGradGradGradGradGrad
 Berny optimization.
 Using GEDIIS/GDIIS optimizer.
 Internal  Forces:  Max     0.000815814 RMS     0.000363710
 Search for a local minimum.
 Step number   5 out of a maximum of   20
 All quantities printed in internal units (Hartrees-Bohrs-Radians)
 Mixed Optimization -- En-DIIS/RFO-DIIS
 Swaping is turned off.
 Update second derivatives using D2CorX and points    3    4    5
 DE= -4.19D-06 DEPred=-2.83D-06 R= 1.48D+00
 SS=  1.41D+00  RLast= 4.99D-03 DXNew= 8.4853D-01 1.4960D-02
 Trust test= 1.48D+00 RLast= 4.99D-03 DXMaxT set to 5.05D-01
 The second derivative matrix:
                          R1        R2        R3        A1        A2
           R1           0.38726
           R2           0.00278   0.30960
           R3          -0.18760   0.00278   0.38726
           A1          -0.00133  -0.04165  -0.00133   0.17807
           A2          -0.00133  -0.04165  -0.00133  -0.07193   0.17807
           A3           0.02171  -0.00387   0.02171   0.03084   0.03084
           A4           0.00000  -0.00000   0.00000  -0.00000  -0.00000
           D1           0.00000  -0.00000   0.00000   0.00000   0.00000
                          A3        A4        D1
           A3           0.10205
           A4          -0.00000   0.02090
           D1          -0.00000  -0.00000   0.02090
 ITU=  1  1  0  1  0
     Eigenvalues ---    0.02090   0.12856   0.20763   0.25000   0.31760
     Eigenvalues ---    0.57486
 En-DIIS/RFO-DIIS IScMMF=        0 using points:     5    4
 RFO step:  Lambda=-2.12890445D-06.
 DidBck=F Rises=F RFO-DIIS coefs:    1.71448   -0.71448
 Iteration  1 RMS(Cart)=  0.00178406 RMS(Int)=  0.00000038
 Iteration  2 RMS(Cart)=  0.00000054 RMS(Int)=  0.00000000
 ClnCor:  largest displacement from symmetrization is 1.13D-08 for atom     1.
 Variable       Old X    -DE/DX   Delta X   Delta X   Delta X     New X
                                  (DIIS)     (GDIIS)  (Total)
    R1        3.50942   0.00044   0.00061   0.00176   0.00237   3.51178
    R2        3.35169  -0.00082  -0.00149  -0.00134  -0.00283   3.34886
    R3        3.50942   0.00044   0.00061   0.00176   0.00237   3.51178
    A1        1.45748  -0.00000  -0.00127   0.00075  -0.00052   1.45696
    A2        1.45748  -0.00000  -0.00127   0.00075  -0.00052   1.45696
    A3        2.91496  -0.00000  -0.00255   0.00150  -0.00104   2.91392
    A4        3.14159  -0.00000  -0.00000  -0.00000   0.00000   3.14159
    D1        3.14159  -0.00000   0.00000  -0.00000   0.00000  -3.14159
         Item               Value     Threshold  Converged?
 Maximum Force            0.000816     0.000450     NO 
 RMS     Force            0.000364     0.000300     NO 
 Maximum Displacement     0.002743     0.001800     NO 
 RMS     Displacement     0.001784     0.001200     NO 
 Predicted change in Energy=-2.203565D-06
 GradGradGradGradGradGradGradGradGradGradGradGradGradGradGradGradGradGrad

                          Input orientation:                          
 ---------------------------------------------------------------------
 Center     Atomic      Atomic             Coordinates (Angstroms)
 Number     Number       Type             X           Y           Z
 ---------------------------------------------------------------------
      1         17           0        0.448131    0.242473   -1.290000
      2          9           0        0.342585    0.425284    0.556327
      3          9           0       -0.437939    1.777192   -1.290000
      4          9           0        0.342585    0.425284   -3.136327
 ---------------------------------------------------------------------
                    Distance matrix (angstroms):
                    1          2          3          4
     1  Cl   0.000000
     2  F    1.858355   0.000000
     3  F    1.772140   2.417808   0.000000
     4  F    1.858355   3.692653   2.417808   0.000000
 Stoichiometry    ClF3
 Framework group  C2V[C2(FCl),SGV(F2)]
 Deg. of freedom     3
 Full point group                 C2V     NOp   4
 Largest Abelian subgroup         C2V     NOp   4
 Largest concise Abelian subgroup C2      NOp   2
                         Standard orientation:                         
 ---------------------------------------------------------------------
 Center     Atomic      Atomic             Coordinates (Angstroms)
 Number     Number       Type             X           Y           Z
 ---------------------------------------------------------------------
      1         17           0        0.000000    0.000000    0.448839
      2          9           0       -0.000000    1.846327    0.237747
      3          9           0       -0.000000   -0.000000   -1.323301
      4          9           0        0.000000   -1.846327    0.237747
 ---------------------------------------------------------------------
 Rotational constants (GHZ):     11.9027017      3.9016921      2.9384662
 Standard basis: 3-21G (6D, 7F)
 There are    19 symmetry adapted basis functions of A1  symmetry.
 There are     2 symmetry adapted basis functions of A2  symmetry.
 There are     7 symmetry adapted basis functions of B1  symmetry.
 There are    12 symmetry adapted basis functions of B2  symmetry.
 Integral buffers will be    131072 words long.
 Raffenetti 1 integral format.
 Two-electron integral symmetry is turned on.
    40 basis functions,    72 primitive gaussians,    40 cartesian basis functions
    22 alpha electrons       22 beta electrons
       nuclear repulsion energy       179.8865682492 Hartrees.
 NAtoms=    4 NActive=    4 NUniq=    3 SFac= 1.78D+00 NAtFMM=   60 NAOKFM=F Big=F
 One-electron integrals computed using PRISM.
 NBasis=    40 RedAO= T  NBF=    19     2     7    12
 NBsUse=    40 1.00D-06 NBFU=    19     2     7    12
 Initial guess read from the read-write file.
 B after Tr=     0.000000    0.000000    0.000000
         Rot=    1.000000    0.000000    0.000000    0.000000 Ang=   0.00 deg.
 Initial guess orbital symmetries:
       Occupied  (A1) (A1) (B2) (A1) (A1) (A1) (B2) (B1) (A1) (A1)
                 (B2) (A1) (B1) (B2) (A1) (B2) (B1) (A2) (B2) (A1)
                 (B1) (A1)
       Virtual   (A1) (B2) (A1) (B1) (A1) (B2) (B2) (B1) (A2) (A1)
                 (B1) (A1) (A1) (B2) (B2) (A1) (A1) (B2)
 Requested convergence on RMS density matrix=1.00D-08 within 128 cycles.
 Requested convergence on MAX density matrix=1.00D-06.
 Requested convergence on             energy=1.00D-06.
 No special actions if energy rises.
 Keep R1 ints in memory in canonical form, NReq=1160190.
 SCF Done:  E(RHF) =  -753.627579449     A.U. after   10 cycles
             Convg  =    0.3889D-08             -V/T =  2.0019
 ExpMin= 1.67D-01 ExpMax= 1.38D+03 ExpMxC= 1.38D+03 IAcc=3 IRadAn=         5 AccDes= 0.00D+00
 HarFok:  IExCor=  205 AccDes= 0.00D+00 IRadAn=         5 IDoV=-2
 ScaDFX=  1.000000  1.000000  1.000000  1.000000
 Range of M.O.s used for correlation:     9    40
 NBasis=    40 NAE=    22 NBE=    22 NFC=     8 NFV=     0
 NROrb=     32 NOA=    14 NOB=    14 NVA=    18 NVB=    18
 Fully direct method using O(ONN) memory.
 JobTyp=1 Pass  1:  I=   9 to  22 NPSUse=  1 ParTrn=F ParDer=F DoDerP=T.
 Spin components of T(2) and E(2):
     alpha-alpha T2 =       0.1455701915D-01 E2=     -0.5858791806D-01
     alpha-beta  T2 =       0.1279130841D+00 E2=     -0.3599444725D+00
     beta-beta   T2 =       0.1455701915D-01 E2=     -0.5858791806D-01
 ANorm=    0.1075651952D+01
 E2 =    -0.4771203086D+00 EUMP2 =    -0.75410469975798D+03
          IDoAtm=1111
          Differentiating once with respect to electric field.
                with respect to dipole field.
          Differentiating once with respect to nuclear coordinates.
          Keep R1 ints in memory in canonical form, NReq=1137347.
          There are     1 degrees of freedom in the 1st order CPHF.  IDoFFX=0.
 LinEq1:  Iter=  0 NonCon=     1 RMS=1.56D-02 Max=1.79D-01
 AX will form     1 AO Fock derivatives at one time.
 LinEq1:  Iter=  1 NonCon=     1 RMS=3.57D-03 Max=2.85D-02
 LinEq1:  Iter=  2 NonCon=     1 RMS=1.18D-03 Max=1.04D-02
 LinEq1:  Iter=  3 NonCon=     1 RMS=3.76D-04 Max=2.96D-03
 LinEq1:  Iter=  4 NonCon=     1 RMS=9.45D-05 Max=1.25D-03
 LinEq1:  Iter=  5 NonCon=     1 RMS=1.55D-05 Max=1.19D-04
 LinEq1:  Iter=  6 NonCon=     1 RMS=5.93D-06 Max=8.83D-05
 LinEq1:  Iter=  7 NonCon=     1 RMS=2.45D-06 Max=2.79D-05
 LinEq1:  Iter=  8 NonCon=     1 RMS=4.88D-07 Max=4.37D-06
 LinEq1:  Iter=  9 NonCon=     1 RMS=7.47D-08 Max=4.79D-07
 LinEq1:  Iter= 10 NonCon=     1 RMS=8.66D-09 Max=5.66D-08
 LinEq1:  Iter= 11 NonCon=     1 RMS=1.26D-09 Max=9.65D-09
 LinEq1:  Iter= 12 NonCon=     1 RMS=1.24D-10 Max=1.15D-09
 LinEq1:  Iter= 13 NonCon=     0 RMS=7.86D-12 Max=4.28D-11
 Linear equations converged to 1.000D-10 1.000D-09 after    13 iterations.
 End of Minotr Frequency-dependent properties file   721 does not exist.
 End of Minotr Frequency-dependent properties file   722 does not exist.
 Calling FoFJK, ICntrl=      2127 FMM=F ISym2X=1 I1Cent= 0 IOpClX= 0 NMat=1 NMatS=1 NMatT=0.
 ***** Axes restored to original set *****
 -------------------------------------------------------------------
 Center     Atomic                   Forces (Hartrees/Bohr)
 Number     Number              X              Y              Z
 -------------------------------------------------------------------
      1       17          -0.000254748    0.000441236   -0.000000000
      2        9           0.000033590   -0.000058180    0.000220895
      3        9           0.000187567   -0.000324875   -0.000000000
      4        9           0.000033590   -0.000058180   -0.000220895
 -------------------------------------------------------------------
 Cartesian Forces:  Max     0.000441236 RMS     0.000205533

 GradGradGradGradGradGradGradGradGradGradGradGradGradGradGradGradGradGrad
 Berny optimization.
 Using GEDIIS/GDIIS optimizer.
 Internal  Forces:  Max     0.000375134 RMS     0.000193590
 Search for a local minimum.
 Step number   6 out of a maximum of   20
 All quantities printed in internal units (Hartrees-Bohrs-Radians)
 Mixed Optimization -- En-DIIS/RFO-DIIS
 Swaping is turned off.
 Update second derivatives using D2CorX and points    3    4    5    6
 DE= -3.07D-06 DEPred=-2.20D-06 R= 1.39D+00
 SS=  1.41D+00  RLast= 4.57D-03 DXNew= 8.4853D-01 1.3695D-02
 Trust test= 1.39D+00 RLast= 4.57D-03 DXMaxT set to 5.05D-01
 The second derivative matrix:
                          R1        R2        R3        A1        A2
           R1           0.35884
           R2           0.04535   0.23222
           R3          -0.21602   0.04535   0.35884
           A1          -0.01704  -0.02259  -0.01704   0.17983
           A2          -0.01704  -0.02259  -0.01704  -0.07017   0.17983
           A3          -0.00389   0.02048  -0.00389   0.03252   0.03252
           A4           0.00000  -0.00000   0.00000   0.00000   0.00000
           D1           0.00000   0.00000   0.00000   0.00000   0.00000
                          A3        A4        D1
           A3           0.10096
           A4           0.00000   0.02090
           D1           0.00000  -0.00000   0.02090
 ITU=  1  1  1  0  1  0
     Eigenvalues ---    0.02090   0.10012   0.15507   0.25000   0.26708
     Eigenvalues ---    0.57486
 En-DIIS/RFO-DIIS IScMMF=        0 using points:     6    5    4
 RFO step:  Lambda=-8.89941542D-07.
 DidBck=F Rises=F RFO-DIIS coefs:    2.79010   -3.03522    1.24512
 Iteration  1 RMS(Cart)=  0.00219650 RMS(Int)=  0.00000208
 Iteration  2 RMS(Cart)=  0.00000229 RMS(Int)=  0.00000000
 Iteration  3 RMS(Cart)=  0.00000000 RMS(Int)=  0.00000001
 ClnCor:  largest displacement from symmetrization is 1.21D-08 for atom     1.
 Variable       Old X    -DE/DX   Delta X   Delta X   Delta X     New X
                                  (DIIS)     (GDIIS)  (Total)
    R1        3.51178   0.00021   0.00317  -0.00035   0.00282   3.51460
    R2        3.34886  -0.00038  -0.00246  -0.00065  -0.00312   3.34574
    R3        3.51178   0.00021   0.00317  -0.00035   0.00282   3.51460
    A1        1.45696   0.00011   0.00128   0.00019   0.00148   1.45844
    A2        1.45696   0.00011   0.00128   0.00019   0.00148   1.45844
    A3        2.91392   0.00022   0.00257   0.00039   0.00296   2.91687
    A4        3.14159  -0.00000  -0.00000  -0.00000   0.00000   3.14159
    D1        3.14159  -0.00000   0.00000  -0.00000   0.00000   3.14159
         Item               Value     Threshold  Converged?
 Maximum Force            0.000375     0.000450     YES
 RMS     Force            0.000194     0.000300     YES
 Maximum Displacement     0.003390     0.001800     NO 
 RMS     Displacement     0.002197     0.001200     NO 
 Predicted change in Energy=-1.215491D-06
 GradGradGradGradGradGradGradGradGradGradGradGradGradGradGradGradGradGrad

                          Input orientation:                          
 ---------------------------------------------------------------------
 Center     Atomic      Atomic             Coordinates (Angstroms)
 Number     Number       Type             X           Y           Z
 ---------------------------------------------------------------------
      1         17           0        0.447285    0.243939   -1.290000
      2          9           0        0.343019    0.424533    0.558120
      3          9           0       -0.437961    1.777229   -1.290000
      4          9           0        0.343019    0.424533   -3.138120
 ---------------------------------------------------------------------
                    Distance matrix (angstroms):
                    1          2          3          4
     1  Cl   0.000000
     2  F    1.859848   0.000000
     3  F    1.770491   2.419766   0.000000
     4  F    1.859848   3.696241   2.419766   0.000000
 Stoichiometry    ClF3
 Framework group  C2V[C2(FCl),SGV(F2)]
 Deg. of freedom     3
 Full point group                 C2V     NOp   4
 Largest Abelian subgroup         C2V     NOp   4
 Largest concise Abelian subgroup C2      NOp   2
                         Standard orientation:                         
 ---------------------------------------------------------------------
 Center     Atomic      Atomic             Coordinates (Angstroms)
 Number     Number       Type             X           Y           Z
 ---------------------------------------------------------------------
      1         17           0       -0.000000   -0.000000    0.447454
      2          9           0        0.000000    1.848120    0.238923
      3          9           0        0.000000    0.000000   -1.323037
      4          9           0       -0.000000   -1.848120    0.238923
 ---------------------------------------------------------------------
 Rotational constants (GHZ):     11.9126382      3.8941222      2.9347740
 Standard basis: 3-21G (6D, 7F)
 There are    19 symmetry adapted basis functions of A1  symmetry.
 There are     2 symmetry adapted basis functions of A2  symmetry.
 There are     7 symmetry adapted basis functions of B1  symmetry.
 There are    12 symmetry adapted basis functions of B2  symmetry.
 Integral buffers will be    131072 words long.
 Raffenetti 1 integral format.
 Two-electron integral symmetry is turned on.
    40 basis functions,    72 primitive gaussians,    40 cartesian basis functions
    22 alpha electrons       22 beta electrons
       nuclear repulsion energy       179.8192291227 Hartrees.
 NAtoms=    4 NActive=    4 NUniq=    3 SFac= 1.78D+00 NAtFMM=   60 NAOKFM=F Big=F
 One-electron integrals computed using PRISM.
 NBasis=    40 RedAO= T  NBF=    19     2     7    12
 NBsUse=    40 1.00D-06 NBFU=    19     2     7    12
 Initial guess read from the read-write file.
 B after Tr=     0.000000   -0.000000    0.000000
         Rot=    1.000000    0.000000    0.000000    0.000000 Ang=   0.00 deg.
 Initial guess orbital symmetries:
       Occupied  (A1) (A1) (B2) (A1) (A1) (A1) (B2) (B1) (A1) (A1)
                 (B2) (A1) (B1) (B2) (A1) (B2) (B1) (A2) (B2) (A1)
                 (B1) (A1)
       Virtual   (A1) (B2) (A1) (B1) (A1) (B2) (B2) (B1) (A2) (A1)
                 (B1) (A1) (A1) (B2) (B2) (A1) (A1) (B2)
 Requested convergence on RMS density matrix=1.00D-08 within 128 cycles.
 Requested convergence on MAX density matrix=1.00D-06.
 Requested convergence on             energy=1.00D-06.
 No special actions if energy rises.
 Keep R1 ints in memory in canonical form, NReq=1160190.
 SCF Done:  E(RHF) =  -753.627493497     A.U. after   11 cycles
             Convg  =    0.2223D-08             -V/T =  2.0020
 ExpMin= 1.67D-01 ExpMax= 1.38D+03 ExpMxC= 1.38D+03 IAcc=3 IRadAn=         5 AccDes= 0.00D+00
 HarFok:  IExCor=  205 AccDes= 0.00D+00 IRadAn=         5 IDoV=-2
 ScaDFX=  1.000000  1.000000  1.000000  1.000000
 Range of M.O.s used for correlation:     9    40
 NBasis=    40 NAE=    22 NBE=    22 NFC=     8 NFV=     0
 NROrb=     32 NOA=    14 NOB=    14 NVA=    18 NVB=    18
 Fully direct method using O(ONN) memory.
 JobTyp=1 Pass  1:  I=   9 to  22 NPSUse=  1 ParTrn=F ParDer=F DoDerP=T.
 Spin components of T(2) and E(2):
     alpha-alpha T2 =       0.1456205601D-01 E2=     -0.5859170767D-01
     alpha-beta  T2 =       0.1280458001D+00 E2=     -0.3600246378D+00
     beta-beta   T2 =       0.1456205601D-01 E2=     -0.5859170767D-01
 ANorm=    0.1075718324D+01
 E2 =    -0.4772080531D+00 EUMP2 =    -0.75410470155040D+03
          IDoAtm=1111
          Differentiating once with respect to electric field.
                with respect to dipole field.
          Differentiating once with respect to nuclear coordinates.
          Keep R1 ints in memory in canonical form, NReq=1137347.
          There are     1 degrees of freedom in the 1st order CPHF.  IDoFFX=0.
 LinEq1:  Iter=  0 NonCon=     1 RMS=1.56D-02 Max=1.80D-01
 AX will form     1 AO Fock derivatives at one time.
 LinEq1:  Iter=  1 NonCon=     1 RMS=3.59D-03 Max=2.88D-02
 LinEq1:  Iter=  2 NonCon=     1 RMS=1.18D-03 Max=1.03D-02
 LinEq1:  Iter=  3 NonCon=     1 RMS=3.76D-04 Max=3.00D-03
 LinEq1:  Iter=  4 NonCon=     1 RMS=9.37D-05 Max=1.22D-03
 LinEq1:  Iter=  5 NonCon=     1 RMS=1.58D-05 Max=1.23D-04
 LinEq1:  Iter=  6 NonCon=     1 RMS=7.33D-06 Max=1.11D-04
 LinEq1:  Iter=  7 NonCon=     1 RMS=2.55D-06 Max=2.79D-05
 LinEq1:  Iter=  8 NonCon=     1 RMS=4.94D-07 Max=4.47D-06
 LinEq1:  Iter=  9 NonCon=     1 RMS=7.50D-08 Max=4.76D-07
 LinEq1:  Iter= 10 NonCon=     1 RMS=8.69D-09 Max=5.70D-08
 LinEq1:  Iter= 11 NonCon=     1 RMS=1.27D-09 Max=9.71D-09
 LinEq1:  Iter= 12 NonCon=     1 RMS=1.25D-10 Max=1.15D-09
 LinEq1:  Iter= 13 NonCon=     0 RMS=7.89D-12 Max=4.32D-11
 Linear equations converged to 1.000D-10 1.000D-09 after    13 iterations.
 End of Minotr Frequency-dependent properties file   721 does not exist.
 End of Minotr Frequency-dependent properties file   722 does not exist.
 Calling FoFJK, ICntrl=      2127 FMM=F ISym2X=1 I1Cent= 0 IOpClX= 0 NMat=1 NMatS=1 NMatT=0.
 ***** Axes restored to original set *****
 -------------------------------------------------------------------
 Center     Atomic                   Forces (Hartrees/Bohr)
 Number     Number              X              Y              Z
 -------------------------------------------------------------------
      1       17          -0.000067217    0.000116423    0.000000000
      2        9           0.000011749   -0.000020351   -0.000034289
      3        9           0.000043718   -0.000075722   -0.000000000
      4        9           0.000011749   -0.000020351    0.000034289
 -------------------------------------------------------------------
 Cartesian Forces:  Max     0.000116423 RMS     0.000049306

 GradGradGradGradGradGradGradGradGradGradGradGradGradGradGradGradGradGrad
 Berny optimization.
 Using GEDIIS/GDIIS optimizer.
 Internal  Forces:  Max     0.000087436 RMS     0.000041038
 Search for a local minimum.
 Step number   7 out of a maximum of   20
 All quantities printed in internal units (Hartrees-Bohrs-Radians)
 Mixed Optimization -- En-DIIS/RFO-DIIS
 Swaping is turned off.
 Update second derivatives using D2CorX and points    3    4    5    6    7
 DE= -1.79D-06 DEPred=-1.22D-06 R= 1.47D+00
 SS=  1.41D+00  RLast= 6.22D-03 DXNew= 8.4853D-01 1.8674D-02
 Trust test= 1.47D+00 RLast= 6.22D-03 DXMaxT set to 5.05D-01
 The second derivative matrix:
                          R1        R2        R3        A1        A2
           R1           0.37528
           R2           0.04931   0.20920
           R3          -0.19958   0.04931   0.37528
           A1          -0.02459  -0.00609  -0.02459   0.17226
           A2          -0.02459  -0.00609  -0.02459  -0.07774   0.17226
           A3          -0.00705   0.03529  -0.00705   0.02192   0.02192
           A4          -0.00000   0.00000  -0.00000  -0.00000  -0.00000
           D1           0.00000   0.00000   0.00000   0.00000   0.00000
                          A3        A4        D1
           A3           0.08606
           A4          -0.00000   0.02090
           D1          -0.00000  -0.00000   0.02090
 ITU=  1  1  1  1  0  1  0
     Eigenvalues ---    0.02090   0.07591   0.16282   0.25000   0.26429
     Eigenvalues ---    0.57486
 En-DIIS/RFO-DIIS IScMMF=        0 using points:     7    6    5    4
 RFO step:  Lambda=-3.04652932D-08.
 DidBck=F Rises=F RFO-DIIS coefs:    1.97720   -2.62689    2.76000   -1.11031
 Iteration  1 RMS(Cart)=  0.00033876 RMS(Int)=  0.00000010
 Iteration  2 RMS(Cart)=  0.00000010 RMS(Int)=  0.00000000
 ClnCor:  largest displacement from symmetrization is 9.03D-09 for atom     1.
 Variable       Old X    -DE/DX   Delta X   Delta X   Delta X     New X
                                  (DIIS)     (GDIIS)  (Total)
    R1        3.51460  -0.00004  -0.00020  -0.00000  -0.00020   3.51441
    R2        3.34574  -0.00009  -0.00070   0.00000  -0.00070   3.34504
    R3        3.51460  -0.00004  -0.00020   0.00000  -0.00020   3.51441
    A1        1.45844   0.00002   0.00033   0.00000   0.00033   1.45876
    A2        1.45844   0.00002   0.00033  -0.00000   0.00033   1.45876
    A3        2.91687   0.00005   0.00065  -0.00000   0.00065   2.91753
    A4        3.14159  -0.00000   0.00000  -0.00000   0.00000   3.14159
    D1        3.14159  -0.00000   0.00000  -0.00000   0.00000   3.14159
         Item               Value     Threshold  Converged?
 Maximum Force            0.000087     0.000450     YES
 RMS     Force            0.000041     0.000300     YES
 Maximum Displacement     0.000655     0.001800     YES
 RMS     Displacement     0.000339     0.001200     YES
 Predicted change in Energy=-1.618001D-08
 Optimization completed.
    -- Stationary point found.
                           ----------------------------
                           !   Optimized Parameters   !
                           ! (Angstroms and Degrees)  !
 --------------------------                            --------------------------
 ! Name  Definition              Value          Derivative Info.                !
 --------------------------------------------------------------------------------
 ! R1    R(1,2)                  1.8598         -DE/DX =    0.0                 !
 ! R2    R(1,3)                  1.7705         -DE/DX =   -0.0001              !
 ! R3    R(1,4)                  1.8598         -DE/DX =    0.0                 !
 ! A1    A(2,1,3)               83.5623         -DE/DX =    0.0                 !
 ! A2    A(3,1,4)               83.5623         -DE/DX =    0.0                 !
 ! A3    L(2,1,4,3,-1)         167.1246         -DE/DX =    0.0                 !
 ! A4    L(2,1,4,3,-2)         180.0            -DE/DX =    0.0                 !
 ! D1    D(2,1,3,4)            180.0            -DE/DX =    0.0                 !
 --------------------------------------------------------------------------------
 GradGradGradGradGradGradGradGradGradGradGradGradGradGradGradGradGradGrad

                          Input orientation:                          
 ---------------------------------------------------------------------
 Center     Atomic      Atomic             Coordinates (Angstroms)
 Number     Number       Type             X           Y           Z
 ---------------------------------------------------------------------
      1         17           0        0.447285    0.243939   -1.290000
      2          9           0        0.343019    0.424533    0.558120
      3          9           0       -0.437961    1.777229   -1.290000
      4          9           0        0.343019    0.424533   -3.138120
 ---------------------------------------------------------------------
                    Distance matrix (angstroms):
                    1          2          3          4
     1  Cl   0.000000
     2  F    1.859848   0.000000
     3  F    1.770491   2.419766   0.000000
     4  F    1.859848   3.696241   2.419766   0.000000
 Stoichiometry    ClF3
 Framework group  C2V[C2(FCl),SGV(F2)]
 Deg. of freedom     3
 Full point group                 C2V     NOp   4
 Largest Abelian subgroup         C2V     NOp   4
 Largest concise Abelian subgroup C2      NOp   2
                         Standard orientation:                         
 ---------------------------------------------------------------------
 Center     Atomic      Atomic             Coordinates (Angstroms)
 Number     Number       Type             X           Y           Z
 ---------------------------------------------------------------------
      1         17           0       -0.000000    0.000000    0.447454
      2          9           0        0.000000    1.848120    0.238923
      3          9           0        0.000000   -0.000000   -1.323037
      4          9           0       -0.000000   -1.848120    0.238923
 ---------------------------------------------------------------------
 Rotational constants (GHZ):     11.9126382      3.8941222      2.9347740

 **********************************************************************

            Population analysis using the SCF density.

 **********************************************************************

 Orbital symmetries:
       Occupied  (A1) (A1) (B2) (A1) (A1) (A1) (B2) (B1) (A1) (A1)
                 (B2) (A1) (B1) (B2) (A1) (B2) (B1) (A2) (B2) (A1)
                 (B1) (A1)
       Virtual   (A1) (B2) (A1) (B1) (A1) (B2) (B2) (B1) (A2) (A1)
                 (B1) (A1) (A1) (B2) (B2) (A1) (A1) (B2)
 The electronic state is 1-A1.
 Alpha  occ. eigenvalues -- -104.39386 -26.29209 -26.13140 -26.13079 -10.77039
 Alpha  occ. eigenvalues --   -8.23001  -8.22994  -8.22673  -1.65667  -1.52097
 Alpha  occ. eigenvalues --   -1.51329  -1.20062  -0.76170  -0.75896  -0.73298
 Alpha  occ. eigenvalues --   -0.68223  -0.66191  -0.60435  -0.59179  -0.58655
 Alpha  occ. eigenvalues --   -0.55222  -0.46311
 Alpha virt. eigenvalues --   -0.04591   0.02846   0.62096   0.67826   0.73730
 Alpha virt. eigenvalues --    0.80700   2.05118   2.13613   2.22061   2.24339
 Alpha virt. eigenvalues --    2.28859   2.32023   2.33139   2.34539   2.42527
 Alpha virt. eigenvalues --    3.33119   3.65327   3.78700
          Condensed to atoms (all electrons):
              1          2          3          4
     1  Cl  15.758648   0.060097   0.088010   0.060097
     2  F    0.060097   9.367044  -0.008864   0.000044
     3  F    0.088010  -0.008864   9.126227  -0.008864
     4  F    0.060097   0.000044  -0.008864   9.367044
 Mulliken atomic charges:
              1
     1  Cl   1.033149
     2  F   -0.418320
     3  F   -0.196508
     4  F   -0.418320
 Sum of Mulliken atomic charges =  -0.00000
 Mulliken charges with hydrogens summed into heavy atoms:
              1
     1  Cl   1.033149
     2  F   -0.418320
     3  F   -0.196508
     4  F   -0.418320
 Sum of Mulliken charges with hydrogens summed into heavy atoms =  -0.00000
 Electronic spatial extent (au):  <R**2>=            355.7233
 Charge=             -0.0000 electrons
 Dipole moment (field-independent basis, Debye):
    X=             -0.0000    Y=              0.0000    Z=              1.2870  Tot=              1.2870
 Quadrupole moment (field-independent basis, Debye-Ang):
   XX=            -25.1823   YY=            -36.4249   ZZ=            -24.5996
   XY=              0.0000   XZ=              0.0000   YZ=              0.0000
 Traceless Quadrupole moment (field-independent basis, Debye-Ang):
   XX=              3.5533   YY=             -7.6893   ZZ=              4.1360
   XY=              0.0000   XZ=              0.0000   YZ=              0.0000
 Octapole moment (field-independent basis, Debye-Ang**2):
  XXX=              0.0000  YYY=              0.0000  ZZZ=             -1.6109  XYY=             -0.0000
  XXY=              0.0000  XXZ=             -1.4115  XZZ=             -0.0000  YZZ=              0.0000
  YYZ=             -3.5582  XYZ=              0.0000
 Hexadecapole moment (field-independent basis, Debye-Ang**3):
 XXXX=            -17.6535 YYYY=           -247.0512 ZZZZ=            -76.3864 XXXY=             -0.0000
 XXXZ=              0.0000 YYYX=              0.0000 YYYZ=              0.0000 ZZZX=              0.0000
 ZZZY=              0.0000 XXYY=            -38.1221 XXZZ=            -16.3990 YYZZ=            -48.8688
 XXYZ=              0.0000 YYXZ=              0.0000 ZZXY=             -0.0000
 N-N= 1.798192291227D+02 E-N=-2.157668052814D+03  KE= 7.521597930520D+02
 Symmetry A1   KE= 5.460254928405D+02
 Symmetry A2   KE= 6.368239541725D+00
 Symmetry B1   KE= 5.914785313969D+01
 Symmetry B2   KE= 1.406182075301D+02
 1\1\GINC-SRU02\FOpt\RMP2-FC\3-21G\Cl1F3\PAMMY\21-Jun-2024\0\\# opt fre
 q=hpmodes mp2/3-21g geom=connectivity\\Title Card Required\\0,1\Cl,0.4
 472847472,0.2439393846,-1.29\F,0.3430191691,0.4245326629,0.5581204064\
 F,-0.4379605254,1.7772291696,-1.29\F,0.3430191691,0.4245326629,-3.1381
 204064\\Version=AM64L-G09RevC.01\State=1-A1\HF=-753.6274935\MP2=-754.1
 047016\RMSD=2.223e-09\RMSF=4.931e-05\Dipole=0.2721772,-0.4714248,0.\PG
 =C02V [C2(F1Cl1),SGV(F2)]\\@


 The best way to pay for a lovely moment is to enjoy it.
 -- Richard Bach
 Job cpu time:  0 days  0 hours  0 minutes  5.2 seconds.
 File lengths (MBytes):  RWF=      5 Int=      0 D2E=      0 Chk=      2 Scr=      1
 Normal termination of Gaussian 09 at Fri Jun 21 04:32:34 2024.
 Link1:  Proceeding to internal job step number  2.
 -------------------------------------------------------------------
 #N Geom=AllCheck Guess=TCheck SCRF=Check GenChk RMP2(FC)/3-21G Freq
 -------------------------------------------------------------------
 1/10=4,29=7,30=1,38=1,40=1/1,3;
 2/12=2,40=1/2;
 3/5=5,11=1,14=-4,16=1,25=1,30=1,70=2,71=2,116=1/1,2,3;
 4/5=101/1;
 5/5=2,98=1/2;
 8/6=3,8=1,10=1,19=11,30=-1/1;
 9/15=3,16=-3/6;
 11/6=1,8=1,15=11,17=12,24=-1,27=1,28=-2,29=300,32=6,42=3/1,2,10;
 10/6=2,21=1/2;
 8/6=4,8=1,10=1,19=11,30=-1/11,4;
 10/5=1,20=4/2;
 11/12=2,14=11,16=1,17=2,28=-2,42=3/2,10,12;
 6/7=2,8=2,9=2,10=2/1;
 7/8=11,10=1,12=2,25=1,44=2/1,2,3,16;
 1/10=4,30=1/3;
 99//99;
 Structure from the checkpoint file:  clf3.chk
 -------------------
 Title Card Required
 -------------------
 Charge =  0 Multiplicity = 1
 Redundant internal coordinates found in file.
 Cl,0,0.4472847472,0.2439393846,-1.29
 F,0,0.3430191691,0.4245326629,0.5581204064
 F,0,-0.4379605254,1.7772291696,-1.29
 F,0,0.3430191691,0.4245326629,-3.1381204064
 Recover connectivity data from disk.

 GradGradGradGradGradGradGradGradGradGradGradGradGradGradGradGradGradGrad
 Berny optimization.
 Initialization pass.
                           ----------------------------
                           !    Initial Parameters    !
                           ! (Angstroms and Degrees)  !
 --------------------------                            --------------------------
 ! Name  Definition              Value          Derivative Info.                !
 --------------------------------------------------------------------------------
 ! R1    R(1,2)                  1.8598         calculate D2E/DX2 analytically  !
 ! R2    R(1,3)                  1.7705         calculate D2E/DX2 analytically  !
 ! R3    R(1,4)                  1.8598         calculate D2E/DX2 analytically  !
 ! A1    A(2,1,3)               83.5623         calculate D2E/DX2 analytically  !
 ! A2    A(3,1,4)               83.5623         calculate D2E/DX2 analytically  !
 ! A3    L(2,1,4,3,-1)         167.1246         calculate D2E/DX2 analytically  !
 ! A4    L(2,1,4,3,-2)         180.0            calculate D2E/DX2 analytically  !
 ! D1    D(2,1,3,4)            180.0            calculate D2E/DX2 analytically  !
 --------------------------------------------------------------------------------
 Trust Radius=3.00D-01 FncErr=1.00D-07 GrdErr=1.00D-07
 Number of steps in this run=      2 maximum allowed number of steps=      2.
 GradGradGradGradGradGradGradGradGradGradGradGradGradGradGradGradGradGrad

                          Input orientation:                          
 ---------------------------------------------------------------------
 Center     Atomic      Atomic             Coordinates (Angstroms)
 Number     Number       Type             X           Y           Z
 ---------------------------------------------------------------------
      1         17           0        0.447285    0.243939   -1.290000
      2          9           0        0.343019    0.424533    0.558120
      3          9           0       -0.437961    1.777229   -1.290000
      4          9           0        0.343019    0.424533   -3.138120
 ---------------------------------------------------------------------
                    Distance matrix (angstroms):
                    1          2          3          4
     1  Cl   0.000000
     2  F    1.859848   0.000000
     3  F    1.770491   2.419766   0.000000
     4  F    1.859848   3.696241   2.419766   0.000000
 Stoichiometry    ClF3
 Framework group  C2V[C2(FCl),SGV(F2)]
 Deg. of freedom     3
 Full point group                 C2V     NOp   4
 Largest Abelian subgroup         C2V     NOp   4
 Largest concise Abelian subgroup C2      NOp   2
                         Standard orientation:                         
 ---------------------------------------------------------------------
 Center     Atomic      Atomic             Coordinates (Angstroms)
 Number     Number       Type             X           Y           Z
 ---------------------------------------------------------------------
      1         17           0       -0.000000    0.000000    0.447454
      2          9           0       -0.000000    1.848120    0.238923
      3          9           0        0.000000   -0.000000   -1.323037
      4          9           0        0.000000   -1.848120    0.238923
 ---------------------------------------------------------------------
 Rotational constants (GHZ):     11.9126382      3.8941222      2.9347740
 Standard basis: 3-21G (6D, 7F)
 There are    19 symmetry adapted basis functions of A1  symmetry.
 There are     2 symmetry adapted basis functions of A2  symmetry.
 There are     7 symmetry adapted basis functions of B1  symmetry.
 There are    12 symmetry adapted basis functions of B2  symmetry.
 Integral buffers will be    131072 words long.
 Raffenetti 1 integral format.
 Two-electron integral symmetry is turned on.
    40 basis functions,    72 primitive gaussians,    40 cartesian basis functions
    22 alpha electrons       22 beta electrons
       nuclear repulsion energy       179.8192291227 Hartrees.
 NAtoms=    4 NActive=    4 NUniq=    3 SFac= 1.78D+00 NAtFMM=   60 NAOKFM=F Big=F
 One-electron integrals computed using PRISM.
 NBasis=    40 RedAO= T  NBF=    19     2     7    12
 NBsUse=    40 1.00D-06 NBFU=    19     2     7    12
 Initial guess read from the checkpoint file:  clf3.chk
 B after Tr=     0.000000    0.000000   -0.000000
         Rot=    1.000000    0.000000   -0.000000   -0.000000 Ang=   0.00 deg.
 Initial guess orbital symmetries:
       Occupied  (A1) (A1) (B2) (A1) (A1) (A1) (B2) (B1) (A1) (A1)
                 (B2) (A1) (B1) (B2) (A1) (B2) (B1) (A2) (B2) (A1)
                 (B1) (A1)
       Virtual   (A1) (B2) (A1) (B1) (A1) (B2) (B2) (B1) (A2) (A1)
                 (B1) (A1) (A1) (B2) (B2) (A1) (A1) (B2)
 Requested convergence on RMS density matrix=1.00D-08 within 128 cycles.
 Requested convergence on MAX density matrix=1.00D-06.
 Requested convergence on             energy=1.00D-06.
 No special actions if energy rises.
 Keep R1 ints in memory in canonical form, NReq=1160190.
 SCF Done:  E(RHF) =  -753.627493497     A.U. after    1 cycles
             Convg  =    0.1263D-09             -V/T =  2.0020
 ExpMin= 1.67D-01 ExpMax= 1.38D+03 ExpMxC= 1.38D+03 IAcc=3 IRadAn=         5 AccDes= 0.00D+00
 HarFok:  IExCor=  205 AccDes= 0.00D+00 IRadAn=         5 IDoV=-2
 ScaDFX=  1.000000  1.000000  1.000000  1.000000
 Range of M.O.s used for correlation:     9    40
 NBasis=    40 NAE=    22 NBE=    22 NFC=     8 NFV=     0
 NROrb=     32 NOA=    14 NOB=    14 NVA=    18 NVB=    18
 Disk-based method using ON**2 memory for 14 occupieds at a time.
 Permanent disk used for amplitudes=      192159 words.
 Estimated scratch disk usage=     1575144 words.
 Actual    scratch disk usage=     1575144 words.
 JobTyp=1 Pass  1:  I=   9 to  22 NPSUse=  1 ParTrn=F ParDer=F DoDerP=T.
 (rs|ai) integrals will be sorted in core.
 Spin components of T(2) and E(2):
     alpha-alpha T2 =       0.1456205605D-01 E2=     -0.5859170773D-01
     alpha-beta  T2 =       0.1280458002D+00 E2=     -0.3600246380D+00
     beta-beta   T2 =       0.1456205605D-01 E2=     -0.5859170773D-01
 ANorm=    0.1075718324D+01
 E2 =    -0.4772080535D+00 EUMP2 =    -0.75410470155075D+03
 G2DrvN: will do     5 centers at a time, making    1 passes doing MaxLOS=1.
 Calling FoFCou, ICntrl=  3107 FMM=F I1Cent=   0 AccDes= 0.00D+00.
 FoFDir/FoFCou used for L=0 through L=1.
 End of G2Drv Frequency-dependent properties file   721 does not exist.
 End of G2Drv Frequency-dependent properties file   722 does not exist.
          IDoAtm=1111
          Differentiating once with respect to electric field.
                with respect to dipole field.
          Differentiating once with respect to nuclear coordinates.
          Keep R1 ints in memory in canonical form, NReq=1137347.
          There are    15 degrees of freedom in the 1st order CPHF.  IDoFFX=5.
     12 vectors produced by pass  0 Test12= 2.64D-15 6.67D-09 XBig12= 2.31D+01 4.60D+00.
 AX will form    12 AO Fock derivatives at one time.
     12 vectors produced by pass  1 Test12= 2.64D-15 6.67D-09 XBig12= 1.48D+00 4.53D-01.
     12 vectors produced by pass  2 Test12= 2.64D-15 6.67D-09 XBig12= 1.18D-01 1.46D-01.
     12 vectors produced by pass  3 Test12= 2.64D-15 6.67D-09 XBig12= 1.27D-03 1.31D-02.
     12 vectors produced by pass  4 Test12= 2.64D-15 6.67D-09 XBig12= 4.93D-06 5.74D-04.
     12 vectors produced by pass  5 Test12= 2.64D-15 6.67D-09 XBig12= 2.40D-08 5.68D-05.
      9 vectors produced by pass  6 Test12= 2.64D-15 6.67D-09 XBig12= 1.29D-10 3.37D-06.
      3 vectors produced by pass  7 Test12= 2.64D-15 6.67D-09 XBig12= 5.36D-13 1.76D-07.
      2 vectors produced by pass  8 Test12= 2.64D-15 6.67D-09 XBig12= 1.70D-15 9.99D-09.
 Inverted reduced A of dimension    86 with in-core refinement.
 End of Minotr Frequency-dependent properties file   721 does not exist.
 End of Minotr Frequency-dependent properties file   722 does not exist.
 MDV=    33554432.
 Form MO integral derivatives with frozen-active canonical formalism.
 Discarding MO integrals.
 Reordered first order wavefunction length =       313632
 In DefCFB: NBatch=  1 ICI= 22 ICA= 18 LFMax= 22
            Large arrays: LIAPS=     2534400 LIARS=     1441440 words.
 Semi-Direct transformation.
 ModeAB=           4 MOrb=            22 LenV=      33427219
 LASXX=       371019 LTotXX=      371019 LenRXX=      803011
 LTotAB=      431992 MaxLAS=      491920 LenRXY=           0
 NonZer=     1174030 LenScr=     2357760 LnRSAI=      491920
 LnScr1=     1475584 LExtra=           0 Total=      5128275
 MaxDsk=          -1 SrtSym=           T ITran=            4
 JobTyp=0 Pass  1:  I=   1 to  22.
 (rs|ai) integrals will be sorted in core.
 Spin components of T(2) and E(2):
     alpha-alpha T2 =       0.1456205605D-01 E2=     -0.5859170773D-01
     alpha-beta  T2 =       0.1280458002D+00 E2=     -0.3600246380D+00
     beta-beta   T2 =       0.1456205605D-01 E2=     -0.5859170773D-01
 ANorm=    0.1521295443D+01
 E2 =    -0.4772080535D+00 EUMP2 =    -0.75410470155075D+03
          IDoAtm=1111
          Differentiating once with respect to electric field.
                with respect to dipole field.
          Differentiating once with respect to nuclear coordinates.
          There are     1 degrees of freedom in the 1st order CPHF.  IDoFFX=0.
 LinEq1:  Iter=  0 NonCon=     1 RMS=1.56D-02 Max=1.80D-01
 LinEq1:  Iter=  1 NonCon=     1 RMS=3.59D-03 Max=2.88D-02
 LinEq1:  Iter=  2 NonCon=     1 RMS=1.18D-03 Max=1.03D-02
 LinEq1:  Iter=  3 NonCon=     1 RMS=3.76D-04 Max=3.00D-03
 LinEq1:  Iter=  4 NonCon=     1 RMS=9.37D-05 Max=1.22D-03
 LinEq1:  Iter=  5 NonCon=     1 RMS=1.58D-05 Max=1.23D-04
 LinEq1:  Iter=  6 NonCon=     1 RMS=7.33D-06 Max=1.11D-04
 LinEq1:  Iter=  7 NonCon=     1 RMS=2.55D-06 Max=2.79D-05
 LinEq1:  Iter=  8 NonCon=     1 RMS=4.94D-07 Max=4.47D-06
 LinEq1:  Iter=  9 NonCon=     1 RMS=7.50D-08 Max=4.76D-07
 LinEq1:  Iter= 10 NonCon=     1 RMS=8.69D-09 Max=5.70D-08
 LinEq1:  Iter= 11 NonCon=     1 RMS=1.27D-09 Max=9.71D-09
 LinEq1:  Iter= 12 NonCon=     1 RMS=1.25D-10 Max=1.15D-09
 LinEq1:  Iter= 13 NonCon=     0 RMS=7.89D-12 Max=4.32D-11
 Linear equations converged to 1.000D-10 1.000D-09 after    13 iterations.
 End of Minotr Frequency-dependent properties file   721 does not exist.
 End of Minotr Frequency-dependent properties file   722 does not exist.
 Symmetrizing basis deriv contribution to polar:
 IMax=3 JMax=2 DiffMx= 0.00D+00
 G2DrvN: will do     5 centers at a time, making    1 passes doing MaxLOS=1.
 Calling FoFCou, ICntrl=  3107 FMM=F I1Cent=   0 AccDes= 0.00D+00.
 FoFDir/FoFCou used for L=0 through L=1.
 End of G2Drv Frequency-dependent properties file   721 does not exist.
 End of G2Drv Frequency-dependent properties file   722 does not exist.
 R2 and R3 integrals will be kept in memory, NReq=     1473220.
 DD1Dir will call FoFMem   1 times, MxPair=       506
 NAB=   253 NAA=     0 NBB=     0.
 Discarding MO integrals.

 **********************************************************************

            Population analysis using the SCF density.

 **********************************************************************

 Orbital symmetries:
       Occupied  (A1) (A1) (B2) (A1) (A1) (A1) (B2) (B1) (A1) (A1)
                 (B2) (A1) (B1) (B2) (A1) (B2) (B1) (A2) (B2) (A1)
                 (B1) (A1)
       Virtual   (A1) (B2) (A1) (B1) (A1) (B2) (B2) (B1) (A2) (A1)
                 (B1) (A1) (A1) (B2) (B2) (A1) (A1) (B2)
 The electronic state is 1-A1.
 Alpha  occ. eigenvalues -- -104.39386 -26.29209 -26.13140 -26.13079 -10.77039
 Alpha  occ. eigenvalues --   -8.23001  -8.22994  -8.22673  -1.65667  -1.52097
 Alpha  occ. eigenvalues --   -1.51329  -1.20062  -0.76170  -0.75896  -0.73298
 Alpha  occ. eigenvalues --   -0.68223  -0.66191  -0.60435  -0.59179  -0.58655
 Alpha  occ. eigenvalues --   -0.55222  -0.46311
 Alpha virt. eigenvalues --   -0.04591   0.02846   0.62096   0.67826   0.73730
 Alpha virt. eigenvalues --    0.80700   2.05118   2.13613   2.22061   2.24339
 Alpha virt. eigenvalues --    2.28859   2.32023   2.33139   2.34539   2.42527
 Alpha virt. eigenvalues --    3.33119   3.65327   3.78700
          Condensed to atoms (all electrons):
              1          2          3          4
     1  Cl  15.758648   0.060097   0.088010   0.060097
     2  F    0.060097   9.367044  -0.008864   0.000044
     3  F    0.088010  -0.008864   9.126227  -0.008864
     4  F    0.060097   0.000044  -0.008864   9.367044
 Mulliken atomic charges:
              1
     1  Cl   1.033149
     2  F   -0.418320
     3  F   -0.196508
     4  F   -0.418320
 Sum of Mulliken atomic charges =  -0.00000
 Mulliken charges with hydrogens summed into heavy atoms:
              1
     1  Cl   1.033149
     2  F   -0.418320
     3  F   -0.196508
     4  F   -0.418320
 Sum of Mulliken charges with hydrogens summed into heavy atoms =  -0.00000
 APT atomic charges:
              1
     1  Cl   0.904887
     2  F   -0.366096
     3  F   -0.172696
     4  F   -0.366096
 Sum of APT charges=  -0.00000
 APT Atomic charges with hydrogens summed into heavy atoms:
              1
     1  Cl   0.904887
     2  F   -0.366096
     3  F   -0.172696
     4  F   -0.366096
 Sum of APT charges=  -0.00000
 Electronic spatial extent (au):  <R**2>=            355.7233
 Charge=              0.0000 electrons
 Dipole moment (field-independent basis, Debye):
    X=             -0.0000    Y=             -0.0000    Z=              1.2870  Tot=              1.2870
 Quadrupole moment (field-independent basis, Debye-Ang):
   XX=            -25.1823   YY=            -36.4249   ZZ=            -24.5996
   XY=              0.0000   XZ=              0.0000   YZ=             -0.0000
 Traceless Quadrupole moment (field-independent basis, Debye-Ang):
   XX=              3.5533   YY=             -7.6893   ZZ=              4.1360
   XY=              0.0000   XZ=              0.0000   YZ=             -0.0000
 Octapole moment (field-independent basis, Debye-Ang**2):
  XXX=             -0.0000  YYY=              0.0000  ZZZ=             -1.6109  XYY=              0.0000
  XXY=             -0.0000  XXZ=             -1.4115  XZZ=             -0.0000  YZZ=             -0.0000
  YYZ=             -3.5582  XYZ=              0.0000
 Hexadecapole moment (field-independent basis, Debye-Ang**3):
 XXXX=            -17.6535 YYYY=           -247.0512 ZZZZ=            -76.3864 XXXY=              0.0000
 XXXZ=              0.0000 YYYX=              0.0000 YYYZ=             -0.0000 ZZZX=              0.0000
 ZZZY=             -0.0000 XXYY=            -38.1221 XXZZ=            -16.3990 YYZZ=            -48.8688
 XXYZ=             -0.0000 YYXZ=              0.0000 ZZXY=              0.0000
 N-N= 1.798192291227D+02 E-N=-2.157668052812D+03  KE= 7.521597930518D+02
 Symmetry A1   KE= 5.460254928397D+02
 Symmetry A2   KE= 6.368239548452D+00
 Symmetry B1   KE= 5.914785313501D+01
 Symmetry B2   KE= 1.406182075286D+02
  Exact polarizability:   3.815  -0.000  37.729  -0.000   0.000  16.392
 Approx polarizability:   2.793  -0.000  46.868  -0.000   0.000  17.665
 Calling FoFJK, ICntrl=    100127 FMM=F ISym2X=1 I1Cent= 0 IOpClX= 0 NMat=1 NMatS=1 NMatT=0.
 Full mass-weighted force constant matrix:
 Low frequencies ---   -0.0012    0.0024    0.0025    3.6955    4.8643    7.3639
 Low frequencies ---  231.5820  234.1720  306.3657
 Harmonic frequencies (cm**-1), IR intensities (KM/Mole), Raman scattering
 activities (A**4/AMU), depolarization ratios for plane and unpolarized
 incident light, reduced masses (AMU), force constants (mDyne/A),
 and normal coordinates:
                           1         2         3         4         5
                          A1        B1        B2        A1        A1
       Frequencies ---   231.5820  234.1720  306.3657  380.4182  581.6017
    Reduced masses ---    21.9547   23.9324   19.2875   19.0009   22.3054
   Force constants ---     0.6937    0.7732    1.0666    1.6201    4.4454
    IR Intensities ---    16.6010   17.8367    1.5229    0.3854    7.5145
 Coord Atom Element:
   1     1    17         -0.00000   0.55583   0.00000   0.00000   0.00000
   2     1    17         -0.00000  -0.00000  -0.13455  -0.00000   0.00000
   3     1    17          0.43025   0.00000   0.00000   0.01242   0.45505
   1     2     9          0.00000  -0.57983  -0.00000  -0.00000  -0.00000
   2     2     9         -0.21275  -0.00000  -0.26537   0.65748   0.18329
   3     2     9         -0.55704  -0.00000  -0.34290  -0.15769   0.00714
   1     3     9         -0.00000   0.13659   0.00000   0.00000   0.00000
   2     3     9          0.00000  -0.00000   0.77839   0.00000  -0.00000
   3     3     9          0.32215   0.00000  -0.00000   0.29251  -0.85184
   1     4     9          0.00000  -0.57983  -0.00000  -0.00000  -0.00000
   2     4     9          0.21275   0.00000  -0.26537  -0.65748  -0.18329
   3     4     9         -0.55704  -0.00000   0.34290  -0.15769   0.00714
                           6
                          B2
       Frequencies ---   684.4524
    Reduced masses ---    25.3013
   Force constants ---     6.9836
    IR Intensities ---    84.8316
 Coord Atom Element:
   1     1    17          0.00000
   2     1    17          0.62822
   3     1    17         -0.00000
   1     2     9         -0.00000
   2     2     9         -0.53822
   3     2     9          0.09899
   1     3     9          0.00000
   2     3     9         -0.07988
   3     3     9          0.00000
   1     4     9         -0.00000
   2     4     9         -0.53822
   3     4     9         -0.09899
 Harmonic frequencies (cm**-1), IR intensities (KM/Mole), Raman scattering
 activities (A**4/AMU), depolarization ratios for plane and unpolarized
 incident light, reduced masses (AMU), force constants (mDyne/A),
 and normal coordinates:
                     1                      2                      3
                    A1                     B1                     B2
 Frequencies --   231.5820               234.1720               306.3657
 Red. masses --    21.9547                23.9324                19.2875
 Frc consts  --     0.6937                 0.7732                 1.0666
 IR Inten    --    16.6010                17.8367                 1.5229
  Atom  AN      X      Y      Z        X      Y      Z        X      Y      Z
     1  17    -0.00  -0.00   0.43     0.56  -0.00   0.00     0.00  -0.13   0.00
     2   9     0.00  -0.21  -0.56    -0.58  -0.00  -0.00    -0.00  -0.27  -0.34
     3   9    -0.00   0.00   0.32     0.14  -0.00   0.00     0.00   0.78  -0.00
     4   9     0.00   0.21  -0.56    -0.58   0.00  -0.00    -0.00  -0.27   0.34
                     4                      5                      6
                    A1                     A1                     B2
 Frequencies --   380.4182               581.6017               684.4524
 Red. masses --    19.0009                22.3054                25.3013
 Frc consts  --     1.6201                 4.4454                 6.9836
 IR Inten    --     0.3854                 7.5145                84.8316
  Atom  AN      X      Y      Z        X      Y      Z        X      Y      Z
     1  17     0.00  -0.00   0.01     0.00   0.00   0.46     0.00   0.63  -0.00
     2   9    -0.00   0.66  -0.16    -0.00   0.18   0.01    -0.00  -0.54   0.10
     3   9     0.00   0.00   0.29     0.00  -0.00  -0.85     0.00  -0.08   0.00
     4   9    -0.00  -0.66  -0.16    -0.00  -0.18   0.01    -0.00  -0.54  -0.10

 -------------------
 - Thermochemistry -
 -------------------
 Temperature   298.150 Kelvin.  Pressure   1.00000 Atm.
 Atom     1 has atomic number 17 and mass  34.96885
 Atom     2 has atomic number  9 and mass  18.99840
 Atom     3 has atomic number  9 and mass  18.99840
 Atom     4 has atomic number  9 and mass  18.99840
 Molecular mass:    91.96406 amu.
 Principal axes and moments of inertia in atomic units:
                           1         2         3
     Eigenvalues --   151.49803 463.45264 614.95067
           X           -0.00000  -0.00000   1.00000
           Y            1.00000  -0.00000   0.00000
           Z            0.00000   1.00000   0.00000
 This molecule is an asymmetric top.
 Rotational symmetry number  2.
 Rotational temperatures (Kelvin)      0.57172     0.18689     0.14085
 Rotational constants (GHZ):          11.91264     3.89412     2.93477
 Zero-point vibrational energy      14466.4 (Joules/Mol)
                                    3.45755 (Kcal/Mol)
 Warning -- explicit consideration of   5 degrees of freedom as
           vibrations may cause significant error
 Vibrational temperatures:    333.19   336.92   440.79   547.34   836.79
          (Kelvin)            984.77
 
 Zero-point correction=                           0.005510 (Hartree/Particle)
 Thermal correction to Energy=                    0.010395
 Thermal correction to Enthalpy=                  0.011339
 Thermal correction to Gibbs Free Energy=        -0.022064
 Sum of electronic and zero-point Energies=           -754.099192
 Sum of electronic and thermal Energies=              -754.094306
 Sum of electronic and thermal Enthalpies=            -754.093362
 Sum of electronic and thermal Free Energies=         -754.126765
 
                     E (Thermal)             CV                S
                      KCal/Mol        Cal/Mol-Kelvin    Cal/Mol-Kelvin
 Total                    6.523             14.647             70.302
 Electronic               0.000              0.000              0.000
 Translational            0.889              2.981             39.468
 Rotational               0.889              2.981             23.894
 Vibrational              4.746              8.685              6.940
 Vibration     1          0.653              1.793              1.867
 Vibration     2          0.654              1.789              1.847
 Vibration     3          0.697              1.662              1.382
 Vibration     4          0.750              1.512              1.038
 Vibration     5          0.938              1.071              0.482
                       Q            Log10(Q)             Ln(Q)
 Total Bot       0.140786D+11         10.148561         23.367925
 Total V=0       0.481904D+13         12.682960         29.203595
 Vib (Bot)       0.109203D-01         -1.961764         -4.517129
 Vib (Bot)    1  0.849901D+00         -0.070632         -0.162636
 Vib (Bot)    2  0.839538D+00         -0.075960         -0.174904
 Vib (Bot)    3  0.618509D+00         -0.208654         -0.480444
 Vib (Bot)    4  0.475142D+00         -0.323176         -0.744141
 Vib (Bot)    5  0.261584D+00         -0.582389         -1.341000
 Vib (V=0)       0.373796D+01          0.572635          1.318541
 Vib (V=0)    1  0.148607D+01          0.172039          0.396134
 Vib (V=0)    2  0.147715D+01          0.169425          0.390115
 Vib (V=0)    3  0.129533D+01          0.112381          0.258767
 Vib (V=0)    4  0.118975D+01          0.075457          0.173746
 Vib (V=0)    5  0.106429D+01          0.027061          0.062310
 Electronic      0.100000D+01          0.000000          0.000000
 Translational   0.346643D+08          7.539882         17.361221
 Rotational      0.371914D+05          4.570443         10.523833
 ***** Axes restored to original set *****
 -------------------------------------------------------------------
 Center     Atomic                   Forces (Hartrees/Bohr)
 Number     Number              X              Y              Z
 -------------------------------------------------------------------
      1       17          -0.000067217    0.000116424    0.000000000
      2        9           0.000011750   -0.000020351   -0.000034290
      3        9           0.000043718   -0.000075722    0.000000000
      4        9           0.000011750   -0.000020351    0.000034290
 -------------------------------------------------------------------
 Cartesian Forces:  Max     0.000116424 RMS     0.000049307

 GradGradGradGradGradGradGradGradGradGradGradGradGradGradGradGradGradGrad
 Berny optimization.
 Internal  Forces:  Max     0.000087436 RMS     0.000041039
 Search for a local minimum.
 Step number   1 out of a maximum of    2
 All quantities printed in internal units (Hartrees-Bohrs-Radians)
 Second derivative matrix not updated -- analytic derivatives used.
 The second derivative matrix:
                          R1        R2        R3        A1        A2
           R1           0.13314
           R2           0.01318   0.16267
           R3          -0.02435   0.01318   0.13314
           A1          -0.00117   0.01594  -0.00326   0.13364
           A2          -0.00326   0.01594  -0.00117  -0.10072   0.13364
           A3          -0.00442   0.03189  -0.00442   0.03292   0.03292
           A4          -0.00000   0.00000   0.00000  -0.00000  -0.00000
           D1          -0.00000   0.00000   0.00000  -0.00000  -0.00000
                          A3        A4        D1
           A3           0.06584
           A4          -0.00000   0.03206
           D1          -0.00000   0.03206   0.03206
 ITU=  0
     Eigenvalues ---    0.06412   0.07362   0.11290   0.15744   0.18371
     Eigenvalues ---    0.23441
 Angle between quadratic step and forces=  19.22 degrees.
 Linear search not attempted -- first point.
 Iteration  1 RMS(Cart)=  0.00034799 RMS(Int)=  0.00000010
 Iteration  2 RMS(Cart)=  0.00000010 RMS(Int)=  0.00000001
 ClnCor:  largest displacement from symmetrization is 1.78D-08 for atom     1.
 Variable       Old X    -DE/DX   Delta X   Delta X   Delta X     New X
                                 (Linear)    (Quad)   (Total)
    R1        3.51460  -0.00004   0.00000  -0.00021  -0.00021   3.51439
    R2        3.34574  -0.00009   0.00000  -0.00070  -0.00070   3.34504
    R3        3.51460  -0.00004   0.00000  -0.00021  -0.00021   3.51439
    A1        1.45844   0.00002   0.00000   0.00033   0.00033   1.45877
    A2        1.45844   0.00002   0.00000   0.00033   0.00033   1.45877
    A3        2.91687   0.00005   0.00000   0.00067   0.00067   2.91754
    A4        3.14159   0.00000   0.00000   0.00000   0.00000   3.14159
    D1        3.14159   0.00000   0.00000   0.00000   0.00000   3.14159
         Item               Value     Threshold  Converged?
 Maximum Force            0.000087     0.000450     YES
 RMS     Force            0.000041     0.000300     YES
 Maximum Displacement     0.000668     0.001800     YES
 RMS     Displacement     0.000348     0.001200     YES
 Predicted change in Energy=-6.134494D-08
 Optimization completed.
    -- Stationary point found.
                           ----------------------------
                           !   Optimized Parameters   !
                           ! (Angstroms and Degrees)  !
 --------------------------                            --------------------------
 ! Name  Definition              Value          Derivative Info.                !
 --------------------------------------------------------------------------------
 ! R1    R(1,2)                  1.8598         -DE/DX =    0.0                 !
 ! R2    R(1,3)                  1.7705         -DE/DX =   -0.0001              !
 ! R3    R(1,4)                  1.8598         -DE/DX =    0.0                 !
 ! A1    A(2,1,3)               83.5623         -DE/DX =    0.0                 !
 ! A2    A(3,1,4)               83.5623         -DE/DX =    0.0                 !
 ! A3    L(2,1,4,3,-1)         167.1246         -DE/DX =    0.0                 !
 ! A4    L(2,1,4,3,-2)         180.0            -DE/DX =    0.0                 !
 ! D1    D(2,1,3,4)            180.0            -DE/DX =    0.0                 !
 --------------------------------------------------------------------------------
 GradGradGradGradGradGradGradGradGradGradGradGradGradGradGradGradGradGrad

 1\1\GINC-SRU02\Freq\RMP2-FC\3-21G\Cl1F3\PAMMY\21-Jun-2024\0\\#N Geom=A
 llCheck Guess=TCheck SCRF=Check GenChk RMP2(FC)/3-21G Freq\\Title Card
  Required\\0,1\Cl,0.4472847472,0.2439393846,-1.29\F,0.3430191691,0.424
 5326629,0.5581204064\F,-0.4379605254,1.7772291696,-1.29\F,0.3430191691
 ,0.4245326629,-3.1381204064\\Version=AM64L-G09RevC.01\State=1-A1\HF=-7
 53.6274935\MP2=-754.1047016\RMSD=1.263e-10\RMSF=4.931e-05\ZeroPoint=0.
 00551\Thermal=0.0103951\Dipole=0.2721772,-0.4714248,0.\DipoleDeriv=0.6
 617488,-0.0294967,0.,-0.0294967,0.6958086,0.,0.,0.,1.3571049,-0.274525
 8,0.0023218,0.0550948,0.0023218,-0.2772068,-0.0954271,-0.0524057,0.090
 7693,-0.5465551,-0.1126972,0.0248531,0.,0.0248531,-0.141395,0.,0.,0.,-
 0.2639947,-0.2745258,0.0023218,-0.0550948,0.0023218,-0.2772068,0.09542
 71,0.0524057,-0.0907693,-0.5465551\Polar=6.9595276,-5.44583,13.2478303
 ,0.,0.,37.729162\PG=C02V [C2(F1Cl1),SGV(F2)]\NImag=0\\0.06617306,-0.05
 780552,0.13292113,0.,0.,0.34224917,-0.01738865,-0.00203954,0.01729074,
 0.01370402,-0.00203954,-0.01503359,-0.02994843,-0.00550905,0.02006532,
 0.01387154,-0.02402622,-0.15303098,-0.00699227,0.01211096,0.13138362,-
 0.03139577,0.06188460,0.,-0.00486441,0.00414596,-0.00731060,0.04112458
 ,0.06188460,-0.10285395,0.,0.00414596,-0.00965175,0.01266233,-0.070176
 52,0.12215744,0.,0.,-0.03618721,-0.00986715,0.01709040,-0.00285535,0.,
 0.,0.04189792,-0.01738865,-0.00203954,-0.01729074,0.00854904,0.0034026
 3,0.00043132,-0.00486441,0.00414596,0.00986715,0.01370402,-0.00203954,
 -0.01503359,0.02994844,0.00340263,0.00462002,-0.00074707,0.00414596,-0
 .00965175,-0.01709041,-0.00550905,0.02006532,-0.01387154,0.02402622,-0
 .15303099,-0.00043132,0.00074707,0.02450270,0.00731060,-0.01266233,-0.
 00285535,0.00699227,-0.01211096,0.13138363\\0.00006722,-0.00011642,0.,
 -0.00001175,0.00002035,0.00003429,-0.00004372,0.00007572,0.,-0.0000117
 5,0.00002035,-0.00003429\\\@


  THE LARGE PRINT GIVETH,
  AND THE SMALL PRINT TAKETH AWAY.

                     -- TOM WAITS
 Job cpu time:  0 days  0 hours  0 minutes  3.6 seconds.
 File lengths (MBytes):  RWF=     49 Int=      0 D2E=      0 Chk=      2 Scr=      1
 Normal termination of Gaussian 09 at Fri Jun 21 04:32:39 2024.
