 Entering Gaussian System, Link 0=g09
 Input=clh3_dft.com
 Output=clh3_dft.log
 Initial command:
 /usr/local/g09/l1.exe /scratch/pammy/Gau-3099.inp -scrdir=/scratch/pammy/
 Entering Link 1 = /usr/local/g09/l1.exe PID=      3100.
  
 Copyright (c) 1988,1990,1992,1993,1995,1998,2003,2009,2011,
            Gaussian, Inc.  All Rights Reserved.
  
 This is part of the Gaussian(R) 09 program.  It is based on
 the Gaussian(R) 03 system (copyright 2003, Gaussian, Inc.),
 the Gaussian(R) 98 system (copyright 1998, Gaussian, Inc.),
 the Gaussian(R) 94 system (copyright 1995, Gaussian, Inc.),
 the Gaussian 92(TM) system (copyright 1992, Gaussian, Inc.),
 the Gaussian 90(TM) system (copyright 1990, Gaussian, Inc.),
 the Gaussian 88(TM) system (copyright 1988, Gaussian, Inc.),
 the Gaussian 86(TM) system (copyright 1986, Carnegie Mellon
 University), and the Gaussian 82(TM) system (copyright 1983,
 Carnegie Mellon University). Gaussian is a federally registered
 trademark of Gaussian, Inc.
  
 This software contains proprietary and confidential information,
 including trade secrets, belonging to Gaussian, Inc.
  
 This software is provided under written license and may be
 used, copied, transmitted, or stored only in accord with that
 written license.
  
 The following legend is applicable only to US Government
 contracts under FAR:
  
                    RESTRICTED RIGHTS LEGEND
  
 Use, reproduction and disclosure by the US Government is
 subject to restrictions as set forth in subparagraphs (a)
 and (c) of the Commercial Computer Software - Restricted
 Rights clause in FAR 52.227-19.
  
 Gaussian, Inc.
 340 Quinnipiac St., Bldg. 40, Wallingford CT 06492
  
  
 ---------------------------------------------------------------
 Warning -- This program may not be used in any manner that
 competes with the business of Gaussian, Inc. or will provide
 assistance to any competitor of Gaussian, Inc.  The licensee
 of this program is prohibited from giving any competitor of
 Gaussian, Inc. access to this program.  By using this program,
 the user acknowledges that Gaussian, Inc. is engaged in the
 business of creating and licensing software in the field of
 computational chemistry and represents and warrants to the
 licensee that it is not a competitor of Gaussian, Inc. and that
 it will not use this program in any manner prohibited above.
 ---------------------------------------------------------------
  

 Cite this work as:
 Gaussian 09, Revision C.01,
 M. J. Frisch, G. W. Trucks, H. B. Schlegel, G. E. Scuseria, 
 M. A. Robb, J. R. Cheeseman, G. Scalmani, V. Barone, B. Mennucci, 
 G. A. Petersson, H. Nakatsuji, M. Caricato, X. Li, H. P. Hratchian, 
 A. F. Izmaylov, J. Bloino, G. Zheng, J. L. Sonnenberg, M. Hada, 
 M. Ehara, K. Toyota, R. Fukuda, J. Hasegawa, M. Ishida, T. Nakajima, 
 Y. Honda, O. Kitao, H. Nakai, T. Vreven, J. A. Montgomery, Jr., 
 J. E. Peralta, F. Ogliaro, M. Bearpark, J. J. Heyd, E. Brothers, 
 K. N. Kudin, V. N. Staroverov, T. Keith, R. Kobayashi, J. Normand, 
 K. Raghavachari, A. Rendell, J. C. Burant, S. S. Iyengar, J. Tomasi, 
 M. Cossi, N. Rega, J. M. Millam, M. Klene, J. E. Knox, J. B. Cross, 
 V. Bakken, C. Adamo, J. Jaramillo, R. Gomperts, R. E. Stratmann, 
 O. Yazyev, A. J. Austin, R. Cammi, C. Pomelli, J. W. Ochterski, 
 R. L. Martin, K. Morokuma, V. G. Zakrzewski, G. A. Voth, 
 P. Salvador, J. J. Dannenberg, S. Dapprich, A. D. Daniels, 
 O. Farkas, J. B. Foresman, J. V. Ortiz, J. Cioslowski, 
 and D. J. Fox, Gaussian, Inc., Wallingford CT, 2010.
 
 ******************************************
 Gaussian 09:  AM64L-G09RevC.01 23-Sep-2011
                27-Jun-2024 
 ******************************************
 %chk=clh3_dft.chk
 ------------------------------------------------
 # opt freq=hpmodes b3lyp/3-21g geom=connectivity
 ------------------------------------------------
 1/14=-1,18=20,19=15,26=3,38=1,57=2/1,3;
 2/9=110,12=2,17=6,18=5,40=1/2;
 3/5=5,11=2,16=1,25=1,30=1,71=1,74=-5/1,2,3;
 4//1;
 5/5=2,38=5/2;
 6/7=2,8=2,9=2,10=2,28=1/1;
 7//1,2,3,16;
 1/14=-1,18=20,19=15/3(2);
 2/9=110/2;
 99//99;
 2/9=110/2;
 3/5=5,11=2,16=1,25=1,30=1,71=1,74=-5/1,2,3;
 4/5=5,16=3/1;
 5/5=2,38=5/2;
 7//1,2,3,16;
 1/14=-1,18=20,19=15/3(-5);
 2/9=110/2;
 6/7=2,8=2,9=2,10=2,19=2,28=1/1;
 99/9=1/99;
 -------------------
 Title Card Required
 -------------------
 Charge =  0 Multiplicity = 1
 Symbolic Z-Matrix:
 Cl                    0.        0.        0.07626 
 H                     0.        0.       -1.20774 
 H                     0.        1.72673  -0.0443 
 H                     0.       -1.72673  -0.0443 
 

 GradGradGradGradGradGradGradGradGradGradGradGradGradGradGradGradGradGrad
 Berny optimization.
 Initialization pass.
                           ----------------------------
                           !    Initial Parameters    !
                           ! (Angstroms and Degrees)  !
 --------------------------                            --------------------------
 ! Name  Definition              Value          Derivative Info.                !
 --------------------------------------------------------------------------------
 ! R1    R(1,2)                  1.284          estimate D2E/DX2                !
 ! R2    R(1,3)                  1.7309         estimate D2E/DX2                !
 ! R3    R(1,4)                  1.7309         estimate D2E/DX2                !
 ! A1    A(2,1,3)               86.0063         estimate D2E/DX2                !
 ! A2    A(2,1,4)               86.0063         estimate D2E/DX2                !
 ! A3    L(3,1,4,2,-1)         172.0125         estimate D2E/DX2                !
 ! A4    L(3,1,4,2,-2)         180.0            estimate D2E/DX2                !
 ! D1    D(2,1,4,3)              0.0            estimate D2E/DX2                !
 --------------------------------------------------------------------------------
 Trust Radius=3.00D-01 FncErr=1.00D-07 GrdErr=1.00D-06
 Number of steps in this run=     20 maximum allowed number of steps=    100.
 GradGradGradGradGradGradGradGradGradGradGradGradGradGradGradGradGradGrad

                          Input orientation:                          
 ---------------------------------------------------------------------
 Center     Atomic      Atomic             Coordinates (Angstroms)
 Number     Number       Type             X           Y           Z
 ---------------------------------------------------------------------
      1         17           0        0.000000    0.000000    0.076255
      2          1           0        0.000000    0.000000   -1.207741
      3          1           0        0.000000    1.726727   -0.044300
      4          1           0        0.000000   -1.726727   -0.044300
 ---------------------------------------------------------------------
                    Distance matrix (angstroms):
                    1          2          3          4
     1  Cl   0.000000
     2  H    1.283996   0.000000
     3  H    1.730930   2.082110   0.000000
     4  H    1.730930   2.082110   3.453454   0.000000
 Stoichiometry    ClH3
 Framework group  C2V[C2(HCl),SGV(H2)]
 Deg. of freedom     3
 Full point group                 C2V     NOp   4
 Largest Abelian subgroup         C2V     NOp   4
 Largest concise Abelian subgroup C2      NOp   2
                         Standard orientation:                         
 ---------------------------------------------------------------------
 Center     Atomic      Atomic             Coordinates (Angstroms)
 Number     Number       Type             X           Y           Z
 ---------------------------------------------------------------------
      1         17           0        0.000000   -0.000000    0.076255
      2          1           0       -0.000000    0.000000   -1.207741
      3          1           0        0.000000    1.726727   -0.044300
      4          1           0       -0.000000   -1.726727   -0.044300
 ---------------------------------------------------------------------
 Rotational constants (GHZ):    310.3040396     84.0920030     66.1621452
 Standard basis: 3-21G (6D, 7F)
 There are    11 symmetry adapted basis functions of A1  symmetry.
 There are     0 symmetry adapted basis functions of A2  symmetry.
 There are     3 symmetry adapted basis functions of B1  symmetry.
 There are     5 symmetry adapted basis functions of B2  symmetry.
 Integral buffers will be    131072 words long.
 Raffenetti 2 integral format.
 Two-electron integral symmetry is turned on.
    19 basis functions,    36 primitive gaussians,    19 cartesian basis functions
    10 alpha electrons       10 beta electrons
       nuclear repulsion energy        18.0622271277 Hartrees.
 NAtoms=    4 NActive=    4 NUniq=    3 SFac= 1.78D+00 NAtFMM=   60 NAOKFM=F Big=F
 One-electron integrals computed using PRISM.
 NBasis=    19 RedAO= T  NBF=    11     0     3     5
 NBsUse=    19 1.00D-06 NBFU=    11     0     3     5
 Harris functional with IExCor=  402 diagonalized for initial guess.
 ExpMin= 1.67D-01 ExpMax= 1.38D+03 ExpMxC= 1.38D+03 IAcc=1 IRadAn=         1 AccDes= 0.00D+00
 HarFok:  IExCor=  402 AccDes= 0.00D+00 IRadAn=         1 IDoV= 1
 ScaDFX=  1.000000  1.000000  1.000000  1.000000
 FoFCou: FMM=F IPFlag=           0 FMFlag=      100000 FMFlg1=           0
         NFxFlg=           0 DoJE=T BraDBF=F KetDBF=T FulRan=T
         Omega=  0.000000  0.000000  1.000000  0.000000  0.000000 ICntrl=     500 IOpCl=  0
         NMat0=    1 NMatS0=    1 NMatT0=    0 NMatD0=    1 NMtDS0=    0 NMtDT0=    0
         I1Cent=           4 NGrid=           0.
 Petite list used in FoFCou.
 Initial guess orbital symmetries:
       Occupied  (A1) (A1) (A1) (B2) (B1) (A1) (A1) (B2) (B1) (A1)
       Virtual   (B2) (A1) (A1) (B1) (A1) (B2) (A1) (B2) (A1)
 The electronic state of the initial guess is 1-A1.
 Requested convergence on RMS density matrix=1.00D-08 within 128 cycles.
 Requested convergence on MAX density matrix=1.00D-06.
 Requested convergence on             energy=1.00D-06.
 No special actions if energy rises.
 Keep R1 ints in memory in canonical form, NReq=928497.
 Integral accuracy reduced to 1.0D-05 until final iterations.
 Initial convergence to 1.0D-05 achieved.  Increase integral accuracy.
 SCF Done:  E(RB3LYP) =  -459.552983586     A.U. after   11 cycles
             Convg  =    0.6341D-08             -V/T =  2.0027

 **********************************************************************

            Population analysis using the SCF density.

 **********************************************************************

 Orbital symmetries:
       Occupied  (A1) (A1) (A1) (B2) (B1) (A1) (A1) (B2) (B1) (A1)
       Virtual   (A1) (B2) (A1) (B1) (A1) (B2) (A1) (B2) (A1)
 The electronic state is 1-A1.
 Alpha  occ. eigenvalues -- -100.93579  -9.50060  -7.27064  -7.26834  -7.25842
 Alpha  occ. eigenvalues --   -0.94498  -0.53870  -0.48138  -0.40273  -0.18779
 Alpha virt. eigenvalues --   -0.03093  -0.02234   0.50719   0.51359   0.59373
 Alpha virt. eigenvalues --    0.70427   0.78559   0.95676   1.01558
          Condensed to atoms (all electrons):
              1          2          3          4
     1  Cl  16.681602   0.246619  -0.033164  -0.033164
     2  H    0.246619   0.534648  -0.025800  -0.025800
     3  H   -0.033164  -0.025800   1.249018   0.014165
     4  H   -0.033164  -0.025800   0.014165   1.249018
 Mulliken atomic charges:
              1
     1  Cl   0.138107
     2  H    0.270332
     3  H   -0.204219
     4  H   -0.204219
 Sum of Mulliken atomic charges =  -0.00000
 Mulliken charges with hydrogens summed into heavy atoms:
              1
     1  Cl  -0.000000
 Sum of Mulliken charges with hydrogens summed into heavy atoms =  -0.00000
 Electronic spatial extent (au):  <R**2>=             65.2384
 Charge=              0.0000 electrons
 Dipole moment (field-independent basis, Debye):
    X=              0.0000    Y=              0.0000    Z=             -1.7132  Tot=              1.7132
 Quadrupole moment (field-independent basis, Debye-Ang):
   XX=            -16.0925   YY=            -22.8842   ZZ=            -12.6291
   XY=             -0.0000   XZ=             -0.0000   YZ=              0.0000
 Traceless Quadrupole moment (field-independent basis, Debye-Ang):
   XX=              1.1095   YY=             -5.6823   ZZ=              4.5728
   XY=             -0.0000   XZ=             -0.0000   YZ=              0.0000
 Octapole moment (field-independent basis, Debye-Ang**2):
  XXX=              0.0000  YYY=              0.0000  ZZZ=             -2.3945  XYY=              0.0000
  XXY=             -0.0000  XXZ=             -0.2386  XZZ=              0.0000  YZZ=              0.0000
  YYZ=              0.3370  XYZ=              0.0000
 Hexadecapole moment (field-independent basis, Debye-Ang**3):
 XXXX=            -16.8818 YYYY=            -97.9037 ZZZZ=            -16.1661 XXXY=             -0.0000
 XXXZ=             -0.0000 YYYX=             -0.0000 YYYZ=             -0.0000 ZZZX=             -0.0000
 ZZZY=              0.0000 XXYY=            -15.0568 XXZZ=             -6.0509 YYZZ=            -15.3639
 XXYZ=              0.0000 YYXZ=             -0.0000 ZZXY=             -0.0000
 N-N= 1.806222712773D+01 E-N=-1.127260922088D+03  KE= 4.583153082059D+02
 Symmetry A1   KE= 3.686751559331D+02
 Symmetry A2   KE= 0.000000000000D+00
 Symmetry B1   KE= 4.544672880954D+01
 Symmetry B2   KE= 4.419342346327D+01
 Calling FoFJK, ICntrl=      2127 FMM=F ISym2X=1 I1Cent= 0 IOpClX= 0 NMat=1 NMatS=1 NMatT=0.
 ***** Axes restored to original set *****
 -------------------------------------------------------------------
 Center     Atomic                   Forces (Hartrees/Bohr)
 Number     Number              X              Y              Z
 -------------------------------------------------------------------
      1       17          -0.000000000   -0.000000000    0.015948898
      2        1           0.000000000   -0.000000000   -0.014535285
      3        1          -0.000000000    0.010192573   -0.000706806
      4        1           0.000000000   -0.010192573   -0.000706806
 -------------------------------------------------------------------
 Cartesian Forces:  Max     0.015948898 RMS     0.007496767

 GradGradGradGradGradGradGradGradGradGradGradGradGradGradGradGradGradGrad
 Berny optimization.
 Internal  Forces:  Max     0.014535285 RMS     0.007246127
 Search for a local minimum.
 Step number   1 out of a maximum of   20
 All quantities printed in internal units (Hartrees-Bohrs-Radians)
 Mixed Optimization -- RFO/linear search
 Second derivative matrix not updated -- first step.
 The second derivative matrix:
                          R1        R2        R3        A1        A2
           R1           0.31462
           R2           0.00000   0.09742
           R3           0.00000   0.00000   0.09742
           A1           0.00000   0.00000   0.00000   0.16000
           A2           0.00000   0.00000   0.00000   0.00000   0.16000
           A3           0.00000   0.00000   0.00000   0.00000   0.00000
           A4           0.00000   0.00000   0.00000   0.00000   0.00000
           D1           0.00000   0.00000   0.00000   0.00000   0.00000
                          A3        A4        D1
           A3           0.00230
           A4           0.00000   0.00230
           D1           0.00000   0.00000   0.00230
 ITU=  0
     Eigenvalues ---    0.00230   0.05487   0.09742   0.09742   0.16000
     Eigenvalues ---    0.31462
 RFO step:  Lambda=-2.74998776D-03 EMin= 2.30000000D-03
 Linear search not attempted -- first point.
 Iteration  1 RMS(Cart)=  0.05246804 RMS(Int)=  0.00000238
 Iteration  2 RMS(Cart)=  0.00000328 RMS(Int)=  0.00000000
 Iteration  3 RMS(Cart)=  0.00000000 RMS(Int)=  0.00000000
 ClnCor:  largest displacement from symmetrization is 3.17D-13 for atom     1.
 Variable       Old X    -DE/DX   Delta X   Delta X   Delta X     New X
                                 (Linear)    (Quad)   (Total)
    R1        2.42640   0.01454   0.00000   0.04580   0.04580   2.47220
    R2        3.27098   0.01022   0.00000   0.10200   0.10200   3.37298
    R3        3.27098   0.01022   0.00000   0.10200   0.10200   3.37298
    A1        1.50109   0.00001   0.00000   0.00009   0.00009   1.50118
    A2        1.50109   0.00001   0.00000   0.00009   0.00009   1.50118
    A3        3.00218   0.00001   0.00000   0.00018   0.00018   3.00237
    A4        3.14159  -0.00000   0.00000  -0.00000   0.00000   3.14159
    D1        0.00000   0.00000   0.00000   0.00000   0.00000   0.00000
         Item               Value     Threshold  Converged?
 Maximum Force            0.014535     0.000450     NO 
 RMS     Force            0.007246     0.000300     NO 
 Maximum Displacement     0.101773     0.001800     NO 
 RMS     Displacement     0.052469     0.001200     NO 
 Predicted change in Energy=-1.406489D-03
 GradGradGradGradGradGradGradGradGradGradGradGradGradGradGradGradGradGrad

                          Input orientation:                          
 ---------------------------------------------------------------------
 Center     Atomic      Atomic             Coordinates (Angstroms)
 Number     Number       Type             X           Y           Z
 ---------------------------------------------------------------------
      1         17           0        0.000000    0.000000    0.084113
      2          1           0       -0.000000   -0.000000   -1.224119
      3          1           0        0.000000    1.780583   -0.040040
      4          1           0       -0.000000   -1.780583   -0.040040
 ---------------------------------------------------------------------
                    Distance matrix (angstroms):
                    1          2          3          4
     1  Cl   0.000000
     2  H    1.308232   0.000000
     3  H    1.784906   2.138345   0.000000
     4  H    1.784906   2.138345   3.561166   0.000000
 Stoichiometry    ClH3
 Framework group  C2V[C2(HCl),SGV(H2)]
 Deg. of freedom     3
 Full point group                 C2V     NOp   4
 Largest Abelian subgroup         C2V     NOp   4
 Largest concise Abelian subgroup C2      NOp   2
                         Standard orientation:                         
 ---------------------------------------------------------------------
 Center     Atomic      Atomic             Coordinates (Angstroms)
 Number     Number       Type             X           Y           Z
 ---------------------------------------------------------------------
      1         17           0       -0.000000    0.000000    0.077827
      2          1           0        0.000000    0.000000   -1.230405
      3          1           0        0.000000    1.780583   -0.046326
      4          1           0       -0.000000   -1.780583   -0.046326
 ---------------------------------------------------------------------
 Rotational constants (GHZ):    298.8357552     79.0819785     62.5335110
 Standard basis: 3-21G (6D, 7F)
 There are    11 symmetry adapted basis functions of A1  symmetry.
 There are     0 symmetry adapted basis functions of A2  symmetry.
 There are     3 symmetry adapted basis functions of B1  symmetry.
 There are     5 symmetry adapted basis functions of B2  symmetry.
 Integral buffers will be    131072 words long.
 Raffenetti 2 integral format.
 Two-electron integral symmetry is turned on.
    19 basis functions,    36 primitive gaussians,    19 cartesian basis functions
    10 alpha electrons       10 beta electrons
       nuclear repulsion energy        17.6000976460 Hartrees.
 NAtoms=    4 NActive=    4 NUniq=    3 SFac= 1.78D+00 NAtFMM=   60 NAOKFM=F Big=F
 One-electron integrals computed using PRISM.
 NBasis=    19 RedAO= T  NBF=    11     0     3     5
 NBsUse=    19 1.00D-06 NBFU=    11     0     3     5
 Initial guess read from the read-write file.
 B after Tr=     0.000000    0.000000    0.000000
         Rot=    1.000000    0.000000    0.000000    0.000000 Ang=   0.00 deg.
 Initial guess orbital symmetries:
       Occupied  (A1) (A1) (A1) (B2) (B1) (A1) (A1) (B2) (B1) (A1)
       Virtual   (A1) (B2) (A1) (B1) (A1) (B2) (A1) (B2) (A1)
 Harris functional with IExCor=  402 diagonalized for initial guess.
 ExpMin= 1.67D-01 ExpMax= 1.38D+03 ExpMxC= 1.38D+03 IAcc=1 IRadAn=         1 AccDes= 0.00D+00
 HarFok:  IExCor=  402 AccDes= 0.00D+00 IRadAn=         1 IDoV= 1
 ScaDFX=  1.000000  1.000000  1.000000  1.000000
 FoFCou: FMM=F IPFlag=           0 FMFlag=      100000 FMFlg1=           0
         NFxFlg=           0 DoJE=T BraDBF=F KetDBF=T FulRan=T
         Omega=  0.000000  0.000000  1.000000  0.000000  0.000000 ICntrl=     500 IOpCl=  0
         NMat0=    1 NMatS0=    1 NMatT0=    0 NMatD0=    1 NMtDS0=    0 NMtDT0=    0
         I1Cent=           4 NGrid=           0.
 Petite list used in FoFCou.
 Requested convergence on RMS density matrix=1.00D-08 within 128 cycles.
 Requested convergence on MAX density matrix=1.00D-06.
 Requested convergence on             energy=1.00D-06.
 No special actions if energy rises.
 Keep R1 ints in memory in canonical form, NReq=928504.
 Integral accuracy reduced to 1.0D-05 until final iterations.
 Initial convergence to 1.0D-05 achieved.  Increase integral accuracy.
 SCF Done:  E(RB3LYP) =  -459.554654166     A.U. after   12 cycles
             Convg  =    0.3891D-08             -V/T =  2.0029
 Calling FoFJK, ICntrl=      2127 FMM=F ISym2X=1 I1Cent= 0 IOpClX= 0 NMat=1 NMatS=1 NMatT=0.
 ***** Axes restored to original set *****
 -------------------------------------------------------------------
 Center     Atomic                   Forces (Hartrees/Bohr)
 Number     Number              X              Y              Z
 -------------------------------------------------------------------
      1       17          -0.000000000    0.000000000    0.001881944
      2        1           0.000000000   -0.000000000   -0.001510254
      3        1           0.000000000    0.002867131   -0.000185845
      4        1           0.000000000   -0.002867131   -0.000185845
 -------------------------------------------------------------------
 Cartesian Forces:  Max     0.002867131 RMS     0.001364201

 GradGradGradGradGradGradGradGradGradGradGradGradGradGradGradGradGradGrad
 Berny optimization.
 Using GEDIIS/GDIIS optimizer.
 Internal  Forces:  Max     0.002873113 RMS     0.001532642
 Search for a local minimum.
 Step number   2 out of a maximum of   20
 All quantities printed in internal units (Hartrees-Bohrs-Radians)
 Mixed Optimization -- RFO/linear search
 Update second derivatives using D2CorX and points    1    2
 DE= -1.67D-03 DEPred=-1.41D-03 R= 1.19D+00
 SS=  1.41D+00  RLast= 1.51D-01 DXNew= 5.0454D-01 4.5404D-01
 Trust test= 1.19D+00 RLast= 1.51D-01 DXMaxT set to 4.54D-01
 The second derivative matrix:
                          R1        R2        R3        A1        A2
           R1           0.31834
           R2          -0.00762   0.08642
           R3          -0.00762  -0.01100   0.08642
           A1          -0.00014  -0.00009  -0.00009   0.16000
           A2          -0.00014  -0.00009  -0.00009  -0.00000   0.16000
           A3          -0.00013  -0.00008  -0.00008   0.00000   0.00000
           A4           0.00000   0.00000   0.00000  -0.00000  -0.00000
           D1          -0.00000  -0.00000  -0.00000   0.00000   0.00000
                          A3        A4        D1
           A3           0.00230
           A4          -0.00000   0.00230
           D1           0.00000  -0.00000   0.00230
 ITU=  1  0
 Use linear search instead of GDIIS.
     Eigenvalues ---    0.00230   0.05486   0.07495   0.09742   0.16000
     Eigenvalues ---    0.31881
 RFO step:  Lambda=-3.66056697D-05 EMin= 2.30000000D-03
 Quartic linear search produced a step of  0.35600.
 Iteration  1 RMS(Cart)=  0.02217255 RMS(Int)=  0.00000443
 Iteration  2 RMS(Cart)=  0.00000620 RMS(Int)=  0.00000000
 Iteration  3 RMS(Cart)=  0.00000000 RMS(Int)=  0.00000000
 ClnCor:  largest displacement from symmetrization is 1.44D-12 for atom     1.
 Variable       Old X    -DE/DX   Delta X   Delta X   Delta X     New X
                                 (Linear)    (Quad)   (Total)
    R1        2.47220   0.00151   0.01630  -0.00888   0.00743   2.47963
    R2        3.37298   0.00287   0.03631   0.00787   0.04418   3.41717
    R3        3.37298   0.00287   0.03631   0.00787   0.04418   3.41717
    A1        1.50118   0.00002   0.00003   0.00036   0.00040   1.50158
    A2        1.50118   0.00002   0.00003   0.00036   0.00040   1.50158
    A3        3.00237   0.00003   0.00006   0.00073   0.00079   3.00316
    A4        3.14159  -0.00000   0.00000  -0.00000   0.00000   3.14159
    D1        0.00000   0.00000   0.00000   0.00000   0.00000   0.00000
         Item               Value     Threshold  Converged?
 Maximum Force            0.002873     0.000450     NO 
 RMS     Force            0.001533     0.000300     NO 
 Maximum Displacement     0.044168     0.001800     NO 
 RMS     Displacement     0.022173     0.001200     NO 
 Predicted change in Energy=-1.141162D-04
 GradGradGradGradGradGradGradGradGradGradGradGradGradGradGradGradGradGrad

                          Input orientation:                          
 ---------------------------------------------------------------------
 Center     Atomic      Atomic             Coordinates (Angstroms)
 Number     Number       Type             X           Y           Z
 ---------------------------------------------------------------------
      1         17           0       -0.000000   -0.000000    0.085552
      2          1           0       -0.000000    0.000000   -1.226612
      3          1           0        0.000000    1.803956   -0.039513
      4          1           0       -0.000000   -1.803956   -0.039513
 ---------------------------------------------------------------------
                    Distance matrix (angstroms):
                    1          2          3          4
     1  Cl   0.000000
     2  H    1.312164   0.000000
     3  H    1.808286   2.159505   0.000000
     4  H    1.808286   2.159505   3.607912   0.000000
 Stoichiometry    ClH3
 Framework group  C2V[C2(HCl),SGV(H2)]
 Deg. of freedom     3
 Full point group                 C2V     NOp   4
 Largest Abelian subgroup         C2V     NOp   4
 Largest concise Abelian subgroup C2      NOp   2
                         Standard orientation:                         
 ---------------------------------------------------------------------
 Center     Atomic      Atomic             Coordinates (Angstroms)
 Number     Number       Type             X           Y           Z
 ---------------------------------------------------------------------
      1         17           0       -0.000000    0.000000    0.078115
      2          1           0        0.000000   -0.000000   -1.234049
      3          1           0       -0.000000    1.803956   -0.046951
      4          1           0       -0.000000   -1.803956   -0.046951
 ---------------------------------------------------------------------
 Rotational constants (GHZ):    297.0161029     77.0460116     61.1767544
 Standard basis: 3-21G (6D, 7F)
 There are    11 symmetry adapted basis functions of A1  symmetry.
 There are     0 symmetry adapted basis functions of A2  symmetry.
 There are     3 symmetry adapted basis functions of B1  symmetry.
 There are     5 symmetry adapted basis functions of B2  symmetry.
 Integral buffers will be    131072 words long.
 Raffenetti 2 integral format.
 Two-electron integral symmetry is turned on.
    19 basis functions,    36 primitive gaussians,    19 cartesian basis functions
    10 alpha electrons       10 beta electrons
       nuclear repulsion energy        17.4423917752 Hartrees.
 NAtoms=    4 NActive=    4 NUniq=    3 SFac= 1.78D+00 NAtFMM=   60 NAOKFM=F Big=F
 One-electron integrals computed using PRISM.
 NBasis=    19 RedAO= T  NBF=    11     0     3     5
 NBsUse=    19 1.00D-06 NBFU=    11     0     3     5
 Initial guess read from the read-write file.
 B after Tr=     0.000000    0.000000    0.000000
         Rot=    1.000000    0.000000    0.000000    0.000000 Ang=   0.00 deg.
 Initial guess orbital symmetries:
       Occupied  (A1) (A1) (A1) (B2) (B1) (A1) (A1) (B2) (B1) (A1)
       Virtual   (A1) (B2) (A1) (B1) (A1) (B2) (A1) (B2) (A1)
 Harris functional with IExCor=  402 diagonalized for initial guess.
 ExpMin= 1.67D-01 ExpMax= 1.38D+03 ExpMxC= 1.38D+03 IAcc=1 IRadAn=         1 AccDes= 0.00D+00
 HarFok:  IExCor=  402 AccDes= 0.00D+00 IRadAn=         1 IDoV= 1
 ScaDFX=  1.000000  1.000000  1.000000  1.000000
 FoFCou: FMM=F IPFlag=           0 FMFlag=      100000 FMFlg1=           0
         NFxFlg=           0 DoJE=T BraDBF=F KetDBF=T FulRan=T
         Omega=  0.000000  0.000000  1.000000  0.000000  0.000000 ICntrl=     500 IOpCl=  0
         NMat0=    1 NMatS0=    1 NMatT0=    0 NMatD0=    1 NMtDS0=    0 NMtDT0=    0
         I1Cent=           4 NGrid=           0.
 Petite list used in FoFCou.
 Requested convergence on RMS density matrix=1.00D-08 within 128 cycles.
 Requested convergence on MAX density matrix=1.00D-06.
 Requested convergence on             energy=1.00D-06.
 No special actions if energy rises.
 Keep R1 ints in memory in canonical form, NReq=928504.
 Integral accuracy reduced to 1.0D-05 until final iterations.
 Initial convergence to 1.0D-05 achieved.  Increase integral accuracy.
 SCF Done:  E(RB3LYP) =  -459.554788528     A.U. after   12 cycles
             Convg  =    0.5866D-08             -V/T =  2.0029
 Calling FoFJK, ICntrl=      2127 FMM=F ISym2X=1 I1Cent= 0 IOpClX= 0 NMat=1 NMatS=1 NMatT=0.
 ***** Axes restored to original set *****
 -------------------------------------------------------------------
 Center     Atomic                   Forces (Hartrees/Bohr)
 Number     Number              X              Y              Z
 -------------------------------------------------------------------
      1       17          -0.000000000   -0.000000000   -0.000246019
      2        1           0.000000000   -0.000000000    0.000358107
      3        1           0.000000000    0.000110882   -0.000056044
      4        1           0.000000000   -0.000110882   -0.000056044
 -------------------------------------------------------------------
 Cartesian Forces:  Max     0.000358107 RMS     0.000135289

 GradGradGradGradGradGradGradGradGradGradGradGradGradGradGradGradGradGrad
 Berny optimization.
 Using GEDIIS/GDIIS optimizer.
 Internal  Forces:  Max     0.000358107 RMS     0.000146873
 Search for a local minimum.
 Step number   3 out of a maximum of   20
 All quantities printed in internal units (Hartrees-Bohrs-Radians)
 Mixed Optimization -- En-DIIS/RFO-DIIS
 Update second derivatives using D2CorX and points    1    2    3
 DE= -1.34D-04 DEPred=-1.14D-04 R= 1.18D+00
 SS=  1.41D+00  RLast= 6.29D-02 DXNew= 7.6360D-01 1.8879D-01
 Trust test= 1.18D+00 RLast= 6.29D-02 DXMaxT set to 4.54D-01
 The second derivative matrix:
                          R1        R2        R3        A1        A2
           R1           0.32518
           R2          -0.00621   0.08044
           R3          -0.00621  -0.01698   0.08044
           A1           0.00009   0.00008   0.00008   0.16001
           A2           0.00009   0.00008   0.00008   0.00001   0.16001
           A3           0.00127   0.00147   0.00147   0.00003   0.00003
           A4           0.00000   0.00000   0.00000   0.00000   0.00000
           D1          -0.00000  -0.00000  -0.00000  -0.00000  -0.00000
                          A3        A4        D1
           A3           0.00238
           A4           0.00000   0.00230
           D1          -0.00000  -0.00000   0.00230
 ITU=  1  1  0
 Use linear search instead of GDIIS.
     Eigenvalues ---    0.00230   0.05458   0.06355   0.09742   0.16000
     Eigenvalues ---    0.32548
 RFO step:  Lambda=-9.03953479D-07 EMin= 2.30000000D-03
 Quartic linear search produced a step of  0.02974.
 Iteration  1 RMS(Cart)=  0.00167614 RMS(Int)=  0.00000097
 Iteration  2 RMS(Cart)=  0.00000123 RMS(Int)=  0.00000000
 Iteration  3 RMS(Cart)=  0.00000000 RMS(Int)=  0.00000000
 ClnCor:  largest displacement from symmetrization is 1.06D-12 for atom     1.
 Variable       Old X    -DE/DX   Delta X   Delta X   Delta X     New X
                                 (Linear)    (Quad)   (Total)
    R1        2.47963  -0.00036   0.00022  -0.00124  -0.00102   2.47861
    R2        3.41717   0.00011   0.00131   0.00050   0.00181   3.41898
    R3        3.41717   0.00011   0.00131   0.00050   0.00181   3.41898
    A1        1.50158  -0.00005   0.00001  -0.00104  -0.00102   1.50055
    A2        1.50158  -0.00005   0.00001  -0.00104  -0.00102   1.50055
    A3        3.00316  -0.00011   0.00002  -0.00207  -0.00205   3.00111
    A4        3.14159  -0.00000   0.00000  -0.00000   0.00000   3.14159
    D1        0.00000   0.00000   0.00000   0.00000   0.00000   0.00000
         Item               Value     Threshold  Converged?
 Maximum Force            0.000358     0.000450     YES
 RMS     Force            0.000147     0.000300     YES
 Maximum Displacement     0.002576     0.001800     NO 
 RMS     Displacement     0.001677     0.001200     NO 
 Predicted change in Energy=-5.530453D-07
 GradGradGradGradGradGradGradGradGradGradGradGradGradGradGradGradGradGrad

                          Input orientation:                          
 ---------------------------------------------------------------------
 Center     Atomic      Atomic             Coordinates (Angstroms)
 Number     Number       Type             X           Y           Z
 ---------------------------------------------------------------------
      1         17           0       -0.000000   -0.000000    0.086375
      2          1           0       -0.000000    0.000000   -1.225248
      3          1           0        0.000000    1.804785   -0.040606
      4          1           0       -0.000000   -1.804785   -0.040606
 ---------------------------------------------------------------------
                    Distance matrix (angstroms):
                    1          2          3          4
     1  Cl   0.000000
     2  H    1.311623   0.000000
     3  H    1.809246   2.158848   0.000000
     4  H    1.809246   2.158848   3.609569   0.000000
 Stoichiometry    ClH3
 Framework group  C2V[C2(HCl),SGV(H2)]
 Deg. of freedom     3
 Full point group                 C2V     NOp   4
 Largest Abelian subgroup         C2V     NOp   4
 Largest concise Abelian subgroup C2      NOp   2
                         Standard orientation:                         
 ---------------------------------------------------------------------
 Center     Atomic      Atomic             Coordinates (Angstroms)
 Number     Number       Type             X           Y           Z
 ---------------------------------------------------------------------
      1         17           0       -0.000000    0.000000    0.078279
      2          1           0        0.000000    0.000000   -1.233344
      3          1           0        0.000000    1.804785   -0.048702
      4          1           0       -0.000000   -1.804785   -0.048702
 ---------------------------------------------------------------------
 Rotational constants (GHZ):    297.1437966     76.9752812     61.1375593
 Standard basis: 3-21G (6D, 7F)
 There are    11 symmetry adapted basis functions of A1  symmetry.
 There are     0 symmetry adapted basis functions of A2  symmetry.
 There are     3 symmetry adapted basis functions of B1  symmetry.
 There are     5 symmetry adapted basis functions of B2  symmetry.
 Integral buffers will be    131072 words long.
 Raffenetti 2 integral format.
 Two-electron integral symmetry is turned on.
    19 basis functions,    36 primitive gaussians,    19 cartesian basis functions
    10 alpha electrons       10 beta electrons
       nuclear repulsion energy        17.4400188492 Hartrees.
 NAtoms=    4 NActive=    4 NUniq=    3 SFac= 1.78D+00 NAtFMM=   60 NAOKFM=F Big=F
 One-electron integrals computed using PRISM.
 NBasis=    19 RedAO= T  NBF=    11     0     3     5
 NBsUse=    19 1.00D-06 NBFU=    11     0     3     5
 Initial guess read from the read-write file.
 B after Tr=     0.000000    0.000000    0.000000
         Rot=    1.000000    0.000000    0.000000    0.000000 Ang=   0.00 deg.
 Initial guess orbital symmetries:
       Occupied  (A1) (A1) (A1) (B2) (B1) (A1) (A1) (B2) (B1) (A1)
       Virtual   (B2) (A1) (A1) (B1) (A1) (B2) (A1) (B2) (A1)
 Requested convergence on RMS density matrix=1.00D-08 within 128 cycles.
 Requested convergence on MAX density matrix=1.00D-06.
 Requested convergence on             energy=1.00D-06.
 No special actions if energy rises.
 Keep R1 ints in memory in canonical form, NReq=928504.
 SCF Done:  E(RB3LYP) =  -459.554789058     A.U. after    8 cycles
             Convg  =    0.3087D-09             -V/T =  2.0029
 Calling FoFJK, ICntrl=      2127 FMM=F ISym2X=1 I1Cent= 0 IOpClX= 0 NMat=1 NMatS=1 NMatT=0.
 ***** Axes restored to original set *****
 -------------------------------------------------------------------
 Center     Atomic                   Forces (Hartrees/Bohr)
 Number     Number              X              Y              Z
 -------------------------------------------------------------------
      1       17          -0.000000000    0.000000000   -0.000156894
      2        1           0.000000000    0.000000000    0.000102508
      3        1           0.000000000    0.000011004    0.000027193
      4        1           0.000000000   -0.000011004    0.000027193
 -------------------------------------------------------------------
 Cartesian Forces:  Max     0.000156894 RMS     0.000055411

 GradGradGradGradGradGradGradGradGradGradGradGradGradGradGradGradGradGrad
 Berny optimization.
 Using GEDIIS/GDIIS optimizer.
 Internal  Forces:  Max     0.000102508 RMS     0.000045741
 Search for a local minimum.
 Step number   4 out of a maximum of   20
 All quantities printed in internal units (Hartrees-Bohrs-Radians)
 Mixed Optimization -- En-DIIS/RFO-DIIS
 Swaping is turned off.
 Update second derivatives using D2CorX and points    1    2    3    4
 DE= -5.30D-07 DEPred=-5.53D-07 R= 9.59D-01
 Trust test= 9.59D-01 RLast= 3.73D-03 DXMaxT set to 4.54D-01
 The second derivative matrix:
                          R1        R2        R3        A1        A2
           R1           0.26978
           R2           0.00840   0.07721
           R3           0.00840  -0.02021   0.07721
           A1          -0.02994   0.01014   0.01014   0.14301
           A2          -0.02994   0.01014   0.01014  -0.01699   0.14301
           A3           0.03508  -0.01531  -0.01531   0.01220   0.01220
           A4          -0.00000   0.00000   0.00000  -0.00000  -0.00000
           D1           0.00000  -0.00000  -0.00000   0.00000   0.00000
                          A3        A4        D1
           A3           0.02787
           A4          -0.00000   0.00230
           D1           0.00000  -0.00000   0.00230
 ITU=  0  1  1  0
     Eigenvalues ---    0.00230   0.05461   0.07850   0.09742   0.16000
     Eigenvalues ---    0.27052
 En-DIIS/RFO-DIIS IScMMF=        0 using points:     4    3
 RFO step:  Lambda=-4.40773677D-08.
 DidBck=F Rises=F RFO-DIIS coefs:    0.95084    0.04916
 Iteration  1 RMS(Cart)=  0.00049979 RMS(Int)=  0.00000016
 Iteration  2 RMS(Cart)=  0.00000017 RMS(Int)=  0.00000000
 ClnCor:  largest displacement from symmetrization is 1.15D-12 for atom     1.
 Variable       Old X    -DE/DX   Delta X   Delta X   Delta X     New X
                                  (DIIS)     (GDIIS)  (Total)
    R1        2.47861  -0.00010   0.00005  -0.00047  -0.00042   2.47819
    R2        3.41898   0.00001  -0.00009   0.00039   0.00030   3.41928
    R3        3.41898   0.00001  -0.00009   0.00039   0.00030   3.41928
    A1        1.50055   0.00003   0.00005   0.00039   0.00044   1.50099
    A2        1.50055   0.00003   0.00005   0.00039   0.00044   1.50099
    A3        3.00111   0.00006   0.00010   0.00077   0.00087   3.00198
    A4        3.14159  -0.00000   0.00000  -0.00000   0.00000   3.14159
    D1        0.00000   0.00000   0.00000   0.00000   0.00000   0.00000
         Item               Value     Threshold  Converged?
 Maximum Force            0.000103     0.000450     YES
 RMS     Force            0.000046     0.000300     YES
 Maximum Displacement     0.000838     0.001800     YES
 RMS     Displacement     0.000500     0.001200     YES
 Predicted change in Energy=-6.562288D-08
 Optimization completed.
    -- Stationary point found.
                           ----------------------------
                           !   Optimized Parameters   !
                           ! (Angstroms and Degrees)  !
 --------------------------                            --------------------------
 ! Name  Definition              Value          Derivative Info.                !
 --------------------------------------------------------------------------------
 ! R1    R(1,2)                  1.3116         -DE/DX =   -0.0001              !
 ! R2    R(1,3)                  1.8092         -DE/DX =    0.0                 !
 ! R3    R(1,4)                  1.8092         -DE/DX =    0.0                 !
 ! A1    A(2,1,3)               85.9754         -DE/DX =    0.0                 !
 ! A2    A(2,1,4)               85.9754         -DE/DX =    0.0                 !
 ! A3    L(3,1,4,2,-1)         171.9508         -DE/DX =    0.0001              !
 ! A4    L(3,1,4,2,-2)         180.0            -DE/DX =    0.0                 !
 ! D1    D(2,1,4,3)              0.0            -DE/DX =    0.0                 !
 --------------------------------------------------------------------------------
 GradGradGradGradGradGradGradGradGradGradGradGradGradGradGradGradGradGrad

                          Input orientation:                          
 ---------------------------------------------------------------------
 Center     Atomic      Atomic             Coordinates (Angstroms)
 Number     Number       Type             X           Y           Z
 ---------------------------------------------------------------------
      1         17           0       -0.000000   -0.000000    0.086375
      2          1           0       -0.000000    0.000000   -1.225248
      3          1           0        0.000000    1.804785   -0.040606
      4          1           0       -0.000000   -1.804785   -0.040606
 ---------------------------------------------------------------------
                    Distance matrix (angstroms):
                    1          2          3          4
     1  Cl   0.000000
     2  H    1.311623   0.000000
     3  H    1.809246   2.158848   0.000000
     4  H    1.809246   2.158848   3.609569   0.000000
 Stoichiometry    ClH3
 Framework group  C2V[C2(HCl),SGV(H2)]
 Deg. of freedom     3
 Full point group                 C2V     NOp   4
 Largest Abelian subgroup         C2V     NOp   4
 Largest concise Abelian subgroup C2      NOp   2
                         Standard orientation:                         
 ---------------------------------------------------------------------
 Center     Atomic      Atomic             Coordinates (Angstroms)
 Number     Number       Type             X           Y           Z
 ---------------------------------------------------------------------
      1         17           0        0.000000    0.000000    0.078279
      2          1           0       -0.000000   -0.000000   -1.233344
      3          1           0       -0.000000    1.804785   -0.048702
      4          1           0       -0.000000   -1.804785   -0.048702
 ---------------------------------------------------------------------
 Rotational constants (GHZ):    297.1437966     76.9752812     61.1375593

 **********************************************************************

            Population analysis using the SCF density.

 **********************************************************************

 Orbital symmetries:
       Occupied  (A1) (A1) (A1) (B2) (B1) (A1) (A1) (B2) (B1) (A1)
       Virtual   (B2) (A1) (A1) (B1) (A1) (B2) (A1) (B2) (A1)
 The electronic state is 1-A1.
 Alpha  occ. eigenvalues -- -100.93332  -9.49722  -7.26776  -7.26472  -7.25536
 Alpha  occ. eigenvalues --   -0.93444  -0.53253  -0.46608  -0.39889  -0.19229
 Alpha virt. eigenvalues --   -0.04447  -0.03980   0.51094   0.51631   0.59688
 Alpha virt. eigenvalues --    0.69653   0.77932   0.96596   1.01560
          Condensed to atoms (all electrons):
              1          2          3          4
     1  Cl  16.655902   0.238900  -0.006830  -0.006830
     2  H    0.238900   0.522199  -0.015697  -0.015697
     3  H   -0.006830  -0.015697   1.207723   0.009383
     4  H   -0.006830  -0.015697   0.009383   1.207723
 Mulliken atomic charges:
              1
     1  Cl   0.118859
     2  H    0.270297
     3  H   -0.194578
     4  H   -0.194578
 Sum of Mulliken atomic charges =  -0.00000
 Mulliken charges with hydrogens summed into heavy atoms:
              1
     1  Cl  -0.000000
 Sum of Mulliken charges with hydrogens summed into heavy atoms =  -0.00000
 Electronic spatial extent (au):  <R**2>=             67.5088
 Charge=              0.0000 electrons
 Dipole moment (field-independent basis, Debye):
    X=              0.0000    Y=              0.0000    Z=             -1.7389  Tot=              1.7389
 Quadrupole moment (field-independent basis, Debye-Ang):
   XX=            -16.1927   YY=            -22.8792   ZZ=            -12.6097
   XY=             -0.0000   XZ=             -0.0000   YZ=              0.0000
 Traceless Quadrupole moment (field-independent basis, Debye-Ang):
   XX=              1.0345   YY=             -5.6520   ZZ=              4.6175
   XY=             -0.0000   XZ=             -0.0000   YZ=              0.0000
 Octapole moment (field-independent basis, Debye-Ang**2):
  XXX=              0.0000  YYY=              0.0000  ZZZ=             -2.5116  XYY=              0.0000
  XXY=             -0.0000  XXZ=             -0.2078  XZZ=              0.0000  YZZ=              0.0000
  YYZ=              0.3280  XYZ=              0.0000
 Hexadecapole moment (field-independent basis, Debye-Ang**3):
 XXXX=            -17.0383 YYYY=           -103.1600 ZZZZ=            -16.3185 XXXY=             -0.0000
 XXXZ=             -0.0000 YYYX=             -0.0000 YYYZ=              0.0000 ZZZX=             -0.0000
 ZZZY=              0.0000 XXYY=            -15.8683 XXZZ=             -6.1694 YYZZ=            -16.2837
 XXYZ=              0.0000 YYXZ=             -0.0000 ZZXY=             -0.0000
 N-N= 1.744001884919D+01 E-N=-1.126033803988D+03  KE= 4.582203785463D+02
 Symmetry A1   KE= 3.685717307620D+02
 Symmetry A2   KE= 0.000000000000D+00
 Symmetry B1   KE= 4.543946215175D+01
 Symmetry B2   KE= 4.420918563253D+01
 1\1\GINC-SRU02\FOpt\RB3LYP\3-21G\Cl1H3\PAMMY\27-Jun-2024\0\\# opt freq
 =hpmodes b3lyp/3-21g geom=connectivity\\Title Card Required\\0,1\Cl,0.
 ,0.,0.0863746898\H,0.,0.,-1.2252483441\H,0.,1.8047846413,-0.0406061729
 \H,0.,-1.8047846413,-0.0406061729\\Version=AM64L-G09RevC.01\State=1-A1
 \HF=-459.5547891\RMSD=3.087e-10\RMSF=5.541e-05\Dipole=0.,0.,-0.6841438
 \Quadrupole=0.7691159,-4.2020989,3.4329829,0.,0.,0.\PG=C02V [C2(H1Cl1)
 ,SGV(H2)]\\@


 BLACK HOLES SUCK.
 Job cpu time:  0 days  0 hours  0 minutes  2.4 seconds.
 File lengths (MBytes):  RWF=      5 Int=      0 D2E=      0 Chk=      2 Scr=      1
 Normal termination of Gaussian 09 at Thu Jun 27 01:23:06 2024.
 Link1:  Proceeding to internal job step number  2.
 -----------------------------------------------------------------
 #N Geom=AllCheck Guess=TCheck SCRF=Check GenChk RB3LYP/3-21G Freq
 -----------------------------------------------------------------
 1/10=4,29=7,30=1,38=1,40=1/1,3;
 2/12=2,40=1/2;
 3/5=5,11=2,14=-4,16=1,25=1,30=1,70=2,71=2,74=-5,116=1/1,2,3;
 4/5=101/1;
 5/5=2,98=1/2;
 8/6=4,10=90,11=11/1;
 11/6=1,8=1,9=11,15=111,16=1/1,2,10;
 10/6=1/2;
 6/7=2,8=2,9=2,10=2,18=1,28=1/1;
 7/8=11,10=1,25=1/1,2,3,16;
 1/10=4,30=1/3;
 99//99;
 Structure from the checkpoint file:  clh3_dft.chk
 -------------------
 Title Card Required
 -------------------
 Charge =  0 Multiplicity = 1
 Redundant internal coordinates found in file.
 Cl,0,0.,0.,0.0863746898
 H,0,0.,0.,-1.2252483441
 H,0,0.,1.8047846413,-0.0406061729
 H,0,0.,-1.8047846413,-0.0406061729
 Recover connectivity data from disk.

 GradGradGradGradGradGradGradGradGradGradGradGradGradGradGradGradGradGrad
 Berny optimization.
 Initialization pass.
                           ----------------------------
                           !    Initial Parameters    !
                           ! (Angstroms and Degrees)  !
 --------------------------                            --------------------------
 ! Name  Definition              Value          Derivative Info.                !
 --------------------------------------------------------------------------------
 ! R1    R(1,2)                  1.3116         calculate D2E/DX2 analytically  !
 ! R2    R(1,3)                  1.8092         calculate D2E/DX2 analytically  !
 ! R3    R(1,4)                  1.8092         calculate D2E/DX2 analytically  !
 ! A1    A(2,1,3)               85.9754         calculate D2E/DX2 analytically  !
 ! A2    A(2,1,4)               85.9754         calculate D2E/DX2 analytically  !
 ! A3    L(3,1,4,2,-1)         171.9508         calculate D2E/DX2 analytically  !
 ! A4    L(3,1,4,2,-2)         180.0            calculate D2E/DX2 analytically  !
 ! D1    D(2,1,4,3)              0.0            calculate D2E/DX2 analytically  !
 --------------------------------------------------------------------------------
 Trust Radius=3.00D-01 FncErr=1.00D-07 GrdErr=1.00D-07
 Number of steps in this run=      2 maximum allowed number of steps=      2.
 GradGradGradGradGradGradGradGradGradGradGradGradGradGradGradGradGradGrad

                          Input orientation:                          
 ---------------------------------------------------------------------
 Center     Atomic      Atomic             Coordinates (Angstroms)
 Number     Number       Type             X           Y           Z
 ---------------------------------------------------------------------
      1         17           0       -0.000000   -0.000000    0.086375
      2          1           0       -0.000000    0.000000   -1.225248
      3          1           0        0.000000    1.804785   -0.040606
      4          1           0       -0.000000   -1.804785   -0.040606
 ---------------------------------------------------------------------
                    Distance matrix (angstroms):
                    1          2          3          4
     1  Cl   0.000000
     2  H    1.311623   0.000000
     3  H    1.809246   2.158848   0.000000
     4  H    1.809246   2.158848   3.609569   0.000000
 Stoichiometry    ClH3
 Framework group  C2V[C2(HCl),SGV(H2)]
 Deg. of freedom     3
 Full point group                 C2V     NOp   4
 Largest Abelian subgroup         C2V     NOp   4
 Largest concise Abelian subgroup C2      NOp   2
                         Standard orientation:                         
 ---------------------------------------------------------------------
 Center     Atomic      Atomic             Coordinates (Angstroms)
 Number     Number       Type             X           Y           Z
 ---------------------------------------------------------------------
      1         17           0        0.000000    0.000000    0.078279
      2          1           0       -0.000000   -0.000000   -1.233344
      3          1           0       -0.000000    1.804785   -0.048702
      4          1           0       -0.000000   -1.804785   -0.048702
 ---------------------------------------------------------------------
 Rotational constants (GHZ):    297.1437966     76.9752812     61.1375593
 Standard basis: 3-21G (6D, 7F)
 There are    11 symmetry adapted basis functions of A1  symmetry.
 There are     0 symmetry adapted basis functions of A2  symmetry.
 There are     3 symmetry adapted basis functions of B1  symmetry.
 There are     5 symmetry adapted basis functions of B2  symmetry.
 Integral buffers will be    131072 words long.
 Raffenetti 2 integral format.
 Two-electron integral symmetry is turned on.
    19 basis functions,    36 primitive gaussians,    19 cartesian basis functions
    10 alpha electrons       10 beta electrons
       nuclear repulsion energy        17.4400188492 Hartrees.
 NAtoms=    4 NActive=    4 NUniq=    3 SFac= 1.78D+00 NAtFMM=   60 NAOKFM=F Big=F
 One-electron integrals computed using PRISM.
 NBasis=    19 RedAO= T  NBF=    11     0     3     5
 NBsUse=    19 1.00D-06 NBFU=    11     0     3     5
 Initial guess read from the checkpoint file:  clh3_dft.chk
 B after Tr=     0.000000    0.000000   -0.000000
         Rot=    1.000000    0.000000    0.000000    0.000000 Ang=   0.00 deg.
 Initial guess orbital symmetries:
       Occupied  (A1) (A1) (A1) (B2) (B1) (A1) (A1) (B2) (B1) (A1)
       Virtual   (B2) (A1) (A1) (B1) (A1) (B2) (A1) (B2) (A1)
 Requested convergence on RMS density matrix=1.00D-08 within 128 cycles.
 Requested convergence on MAX density matrix=1.00D-06.
 Requested convergence on             energy=1.00D-06.
 No special actions if energy rises.
 Keep R1 ints in memory in canonical form, NReq=928504.
 SCF Done:  E(RB3LYP) =  -459.554789058     A.U. after    1 cycles
             Convg  =    0.7442D-11             -V/T =  2.0029
 Range of M.O.s used for correlation:     1    19
 NBasis=    19 NAE=    10 NBE=    10 NFC=     0 NFV=     0
 NROrb=     19 NOA=    10 NOB=    10 NVA=     9 NVB=     9
 Symmetrizing basis deriv contribution to polar:
 IMax=3 JMax=2 DiffMx= 0.00D+00
 G2DrvN: will do     5 centers at a time, making    1 passes doing MaxLOS=1.
 Calling FoFCou, ICntrl=  3107 FMM=F I1Cent=   0 AccDes= 0.00D+00.
 FoFDir/FoFCou used for L=0 through L=1.
 End of G2Drv Frequency-dependent properties file   721 does not exist.
 End of G2Drv Frequency-dependent properties file   722 does not exist.
          IDoAtm=1111
          Differentiating once with respect to electric field.
                with respect to dipole field.
          Differentiating once with respect to nuclear coordinates.
          Keep R1 ints in memory in canonical form, NReq=819538.
          There are    12 degrees of freedom in the 1st order CPHF.  IDoFFX=4.
     12 vectors produced by pass  0 Test12= 7.50D-16 8.33D-09 XBig12= 4.44D+02 2.11D+01.
 AX will form    12 AO Fock derivatives at one time.
     12 vectors produced by pass  1 Test12= 7.50D-16 8.33D-09 XBig12= 2.22D+01 3.59D+00.
     12 vectors produced by pass  2 Test12= 7.50D-16 8.33D-09 XBig12= 2.65D-03 2.94D-02.
     11 vectors produced by pass  3 Test12= 7.50D-16 8.33D-09 XBig12= 3.00D-06 7.20D-04.
      4 vectors produced by pass  4 Test12= 7.50D-16 8.33D-09 XBig12= 3.15D-10 7.16D-06.
      1 vectors produced by pass  5 Test12= 7.50D-16 8.33D-09 XBig12= 7.03D-14 1.42D-07.
 Inverted reduced A of dimension    52 with in-core refinement.
 Isotropic polarizability for W=    0.000000       28.05 Bohr**3.
 End of Minotr Frequency-dependent properties file   721 does not exist.
 End of Minotr Frequency-dependent properties file   722 does not exist.

 **********************************************************************

            Population analysis using the SCF density.

 **********************************************************************

 Orbital symmetries:
       Occupied  (A1) (A1) (A1) (B2) (B1) (A1) (A1) (B2) (B1) (A1)
       Virtual   (B2) (A1) (A1) (B1) (A1) (B2) (A1) (B2) (A1)
 The electronic state is 1-A1.
 Alpha  occ. eigenvalues -- -100.93332  -9.49722  -7.26776  -7.26472  -7.25536
 Alpha  occ. eigenvalues --   -0.93444  -0.53253  -0.46608  -0.39889  -0.19229
 Alpha virt. eigenvalues --   -0.04447  -0.03980   0.51094   0.51631   0.59688
 Alpha virt. eigenvalues --    0.69653   0.77932   0.96596   1.01560
          Condensed to atoms (all electrons):
              1          2          3          4
     1  Cl  16.655902   0.238900  -0.006830  -0.006830
     2  H    0.238900   0.522199  -0.015697  -0.015697
     3  H   -0.006830  -0.015697   1.207723   0.009383
     4  H   -0.006830  -0.015697   0.009383   1.207723
 Mulliken atomic charges:
              1
     1  Cl   0.118859
     2  H    0.270297
     3  H   -0.194578
     4  H   -0.194578
 Sum of Mulliken atomic charges =  -0.00000
 Mulliken charges with hydrogens summed into heavy atoms:
              1
     1  Cl  -0.000000
 Sum of Mulliken charges with hydrogens summed into heavy atoms =  -0.00000
 APT atomic charges:
              1
     1  Cl   0.613380
     2  H    0.173115
     3  H   -0.393247
     4  H   -0.393247
 Sum of APT charges=  -0.00000
 APT Atomic charges with hydrogens summed into heavy atoms:
              1
     1  Cl  -0.000000
     2  H    0.000000
     3  H    0.000000
     4  H    0.000000
 Sum of APT charges=  -0.00000
 Electronic spatial extent (au):  <R**2>=             67.5088
 Charge=             -0.0000 electrons
 Dipole moment (field-independent basis, Debye):
    X=              0.0000    Y=             -0.0000    Z=             -1.7389  Tot=              1.7389
 Quadrupole moment (field-independent basis, Debye-Ang):
   XX=            -16.1927   YY=            -22.8792   ZZ=            -12.6097
   XY=             -0.0000   XZ=             -0.0000   YZ=             -0.0000
 Traceless Quadrupole moment (field-independent basis, Debye-Ang):
   XX=              1.0345   YY=             -5.6520   ZZ=              4.6175
   XY=             -0.0000   XZ=             -0.0000   YZ=             -0.0000
 Octapole moment (field-independent basis, Debye-Ang**2):
  XXX=              0.0000  YYY=             -0.0000  ZZZ=             -2.5116  XYY=              0.0000
  XXY=             -0.0000  XXZ=             -0.2078  XZZ=              0.0000  YZZ=             -0.0000
  YYZ=              0.3280  XYZ=              0.0000
 Hexadecapole moment (field-independent basis, Debye-Ang**3):
 XXXX=            -17.0383 YYYY=           -103.1600 ZZZZ=            -16.3185 XXXY=             -0.0000
 XXXZ=             -0.0000 YYYX=             -0.0000 YYYZ=             -0.0000 ZZZX=             -0.0000
 ZZZY=             -0.0000 XXYY=            -15.8683 XXZZ=             -6.1694 YYZZ=            -16.2837
 XXYZ=              0.0000 YYXZ=             -0.0000 ZZXY=             -0.0000
 N-N= 1.744001884919D+01 E-N=-1.126033803988D+03  KE= 4.582203785463D+02
 Symmetry A1   KE= 3.685717307620D+02
 Symmetry A2   KE= 0.000000000000D+00
 Symmetry B1   KE= 4.543946215171D+01
 Symmetry B2   KE= 4.420918563259D+01
  Exact polarizability:   3.310   0.000  68.027   0.000  -0.000  12.815
 Approx polarizability:   3.303   0.000 263.521   0.000  -0.000  17.540
 Calling FoFJK, ICntrl=    100127 FMM=F ISym2X=1 I1Cent= 0 IOpClX= 0 NMat=1 NMatS=1 NMatT=0.
 Full mass-weighted force constant matrix:
 Low frequencies ---  -33.9044    0.0060    0.0062    0.0079   48.4678  113.5718
 Low frequencies ---  758.3802  799.0897  859.7379
 Harmonic frequencies (cm**-1), IR intensities (KM/Mole), Raman scattering
 activities (A**4/AMU), depolarization ratios for plane and unpolarized
 incident light, reduced masses (AMU), force constants (mDyne/A),
 and normal coordinates:
                           1         2         3         4         5
                          B1        A1        B2        B2        A1
       Frequencies ---   758.3796  799.0897  859.7196 1241.7406 1250.4967
    Reduced masses ---     1.0529    1.0592    1.0529    1.0362    1.0079
   Force constants ---     0.3568    0.3985    0.4585    0.9414    0.9286
    IR Intensities ---    82.3601   61.9629  250.6659 1184.4889    0.0186
 Coord Atom Element:
   1     1    17          0.03645  -0.00000  -0.00000  -0.00000  -0.00000
   2     1    17          0.00000   0.00000   0.03643   0.02891  -0.00000
   3     1    17          0.00000   0.03888  -0.00000   0.00000   0.00175
   1     2     1          0.13556  -0.00000  -0.00000  -0.00000  -0.00000
   2     2     1         -0.00000  -0.00000  -0.83887   0.32577  -0.00000
   3     2     1          0.00000   0.06043  -0.00000  -0.00000  -0.00770
   1     3     1         -0.70011   0.00000   0.00000   0.00000   0.00000
   2     3     1         -0.00000  -0.02778  -0.21265  -0.66437   0.70659
   3     3     1          0.00000  -0.70473   0.31979  -0.07163  -0.02651
   1     4     1         -0.70011   0.00000   0.00000   0.00000   0.00000
   2     4     1         -0.00000   0.02778  -0.21265  -0.66437  -0.70659
   3     4     1         -0.00000  -0.70473  -0.31979   0.07163  -0.02651
                           6
                          A1
       Frequencies ---  2679.5081
    Reduced masses ---     1.0376
   Force constants ---     4.3893
    IR Intensities ---    39.6617
 Coord Atom Element:
   1     1    17          0.00000
   2     1    17         -0.00000
   3     1    17         -0.02962
   1     2     1          0.00000
   2     2     1          0.00000
   3     2     1          0.99931
   1     3     1         -0.00000
   2     3     1          0.00725
   3     3     1          0.01421
   1     4     1         -0.00000
   2     4     1         -0.00725
   3     4     1          0.01421
 Harmonic frequencies (cm**-1), IR intensities (KM/Mole), Raman scattering
 activities (A**4/AMU), depolarization ratios for plane and unpolarized
 incident light, reduced masses (AMU), force constants (mDyne/A),
 and normal coordinates:
                     1                      2                      3
                    B1                     A1                     B2
 Frequencies --   758.3796               799.0897               859.7196
 Red. masses --     1.0529                 1.0592                 1.0529
 Frc consts  --     0.3568                 0.3985                 0.4585
 IR Inten    --    82.3601                61.9629               250.6659
  Atom  AN      X      Y      Z        X      Y      Z        X      Y      Z
     1  17     0.04   0.00   0.00    -0.00   0.00   0.04    -0.00   0.04  -0.00
     2   1     0.14  -0.00   0.00    -0.00  -0.00   0.06    -0.00  -0.84  -0.00
     3   1    -0.70  -0.00   0.00     0.00  -0.03  -0.70     0.00  -0.21   0.32
     4   1    -0.70  -0.00  -0.00     0.00   0.03  -0.70     0.00  -0.21  -0.32
                     4                      5                      6
                    B2                     A1                     A1
 Frequencies --  1241.7406              1250.4967              2679.5081
 Red. masses --     1.0362                 1.0079                 1.0376
 Frc consts  --     0.9414                 0.9286                 4.3893
 IR Inten    --  1184.4889                 0.0186                39.6617
  Atom  AN      X      Y      Z        X      Y      Z        X      Y      Z
     1  17    -0.00   0.03   0.00    -0.00  -0.00   0.00     0.00  -0.00  -0.03
     2   1    -0.00   0.33  -0.00    -0.00  -0.00  -0.01     0.00   0.00   1.00
     3   1     0.00  -0.66  -0.07     0.00   0.71  -0.03    -0.00   0.01   0.01
     4   1     0.00  -0.66   0.07     0.00  -0.71  -0.03    -0.00  -0.01   0.01

 -------------------
 - Thermochemistry -
 -------------------
 Temperature   298.150 Kelvin.  Pressure   1.00000 Atm.
 Atom     1 has atomic number 17 and mass  34.96885
 Atom     2 has atomic number  1 and mass   1.00783
 Atom     3 has atomic number  1 and mass   1.00783
 Atom     4 has atomic number  1 and mass   1.00783
 Molecular mass:    37.99233 amu.
 Principal axes and moments of inertia in atomic units:
                           1         2         3
     Eigenvalues --     6.07363  23.44572  29.51935
           X           -0.00000   0.00000   1.00000
           Y            1.00000   0.00000   0.00000
           Z            0.00000   1.00000   0.00000
 This molecule is an asymmetric top.
 Rotational symmetry number  2.
 Rotational temperatures (Kelvin)     14.26064     3.69423     2.93414
 Rotational constants (GHZ):         297.14380    76.97528    61.13756
 Zero-point vibrational energy      45391.9 (Joules/Mol)
                                   10.84893 (Kcal/Mol)
 Vibrational temperatures:   1091.14  1149.71  1236.94  1786.59  1799.18
          (Kelvin)           3855.21
 
 Zero-point correction=                           0.017289 (Hartree/Particle)
 Thermal correction to Energy=                    0.020382
 Thermal correction to Enthalpy=                  0.021326
 Thermal correction to Gibbs Free Energy=        -0.003491
 Sum of electronic and zero-point Energies=           -459.537500
 Sum of electronic and thermal Energies=              -459.534407
 Sum of electronic and thermal Enthalpies=            -459.533463
 Sum of electronic and thermal Free Energies=         -459.558281
 
                     E (Thermal)             CV                S
                      KCal/Mol        Cal/Mol-Kelvin    Cal/Mol-Kelvin
 Total                   12.790              8.247             52.233
 Electronic               0.000              0.000              0.000
 Translational            0.889              2.981             36.833
 Rotational               0.889              2.981             14.716
 Vibrational             11.012              2.285              0.684
                       Q            Log10(Q)             Ln(Q)
 Total Bot       0.403611D+02          1.605963          3.697868
 Total V=0       0.361636D+10          9.558272         22.008735
 Vib (Bot)       0.119492D-07         -7.922661        -18.242602
 Vib (V=0)       0.107065D+01          0.029647          0.068265
 Electronic      0.100000D+01          0.000000          0.000000
 Translational   0.920448D+07          6.963999         16.035200
 Rotational      0.366966D+03          2.564626          5.905269
 ***** Axes restored to original set *****
 -------------------------------------------------------------------
 Center     Atomic                   Forces (Hartrees/Bohr)
 Number     Number              X              Y              Z
 -------------------------------------------------------------------
      1       17          -0.000000000    0.000000000   -0.000156894
      2        1           0.000000000   -0.000000000    0.000102508
      3        1          -0.000000000    0.000011004    0.000027193
      4        1           0.000000000   -0.000011004    0.000027193
 -------------------------------------------------------------------
 Cartesian Forces:  Max     0.000156894 RMS     0.000055411

 GradGradGradGradGradGradGradGradGradGradGradGradGradGradGradGradGradGrad
 Berny optimization.
 Internal  Forces:  Max     0.000102508 RMS     0.000045741
 Search for a local minimum.
 Step number   1 out of a maximum of    2
 All quantities printed in internal units (Hartrees-Bohrs-Radians)
 Second derivative matrix not updated -- analytic derivatives used.
 The second derivative matrix:
                          R1        R2        R3        A1        A2
           R1           0.26569
           R2          -0.00136   0.05604
           R3          -0.00136   0.00357   0.05604
           A1          -0.00331   0.00931  -0.00785   0.05357
           A2          -0.00331  -0.00785   0.00931  -0.02342   0.05357
           A3          -0.00662   0.00146   0.00146   0.03015   0.03015
           A4           0.00000   0.00000  -0.00000  -0.00000   0.00000
           D1          -0.00000  -0.00000   0.00000   0.00000  -0.00000
                          A3        A4        D1
           A3           0.06030
           A4          -0.00000   0.00004
           D1           0.00000  -0.00032   0.00228
 ITU=  0
     Eigenvalues ---    0.00232   0.04363   0.05940   0.08581   0.09027
     Eigenvalues ---    0.26608
 Angle between quadratic step and forces=  29.32 degrees.
 Linear search not attempted -- first point.
 Iteration  1 RMS(Cart)=  0.00036480 RMS(Int)=  0.00000010
 Iteration  2 RMS(Cart)=  0.00000010 RMS(Int)=  0.00000000
 ClnCor:  largest displacement from symmetrization is 5.92D-13 for atom     1.
 Variable       Old X    -DE/DX   Delta X   Delta X   Delta X     New X
                                 (Linear)    (Quad)   (Total)
    R1        2.47861  -0.00010   0.00000  -0.00036  -0.00036   2.47825
    R2        3.41898   0.00001   0.00000   0.00012   0.00012   3.41910
    R3        3.41898   0.00001   0.00000   0.00012   0.00012   3.41910
    A1        1.50055   0.00003   0.00000   0.00034   0.00034   1.50089
    A2        1.50055   0.00003   0.00000   0.00034   0.00034   1.50089
    A3        3.00111   0.00006   0.00000   0.00067   0.00067   3.00178
    A4        3.14159  -0.00000   0.00000   0.00000   0.00000   3.14159
    D1        0.00000   0.00000   0.00000  -0.00000   0.00000   0.00000
         Item               Value     Threshold  Converged?
 Maximum Force            0.000103     0.000450     YES
 RMS     Force            0.000046     0.000300     YES
 Maximum Displacement     0.000659     0.001800     YES
 RMS     Displacement     0.000365     0.001200     YES
 Predicted change in Energy=-5.159540D-08
 Optimization completed.
    -- Stationary point found.
                           ----------------------------
                           !   Optimized Parameters   !
                           ! (Angstroms and Degrees)  !
 --------------------------                            --------------------------
 ! Name  Definition              Value          Derivative Info.                !
 --------------------------------------------------------------------------------
 ! R1    R(1,2)                  1.3116         -DE/DX =   -0.0001              !
 ! R2    R(1,3)                  1.8092         -DE/DX =    0.0                 !
 ! R3    R(1,4)                  1.8092         -DE/DX =    0.0                 !
 ! A1    A(2,1,3)               85.9754         -DE/DX =    0.0                 !
 ! A2    A(2,1,4)               85.9754         -DE/DX =    0.0                 !
 ! A3    L(3,1,4,2,-1)         171.9508         -DE/DX =    0.0001              !
 ! A4    L(3,1,4,2,-2)         180.0            -DE/DX =    0.0                 !
 ! D1    D(2,1,4,3)              0.0            -DE/DX =    0.0                 !
 --------------------------------------------------------------------------------
 GradGradGradGradGradGradGradGradGradGradGradGradGradGradGradGradGradGrad

 1\1\GINC-SRU02\Freq\RB3LYP\3-21G\Cl1H3\PAMMY\27-Jun-2024\0\\#N Geom=Al
 lCheck Guess=TCheck SCRF=Check GenChk RB3LYP/3-21G Freq\\Title Card Re
 quired\\0,1\Cl,0.,0.,0.0863746898\H,0.,0.,-1.2252483441\H,0.,1.8047846
 413,-0.0406061729\H,0.,-1.8047846413,-0.0406061729\\Version=AM64L-G09R
 evC.01\State=1-A1\HF=-459.5547891\RMSD=7.442e-12\RMSF=5.541e-05\ZeroPo
 int=0.0172889\Thermal=0.0203821\Dipole=0.,0.,-0.6841438\DipoleDeriv=0.
 0519262,0.,0.,0.,1.6605166,0.,0.,0.,0.1276977,0.3111381,0.,0.,0.,-0.00
 6169,0.,0.,0.,0.2143747,-0.1815321,0.,0.,0.,-0.8271738,-0.008508,0.,0.
 160805,-0.1710362,-0.1815321,0.,0.,0.,-0.8271738,0.008508,0.,-0.160805
 ,-0.1710362\Polar=3.3098662,0.,68.0274945,0.,0.,12.8151617\PG=C02V [C2
 (H1Cl1),SGV(H2)]\NImag=0\\0.03411144,0.,0.10086639,0.,0.,0.32331328,0.
 00309423,0.,0.,0.00086302,0.,-0.01011022,0.,0.,0.02522249,0.,0.,-0.271
 29252,0.,0.,0.26569013,-0.01860283,0.,0.,-0.00197863,0.,0.,0.01026881,
 0.,-0.04537808,-0.00029157,0.,-0.00755613,0.00156360,0.,0.05627240,0.,
 0.00668515,-0.02601038,0.,-0.00847063,0.00280119,0.,0.00025673,0.01461
 712,-0.01860283,0.,0.,-0.00197863,0.,0.,0.01031265,0.,0.,0.01026881,0.
 ,-0.04537808,0.00029157,0.,-0.00755613,-0.00156360,0.,-0.00333819,0.00
 152876,0.,0.05627240,0.,-0.00668515,-0.02601038,0.,0.00847063,0.002801
 19,0.,-0.00152876,0.00859207,0.,-0.00025673,0.01461712\\0.,0.,0.000156
 89,0.,0.,-0.00010251,0.,-0.00001100,-0.00002719,0.,0.00001100,-0.00002
 719\\\@


 HE THAT FOLLOWS NATURE IS NEVER LOST.

                             -- BACON
 Job cpu time:  0 days  0 hours  0 minutes  1.2 seconds.
 File lengths (MBytes):  RWF=      5 Int=      0 D2E=      0 Chk=      2 Scr=      1
 Normal termination of Gaussian 09 at Thu Jun 27 01:23:07 2024.
