 Entering Gaussian System, Link 0=g09
 Input=GaH3.com
 Output=GaH3.log
 Initial command:
 /usr/local/g09/l1.exe /scratch/james/Gau-1202.inp -scrdir=/scratch/james/
 Entering Link 1 = /usr/local/g09/l1.exe PID=      1206.
  
 Copyright (c) 1988,1990,1992,1993,1995,1998,2003,2009,2011,
            Gaussian, Inc.  All Rights Reserved.
  
 This is part of the Gaussian(R) 09 program.  It is based on
 the Gaussian(R) 03 system (copyright 2003, Gaussian, Inc.),
 the Gaussian(R) 98 system (copyright 1998, Gaussian, Inc.),
 the Gaussian(R) 94 system (copyright 1995, Gaussian, Inc.),
 the Gaussian 92(TM) system (copyright 1992, Gaussian, Inc.),
 the Gaussian 90(TM) system (copyright 1990, Gaussian, Inc.),
 the Gaussian 88(TM) system (copyright 1988, Gaussian, Inc.),
 the Gaussian 86(TM) system (copyright 1986, Carnegie Mellon
 University), and the Gaussian 82(TM) system (copyright 1983,
 Carnegie Mellon University). Gaussian is a federally registered
 trademark of Gaussian, Inc.
  
 This software contains proprietary and confidential information,
 including trade secrets, belonging to Gaussian, Inc.
  
 This software is provided under written license and may be
 used, copied, transmitted, or stored only in accord with that
 written license.
  
 The following legend is applicable only to US Government
 contracts under FAR:
  
                    RESTRICTED RIGHTS LEGEND
  
 Use, reproduction and disclosure by the US Government is
 subject to restrictions as set forth in subparagraphs (a)
 and (c) of the Commercial Computer Software - Restricted
 Rights clause in FAR 52.227-19.
  
 Gaussian, Inc.
 340 Quinnipiac St., Bldg. 40, Wallingford CT 06492
  
  
 ---------------------------------------------------------------
 Warning -- This program may not be used in any manner that
 competes with the business of Gaussian, Inc. or will provide
 assistance to any competitor of Gaussian, Inc.  The licensee
 of this program is prohibited from giving any competitor of
 Gaussian, Inc. access to this program.  By using this program,
 the user acknowledges that Gaussian, Inc. is engaged in the
 business of creating and licensing software in the field of
 computational chemistry and represents and warrants to the
 licensee that it is not a competitor of Gaussian, Inc. and that
 it will not use this program in any manner prohibited above.
 ---------------------------------------------------------------
  

 Cite this work as:
 Gaussian 09, Revision C.01,
 M. J. Frisch, G. W. Trucks, H. B. Schlegel, G. E. Scuseria, 
 M. A. Robb, J. R. Cheeseman, G. Scalmani, V. Barone, B. Mennucci, 
 G. A. Petersson, H. Nakatsuji, M. Caricato, X. Li, H. P. Hratchian, 
 A. F. Izmaylov, J. Bloino, G. Zheng, J. L. Sonnenberg, M. Hada, 
 M. Ehara, K. Toyota, R. Fukuda, J. Hasegawa, M. Ishida, T. Nakajima, 
 Y. Honda, O. Kitao, H. Nakai, T. Vreven, J. A. Montgomery, Jr., 
 J. E. Peralta, F. Ogliaro, M. Bearpark, J. J. Heyd, E. Brothers, 
 K. N. Kudin, V. N. Staroverov, T. Keith, R. Kobayashi, J. Normand, 
 K. Raghavachari, A. Rendell, J. C. Burant, S. S. Iyengar, J. Tomasi, 
 M. Cossi, N. Rega, J. M. Millam, M. Klene, J. E. Knox, J. B. Cross, 
 V. Bakken, C. Adamo, J. Jaramillo, R. Gomperts, R. E. Stratmann, 
 O. Yazyev, A. J. Austin, R. Cammi, C. Pomelli, J. W. Ochterski, 
 R. L. Martin, K. Morokuma, V. G. Zakrzewski, G. A. Voth, 
 P. Salvador, J. J. Dannenberg, S. Dapprich, A. D. Daniels, 
 O. Farkas, J. B. Foresman, J. V. Ortiz, J. Cioslowski, 
 and D. J. Fox, Gaussian, Inc., Wallingford CT, 2010.
 
 ******************************************
 Gaussian 09:  AM64L-G09RevC.01 23-Sep-2011
                18-Sep-2023 
 ******************************************
 %chk=GaH3.chk
 ----------------------------------------------
 # opt freq=hpmodes mp2/3-21g geom=connectivity
 ----------------------------------------------
 1/18=20,19=15,38=1,57=2/1,3;
 2/9=110,12=2,17=6,18=5,40=1/2;
 3/5=5,11=9,16=1,25=1,30=1,71=1/1,2,3;
 4//1;
 5/5=2,38=5/2;
 8/6=4,10=1/1;
 9/15=2,16=-3/6;
 10/5=1/2;
 6/7=2,8=2,9=2,10=2/1;
 7/12=2/1,2,3,16;
 1/18=20,19=15/3(2);
 2/9=110/2;
 99//99;
 2/9=110/2;
 3/5=5,11=9,16=1,25=1,30=1,71=1/1,2,3;
 4/5=5,16=3/1;
 5/5=2,38=5/2;
 8/6=4,10=1/1;
 9/15=2,16=-3/6;
 10/5=1/2;
 7/12=2/1,2,3,16;
 1/18=20,19=15/3(-8);
 2/9=110/2;
 6/7=2,8=2,9=2,10=2/1;
 99//99;
 -------------------
 Title Card Required
 -------------------
 Charge =  0 Multiplicity = 1
 Symbolic Z-Matrix:
 H                     0.        1.55      0. 
 H                     1.34234  -0.775     0. 
 H                    -1.34234  -0.775     0. 
 Ga                    0.        0.        0. 
 

 GradGradGradGradGradGradGradGradGradGradGradGradGradGradGradGradGradGrad
 Berny optimization.
 Initialization pass.
                           ----------------------------
                           !    Initial Parameters    !
                           ! (Angstroms and Degrees)  !
 --------------------------                            --------------------------
 ! Name  Definition              Value          Derivative Info.                !
 --------------------------------------------------------------------------------
 ! R1    R(1,4)                  1.55           estimate D2E/DX2                !
 ! R2    R(2,4)                  1.55           estimate D2E/DX2                !
 ! R3    R(3,4)                  1.55           estimate D2E/DX2                !
 ! A1    A(1,4,2)              120.0            estimate D2E/DX2                !
 ! A2    A(1,4,3)              120.0            estimate D2E/DX2                !
 ! A3    A(2,4,3)              120.0            estimate D2E/DX2                !
 ! D1    D(1,4,3,2)            180.0            estimate D2E/DX2                !
 --------------------------------------------------------------------------------
 Trust Radius=3.00D-01 FncErr=1.00D-07 GrdErr=1.00D-07
 Number of steps in this run=     20 maximum allowed number of steps=    100.
 GradGradGradGradGradGradGradGradGradGradGradGradGradGradGradGradGradGrad

                          Input orientation:                          
 ---------------------------------------------------------------------
 Center     Atomic      Atomic             Coordinates (Angstroms)
 Number     Number       Type             X           Y           Z
 ---------------------------------------------------------------------
      1          1           0        0.000000    1.550000    0.000000
      2          1           0        1.342339   -0.775000    0.000000
      3          1           0       -1.342339   -0.775000    0.000000
      4         31           0        0.000000    0.000000    0.000000
 ---------------------------------------------------------------------
                    Distance matrix (angstroms):
                    1          2          3          4
     1  H    0.000000
     2  H    2.684679   0.000000
     3  H    2.684679   2.684679   0.000000
     4  Ga   1.550000   1.550000   1.550000   0.000000
 Stoichiometry    GaH3
 Framework group  D3H[O(Ga),3C2(H)]
 Deg. of freedom     1
 Full point group                 D3H     NOp  12
 Largest Abelian subgroup         C2V     NOp   4
 Largest concise Abelian subgroup C2      NOp   2
                         Standard orientation:                         
 ---------------------------------------------------------------------
 Center     Atomic      Atomic             Coordinates (Angstroms)
 Number     Number       Type             X           Y           Z
 ---------------------------------------------------------------------
      1          1           0        0.000000    1.550000    0.000000
      2          1           0        1.342339   -0.775000    0.000000
      3          1           0       -1.342339   -0.775000    0.000000
      4         31           0        0.000000    0.000000    0.000000
 ---------------------------------------------------------------------
 Rotational constants (GHZ):    139.1481374    139.1481374     69.5740687
 Standard basis: 3-21G (6D, 7F)
 There are    16 symmetry adapted basis functions of A1  symmetry.
 There are     1 symmetry adapted basis functions of A2  symmetry.
 There are     7 symmetry adapted basis functions of B1  symmetry.
 There are     5 symmetry adapted basis functions of B2  symmetry.
 Integral buffers will be    131072 words long.
 Raffenetti 1 integral format.
 Two-electron integral symmetry is turned on.
    29 basis functions,    66 primitive gaussians,    29 cartesian basis functions
    17 alpha electrons       17 beta electrons
       nuclear repulsion energy        32.3419627164 Hartrees.
 NAtoms=    4 NActive=    4 NUniq=    2 SFac= 4.00D+00 NAtFMM=   60 NAOKFM=F Big=F
 One-electron integrals computed using PRISM.
 NBasis=    29 RedAO= T  NBF=    16     1     7     5
 NBsUse=    29 1.00D-06 NBFU=    16     1     7     5
 Harris functional with IExCor=  205 diagonalized for initial guess.
 ExpMin= 5.72D-02 ExpMax= 4.75D+03 ExpMxC= 4.75D+03 IAcc=2 IRadAn=         4 AccDes= 0.00D+00
 HarFok:  IExCor=  205 AccDes= 0.00D+00 IRadAn=         4 IDoV= 1
 ScaDFX=  1.000000  1.000000  1.000000  1.000000
 FoFCou: FMM=F IPFlag=           0 FMFlag=      100000 FMFlg1=           0
         NFxFlg=           0 DoJE=T BraDBF=F KetDBF=T FulRan=T
         Omega=  0.000000  0.000000  1.000000  0.000000  0.000000 ICntrl=     500 IOpCl=  0
         NMat0=    1 NMatS0=    1 NMatT0=    0 NMatD0=    1 NMtDS0=    0 NMtDT0=    0
         I1Cent=           4 NGrid=           0.
 Petite list used in FoFCou.
 Initial guess orbital symmetries:
       Occupied  (A1') (A1') (E') (E') (A2") (A1') (E') (E') (A2")
                 (E') (E') (A1') (E") (E") (A1') (E') (E')
       Virtual   (A2") (A1') (E') (E') (A1') (E') (E') (A2") (A1')
                 (E') (E') (A1')
 The electronic state of the initial guess is 1-A1'.
 Requested convergence on RMS density matrix=1.00D-08 within 128 cycles.
 Requested convergence on MAX density matrix=1.00D-06.
 Requested convergence on             energy=1.00D-06.
 No special actions if energy rises.
 Keep R1 ints in memory in canonical form, NReq=936071.
 SCF Done:  E(RHF) =  -1915.54780655     A.U. after    8 cycles
             Convg  =    0.5579D-08             -V/T =  1.9994
 ExpMin= 5.72D-02 ExpMax= 4.75D+03 ExpMxC= 4.75D+03 IAcc=3 IRadAn=         5 AccDes= 0.00D+00
 HarFok:  IExCor=  205 AccDes= 0.00D+00 IRadAn=         5 IDoV=-2
 ScaDFX=  1.000000  1.000000  1.000000  1.000000
 Range of M.O.s used for correlation:    10    29
 NBasis=    29 NAE=    17 NBE=    17 NFC=     9 NFV=     0
 NROrb=     20 NOA=     8 NOB=     8 NVA=    12 NVB=    12
 Fully direct method using O(ONN) memory.
 JobTyp=1 Pass  1:  I=  10 to  17 NPSUse=  1 ParTrn=F ParDer=F DoDerP=T.
 Spin components of T(2) and E(2):
     alpha-alpha T2 =       0.7925757541D-03 E2=     -0.1429856047D-02
     alpha-beta  T2 =       0.2103023396D-01 E2=     -0.4140863565D-01
     beta-beta   T2 =       0.7925757541D-03 E2=     -0.1429856047D-02
 ANorm=    0.1011244474D+01
 E2 =    -0.4426834775D-01 EUMP2 =    -0.19155920748951D+04
          IDoAtm=1111
          Differentiating once with respect to electric field.
                with respect to dipole field.
          Differentiating once with respect to nuclear coordinates.
          Keep R1 ints in memory in canonical form, NReq=915614.
          There are     1 degrees of freedom in the 1st order CPHF.  IDoFFX=0.
 LinEq1:  Iter=  0 NonCon=     1 RMS=3.81D-03 Max=2.87D-02
 AX will form     1 AO Fock derivatives at one time.
 LinEq1:  Iter=  1 NonCon=     1 RMS=2.17D-04 Max=1.58D-03
 LinEq1:  Iter=  2 NonCon=     1 RMS=1.49D-05 Max=1.63D-04
 LinEq1:  Iter=  3 NonCon=     1 RMS=1.78D-06 Max=1.48D-05
 LinEq1:  Iter=  4 NonCon=     1 RMS=1.18D-07 Max=7.20D-07
 LinEq1:  Iter=  5 NonCon=     1 RMS=5.87D-09 Max=3.84D-08
 LinEq1:  Iter=  6 NonCon=     1 RMS=3.32D-10 Max=2.99D-09
 LinEq1:  Iter=  7 NonCon=     0 RMS=2.90D-11 Max=2.02D-10
 Linear equations converged to 1.000D-10 1.000D-09 after     7 iterations.
 End of Minotr Frequency-dependent properties file   721 does not exist.
 End of Minotr Frequency-dependent properties file   722 does not exist.

 **********************************************************************

            Population analysis using the SCF density.

 **********************************************************************

 Orbital symmetries:
       Occupied  (A1') (A1') (A2") (E') (E') (A1') (A2") (E') (E')
                 (A1') (E") (E") (E') (E') (A1') (E') (E')
       Virtual   (A2") (E') (E') (A1') (A1') (A2") (E') (E') (A1')
                 (E') (E') (A1')
 The electronic state is 1-A1'.
 Alpha  occ. eigenvalues -- -376.43309 -47.96448 -42.22037 -42.21860 -42.21860
 Alpha  occ. eigenvalues --   -6.34273  -4.42199  -4.41696  -4.41696  -1.10356
 Alpha  occ. eigenvalues --   -1.10092  -1.10092  -1.09536  -1.09536  -0.59641
 Alpha  occ. eigenvalues --   -0.42427  -0.42427
 Alpha virt. eigenvalues --    0.03172   0.17484   0.17484   0.19113   0.26616
 Alpha virt. eigenvalues --    0.32858   0.37293   0.37293   1.32830   1.37748
 Alpha virt. eigenvalues --    1.37748   5.66858
          Condensed to atoms (all electrons):
              1          2          3          4
     1  H    0.874239  -0.009974  -0.009974   0.365306
     2  H   -0.009974   0.874239  -0.009974   0.365306
     3  H   -0.009974  -0.009974   0.874239   0.365306
     4  Ga   0.365306   0.365306   0.365306  29.245292
 Mulliken atomic charges:
              1
     1  H   -0.219596
     2  H   -0.219596
     3  H   -0.219596
     4  Ga   0.658789
 Sum of Mulliken atomic charges =  -0.00000
 Mulliken charges with hydrogens summed into heavy atoms:
              1
     4  Ga  -0.000000
 Sum of Mulliken charges with hydrogens summed into heavy atoms =  -0.00000
 Electronic spatial extent (au):  <R**2>=             70.6256
 Charge=             -0.0000 electrons
 Dipole moment (field-independent basis, Debye):
    X=              0.0000    Y=              0.0000    Z=              0.0000  Tot=              0.0000
 Quadrupole moment (field-independent basis, Debye-Ang):
   XX=            -22.4907   YY=            -22.4907   ZZ=            -15.3933
   XY=              0.0000   XZ=             -0.0000   YZ=             -0.0000
 Traceless Quadrupole moment (field-independent basis, Debye-Ang):
   XX=             -2.3658   YY=             -2.3658   ZZ=              4.7316
   XY=              0.0000   XZ=             -0.0000   YZ=             -0.0000
 Octapole moment (field-independent basis, Debye-Ang**2):
  XXX=              0.0000  YYY=             -3.0456  ZZZ=             -0.0000  XYY=             -0.0000
  XXY=              3.0456  XXZ=              0.0000  XZZ=              0.0000  YZZ=              0.0000
  YYZ=             -0.0000  XYZ=             -0.0000
 Hexadecapole moment (field-independent basis, Debye-Ang**3):
 XXXX=            -62.3806 YYYY=            -62.3806 ZZZZ=            -14.5958 XXXY=              0.0000
 XXXZ=              0.0000 YYYX=              0.0000 YYYZ=              0.0000 ZZZX=              0.0000
 ZZZY=              0.0000 XXYY=            -20.7935 XXZZ=            -12.0587 YYZZ=            -12.0587
 XXYZ=              0.0000 YYXZ=              0.0000 ZZXY=              0.0000
 N-N= 3.234196271636D+01 E-N=-4.657328082095D+03  KE= 1.916738259329D+03
 Symmetry A1   KE= 1.409263149021D+03
 Symmetry A2   KE= 2.601339870927D+01
 Symmetry B1   KE= 2.413568890169D+02
 Symmetry B2   KE= 2.401048225821D+02
 Calling FoFJK, ICntrl=      2127 FMM=F ISym2X=1 I1Cent= 0 IOpClX= 0 NMat=1 NMatS=1 NMatT=0.
 ***** Axes restored to original set *****
 -------------------------------------------------------------------
 Center     Atomic                   Forces (Hartrees/Bohr)
 Number     Number              X              Y              Z
 -------------------------------------------------------------------
      1        1           0.000000000    0.010598887   -0.000000000
      2        1           0.009178906   -0.005299444    0.000000000
      3        1          -0.009178906   -0.005299444    0.000000000
      4       31          -0.000000000    0.000000000   -0.000000000
 -------------------------------------------------------------------
 Cartesian Forces:  Max     0.010598887 RMS     0.005299444

 GradGradGradGradGradGradGradGradGradGradGradGradGradGradGradGradGradGrad
 Berny optimization.
 Internal  Forces:  Max     0.010598887 RMS     0.006938600
 Search for a local minimum.
 Step number   1 out of a maximum of   20
 All quantities printed in internal units (Hartrees-Bohrs-Radians)
 Mixed Optimization -- RFO/linear search
 Second derivative matrix not updated -- first step.
 The second derivative matrix:
                          R1        R2        R3        A1        A2
           R1           0.15924
           R2           0.00000   0.15924
           R3           0.00000   0.00000   0.15924
           A1           0.00000   0.00000   0.00000   0.16000
           A2           0.00000   0.00000   0.00000   0.00000   0.16000
           A3           0.00000   0.00000   0.00000   0.00000   0.00000
           D1           0.00000   0.00000   0.00000   0.00000   0.00000
                          A3        D1
           A3           0.16000
           D1           0.00000   0.02486
 ITU=  0
     Eigenvalues ---    0.02486   0.15924   0.15924   0.15924   0.16000
     Eigenvalues ---    0.16000
 RFO step:  Lambda=-2.08892341D-03 EMin= 2.48639584D-02
 Linear search not attempted -- first point.
 Iteration  1 RMS(Cart)=  0.04300824 RMS(Int)=  0.00000000
 Iteration  2 RMS(Cart)=  0.00000000 RMS(Int)=  0.00000000
 ClnCor:  largest displacement from symmetrization is 5.35D-14 for atom     4.
 Variable       Old X    -DE/DX   Delta X   Delta X   Delta X     New X
                                 (Linear)    (Quad)   (Total)
    R1        2.92908   0.01060   0.00000   0.06570   0.06570   2.99477
    R2        2.92908   0.01060   0.00000   0.06570   0.06570   2.99477
    R3        2.92908   0.01060   0.00000   0.06570   0.06570   2.99477
    A1        2.09440  -0.00000   0.00000  -0.00000   0.00000   2.09440
    A2        2.09440   0.00000   0.00000   0.00000   0.00000   2.09440
    A3        2.09440   0.00000   0.00000   0.00000   0.00000   2.09440
    D1        3.14159   0.00000   0.00000  -0.00000   0.00000   3.14159
         Item               Value     Threshold  Converged?
 Maximum Force            0.010599     0.000450     NO 
 RMS     Force            0.006939     0.000300     NO 
 Maximum Displacement     0.065696     0.001800     NO 
 RMS     Displacement     0.043008     0.001200     NO 
 Predicted change in Energy=-1.057983D-03
 GradGradGradGradGradGradGradGradGradGradGradGradGradGradGradGradGradGrad

                          Input orientation:                          
 ---------------------------------------------------------------------
 Center     Atomic      Atomic             Coordinates (Angstroms)
 Number     Number       Type             X           Y           Z
 ---------------------------------------------------------------------
      1          1           0        0.000000    1.584765   -0.000000
      2          1           0        1.372447   -0.792382   -0.000000
      3          1           0       -1.372447   -0.792382   -0.000000
      4         31           0        0.000000   -0.000000   -0.000000
 ---------------------------------------------------------------------
                    Distance matrix (angstroms):
                    1          2          3          4
     1  H    0.000000
     2  H    2.744893   0.000000
     3  H    2.744893   2.744893   0.000000
     4  Ga   1.584765   1.584765   1.584765   0.000000
 Stoichiometry    GaH3
 Framework group  D3H[O(Ga),3C2(H)]
 Deg. of freedom     1
 Full point group                 D3H     NOp  12
 Largest Abelian subgroup         C2V     NOp   4
 Largest concise Abelian subgroup C2      NOp   2
                         Standard orientation:                         
 ---------------------------------------------------------------------
 Center     Atomic      Atomic             Coordinates (Angstroms)
 Number     Number       Type             X           Y           Z
 ---------------------------------------------------------------------
      1          1           0        0.000000    1.584765    0.000000
      2          1           0        1.372447   -0.792382    0.000000
      3          1           0       -1.372447   -0.792382    0.000000
      4         31           0        0.000000    0.000000    0.000000
 ---------------------------------------------------------------------
 Rotational constants (GHZ):    133.1101273    133.1101273     66.5550637
 Standard basis: 3-21G (6D, 7F)
 There are    16 symmetry adapted basis functions of A1  symmetry.
 There are     1 symmetry adapted basis functions of A2  symmetry.
 There are     7 symmetry adapted basis functions of B1  symmetry.
 There are     5 symmetry adapted basis functions of B2  symmetry.
 Integral buffers will be    131072 words long.
 Raffenetti 1 integral format.
 Two-electron integral symmetry is turned on.
    29 basis functions,    66 primitive gaussians,    29 cartesian basis functions
    17 alpha electrons       17 beta electrons
       nuclear repulsion energy        31.6324785955 Hartrees.
 NAtoms=    4 NActive=    4 NUniq=    2 SFac= 4.00D+00 NAtFMM=   60 NAOKFM=F Big=F
 One-electron integrals computed using PRISM.
 NBasis=    29 RedAO= T  NBF=    16     1     7     5
 NBsUse=    29 1.00D-06 NBFU=    16     1     7     5
 Initial guess read from the read-write file.
 B after Tr=     0.000000    0.000000    0.000000
         Rot=    1.000000    0.000000    0.000000    0.000000 Ang=   0.00 deg.
 Initial guess orbital symmetries:
       Occupied  (A1') (A1') (A2") (E') (E') (A1') (A2") (E') (E')
                 (A1') (E") (E") (E') (E') (A1') (E') (E')
       Virtual   (A2") (E') (E') (A1') (A1') (A2") (E') (E') (A1')
                 (E') (E') (A1')
 Harris functional with IExCor=  205 diagonalized for initial guess.
 ExpMin= 5.72D-02 ExpMax= 4.75D+03 ExpMxC= 4.75D+03 IAcc=2 IRadAn=         4 AccDes= 0.00D+00
 HarFok:  IExCor=  205 AccDes= 0.00D+00 IRadAn=         4 IDoV= 1
 ScaDFX=  1.000000  1.000000  1.000000  1.000000
 FoFCou: FMM=F IPFlag=           0 FMFlag=      100000 FMFlg1=           0
         NFxFlg=           0 DoJE=T BraDBF=F KetDBF=T FulRan=T
         Omega=  0.000000  0.000000  1.000000  0.000000  0.000000 ICntrl=     500 IOpCl=  0
         NMat0=    1 NMatS0=    1 NMatT0=    0 NMatD0=    1 NMtDS0=    0 NMtDT0=    0
         I1Cent=           4 NGrid=           0.
 Petite list used in FoFCou.
 Requested convergence on RMS density matrix=1.00D-08 within 128 cycles.
 Requested convergence on MAX density matrix=1.00D-06.
 Requested convergence on             energy=1.00D-06.
 No special actions if energy rises.
 Keep R1 ints in memory in canonical form, NReq=936071.
 SCF Done:  E(RHF) =  -1915.54857227     A.U. after    7 cycles
             Convg  =    0.4525D-08             -V/T =  1.9994
 ExpMin= 5.72D-02 ExpMax= 4.75D+03 ExpMxC= 4.75D+03 IAcc=3 IRadAn=         5 AccDes= 0.00D+00
 HarFok:  IExCor=  205 AccDes= 0.00D+00 IRadAn=         5 IDoV=-2
 ScaDFX=  1.000000  1.000000  1.000000  1.000000
 Range of M.O.s used for correlation:    10    29
 NBasis=    29 NAE=    17 NBE=    17 NFC=     9 NFV=     0
 NROrb=     20 NOA=     8 NOB=     8 NVA=    12 NVB=    12
 Fully direct method using O(ONN) memory.
 JobTyp=1 Pass  1:  I=  10 to  17 NPSUse=  1 ParTrn=F ParDer=F DoDerP=T.
 Spin components of T(2) and E(2):
     alpha-alpha T2 =       0.7858505338D-03 E2=     -0.1393244823D-02
     alpha-beta  T2 =       0.2175492384D-01 E2=     -0.4186224655D-01
     beta-beta   T2 =       0.7858505338D-03 E2=     -0.1393244823D-02
 ANorm=    0.1011596078D+01
 E2 =    -0.4464873619D-01 EUMP2 =    -0.19155932210077D+04
          IDoAtm=1111
          Differentiating once with respect to electric field.
                with respect to dipole field.
          Differentiating once with respect to nuclear coordinates.
          Keep R1 ints in memory in canonical form, NReq=915614.
          There are     1 degrees of freedom in the 1st order CPHF.  IDoFFX=0.
 LinEq1:  Iter=  0 NonCon=     1 RMS=3.84D-03 Max=2.80D-02
 AX will form     1 AO Fock derivatives at one time.
 LinEq1:  Iter=  1 NonCon=     1 RMS=2.25D-04 Max=1.62D-03
 LinEq1:  Iter=  2 NonCon=     1 RMS=1.26D-05 Max=1.28D-04
 LinEq1:  Iter=  3 NonCon=     1 RMS=1.45D-06 Max=1.23D-05
 LinEq1:  Iter=  4 NonCon=     1 RMS=1.13D-07 Max=7.42D-07
 LinEq1:  Iter=  5 NonCon=     1 RMS=5.95D-09 Max=4.26D-08
 LinEq1:  Iter=  6 NonCon=     1 RMS=2.85D-10 Max=2.24D-09
 LinEq1:  Iter=  7 NonCon=     0 RMS=2.70D-11 Max=1.79D-10
 Linear equations converged to 1.000D-10 1.000D-09 after     7 iterations.
 End of Minotr Frequency-dependent properties file   721 does not exist.
 End of Minotr Frequency-dependent properties file   722 does not exist.
 Calling FoFJK, ICntrl=      2127 FMM=F ISym2X=1 I1Cent= 0 IOpClX= 0 NMat=1 NMatS=1 NMatT=0.
 ***** Axes restored to original set *****
 -------------------------------------------------------------------
 Center     Atomic                   Forces (Hartrees/Bohr)
 Number     Number              X              Y              Z
 -------------------------------------------------------------------
      1        1           0.000000000    0.001224862   -0.000000000
      2        1           0.001060761   -0.000612431    0.000000000
      3        1          -0.001060761   -0.000612431    0.000000000
      4       31          -0.000000000   -0.000000000   -0.000000000
 -------------------------------------------------------------------
 Cartesian Forces:  Max     0.001224862 RMS     0.000612431

 GradGradGradGradGradGradGradGradGradGradGradGradGradGradGradGradGradGrad
 Berny optimization.
 Using GEDIIS/GDIIS optimizer.
 Internal  Forces:  Max     0.001224862 RMS     0.000801860
 Search for a local minimum.
 Step number   2 out of a maximum of   20
 All quantities printed in internal units (Hartrees-Bohrs-Radians)
 Mixed Optimization -- En-DIIS/RFO-DIIS
 Update second derivatives using D2CorX and points    1    2
 DE= -1.15D-03 DEPred=-1.06D-03 R= 1.08D+00
 SS=  1.41D+00  RLast= 1.14D-01 DXNew= 5.0454D-01 3.4137D-01
 Trust test= 1.08D+00 RLast= 1.14D-01 DXMaxT set to 3.41D-01
 The second derivative matrix:
                          R1        R2        R3        A1        A2
           R1           0.15372
           R2          -0.00552   0.15372
           R3          -0.00552  -0.00552   0.15372
           A1           0.00000   0.00000   0.00000   0.16000
           A2           0.00000   0.00000   0.00000   0.00000   0.16000
           A3          -0.00000  -0.00000  -0.00000  -0.00000  -0.00000
           D1          -0.00000  -0.00000  -0.00000  -0.00000  -0.00000
                          A3        D1
           A3           0.16000
           D1           0.00000   0.02486
 ITU=  1  0
 Use linear search instead of GDIIS.
     Eigenvalues ---    0.02486   0.14269   0.15924   0.15924   0.16000
     Eigenvalues ---    0.16000
 RFO step:  Lambda= 0.00000000D+00 EMin= 2.48639584D-02
 Quartic linear search produced a step of  0.14044.
 Iteration  1 RMS(Cart)=  0.00604023 RMS(Int)=  0.00000000
 Iteration  2 RMS(Cart)=  0.00000000 RMS(Int)=  0.00000000
 ClnCor:  largest displacement from symmetrization is 2.01D-13 for atom     4.
 Variable       Old X    -DE/DX   Delta X   Delta X   Delta X     New X
                                 (Linear)    (Quad)   (Total)
    R1        2.99477   0.00122   0.00923   0.00000   0.00923   3.00400
    R2        2.99477   0.00122   0.00923  -0.00000   0.00923   3.00400
    R3        2.99477   0.00122   0.00923  -0.00000   0.00923   3.00400
    A1        2.09440  -0.00000   0.00000  -0.00000   0.00000   2.09440
    A2        2.09440  -0.00000   0.00000  -0.00000   0.00000   2.09440
    A3        2.09440   0.00000   0.00000   0.00000   0.00000   2.09440
    D1        3.14159   0.00000   0.00000   0.00000   0.00000   3.14159
         Item               Value     Threshold  Converged?
 Maximum Force            0.001225     0.000450     NO 
 RMS     Force            0.000802     0.000300     NO 
 Maximum Displacement     0.009227     0.001800     NO 
 RMS     Displacement     0.006040     0.001200     NO 
 Predicted change in Energy=-1.568340D-05
 GradGradGradGradGradGradGradGradGradGradGradGradGradGradGradGradGradGrad

                          Input orientation:                          
 ---------------------------------------------------------------------
 Center     Atomic      Atomic             Coordinates (Angstroms)
 Number     Number       Type             X           Y           Z
 ---------------------------------------------------------------------
      1          1           0        0.000000    1.589647   -0.000000
      2          1           0        1.376675   -0.794824   -0.000000
      3          1           0       -1.376675   -0.794824   -0.000000
      4         31           0       -0.000000   -0.000000   -0.000000
 ---------------------------------------------------------------------
                    Distance matrix (angstroms):
                    1          2          3          4
     1  H    0.000000
     2  H    2.753350   0.000000
     3  H    2.753350   2.753350   0.000000
     4  Ga   1.589647   1.589647   1.589647   0.000000
 Stoichiometry    GaH3
 Framework group  D3H[O(Ga),3C2(H)]
 Deg. of freedom     1
 Full point group                 D3H     NOp  12
 Largest Abelian subgroup         C2V     NOp   4
 Largest concise Abelian subgroup C2      NOp   2
                         Standard orientation:                         
 ---------------------------------------------------------------------
 Center     Atomic      Atomic             Coordinates (Angstroms)
 Number     Number       Type             X           Y           Z
 ---------------------------------------------------------------------
      1          1           0        0.000000    1.589647    0.000000
      2          1           0        1.376675   -0.794824    0.000000
      3          1           0       -1.376675   -0.794824    0.000000
      4         31           0        0.000000    0.000000    0.000000
 ---------------------------------------------------------------------
 Rotational constants (GHZ):    132.2937030    132.2937030     66.1468515
 Standard basis: 3-21G (6D, 7F)
 There are    16 symmetry adapted basis functions of A1  symmetry.
 There are     1 symmetry adapted basis functions of A2  symmetry.
 There are     7 symmetry adapted basis functions of B1  symmetry.
 There are     5 symmetry adapted basis functions of B2  symmetry.
 Integral buffers will be    131072 words long.
 Raffenetti 1 integral format.
 Two-electron integral symmetry is turned on.
    29 basis functions,    66 primitive gaussians,    29 cartesian basis functions
    17 alpha electrons       17 beta electrons
       nuclear repulsion energy        31.5353212769 Hartrees.
 NAtoms=    4 NActive=    4 NUniq=    2 SFac= 4.00D+00 NAtFMM=   60 NAOKFM=F Big=F
 One-electron integrals computed using PRISM.
 NBasis=    29 RedAO= T  NBF=    16     1     7     5
 NBsUse=    29 1.00D-06 NBFU=    16     1     7     5
 Initial guess read from the read-write file.
 B after Tr=     0.000000    0.000000    0.000000
         Rot=    1.000000    0.000000    0.000000    0.000000 Ang=   0.00 deg.
 Initial guess orbital symmetries:
       Occupied  (A1') (A1') (A2") (E') (E') (A1') (A2") (E') (E')
                 (A1') (E") (E") (E') (E') (A1') (E') (E')
       Virtual   (A2") (E') (E') (A1') (A1') (A2") (E') (E') (A1')
                 (E') (E') (A1')
 Requested convergence on RMS density matrix=1.00D-08 within 128 cycles.
 Requested convergence on MAX density matrix=1.00D-06.
 Requested convergence on             energy=1.00D-06.
 No special actions if energy rises.
 Keep R1 ints in memory in canonical form, NReq=936071.
 SCF Done:  E(RHF) =  -1915.54852969     A.U. after    6 cycles
             Convg  =    0.8150D-08             -V/T =  1.9994
 ExpMin= 5.72D-02 ExpMax= 4.75D+03 ExpMxC= 4.75D+03 IAcc=3 IRadAn=         5 AccDes= 0.00D+00
 HarFok:  IExCor=  205 AccDes= 0.00D+00 IRadAn=         5 IDoV=-2
 ScaDFX=  1.000000  1.000000  1.000000  1.000000
 Range of M.O.s used for correlation:    10    29
 NBasis=    29 NAE=    17 NBE=    17 NFC=     9 NFV=     0
 NROrb=     20 NOA=     8 NOB=     8 NVA=    12 NVB=    12
 Fully direct method using O(ONN) memory.
 JobTyp=1 Pass  1:  I=  10 to  17 NPSUse=  1 ParTrn=F ParDer=F DoDerP=T.
 Spin components of T(2) and E(2):
     alpha-alpha T2 =       0.7851557349D-03 E2=     -0.1388697644D-02
     alpha-beta  T2 =       0.2186215812D-01 E2=     -0.4193080985D-01
     beta-beta   T2 =       0.7851557349D-03 E2=     -0.1388697644D-02
 ANorm=    0.1011648392D+01
 E2 =    -0.4470820514D-01 EUMP2 =    -0.19155932378910D+04
          IDoAtm=1111
          Differentiating once with respect to electric field.
                with respect to dipole field.
          Differentiating once with respect to nuclear coordinates.
          Keep R1 ints in memory in canonical form, NReq=915614.
          There are     1 degrees of freedom in the 1st order CPHF.  IDoFFX=0.
 LinEq1:  Iter=  0 NonCon=     1 RMS=3.85D-03 Max=2.78D-02
 AX will form     1 AO Fock derivatives at one time.
 LinEq1:  Iter=  1 NonCon=     1 RMS=2.26D-04 Max=1.63D-03
 LinEq1:  Iter=  2 NonCon=     1 RMS=1.22D-05 Max=1.22D-04
 LinEq1:  Iter=  3 NonCon=     1 RMS=1.39D-06 Max=1.18D-05
 LinEq1:  Iter=  4 NonCon=     1 RMS=1.12D-07 Max=7.38D-07
 LinEq1:  Iter=  5 NonCon=     1 RMS=5.95D-09 Max=4.32D-08
 LinEq1:  Iter=  6 NonCon=     1 RMS=2.79D-10 Max=2.12D-09
 LinEq1:  Iter=  7 NonCon=     0 RMS=2.65D-11 Max=1.73D-10
 Linear equations converged to 1.000D-10 1.000D-09 after     7 iterations.
 End of Minotr Frequency-dependent properties file   721 does not exist.
 End of Minotr Frequency-dependent properties file   722 does not exist.
 Calling FoFJK, ICntrl=      2127 FMM=F ISym2X=1 I1Cent= 0 IOpClX= 0 NMat=1 NMatS=1 NMatT=0.
 ***** Axes restored to original set *****
 -------------------------------------------------------------------
 Center     Atomic                   Forces (Hartrees/Bohr)
 Number     Number              X              Y              Z
 -------------------------------------------------------------------
      1        1           0.000000000   -0.000001440   -0.000000000
      2        1          -0.000001247    0.000000720    0.000000000
      3        1           0.000001247    0.000000720    0.000000000
      4       31           0.000000000    0.000000000   -0.000000000
 -------------------------------------------------------------------
 Cartesian Forces:  Max     0.000001440 RMS     0.000000720

 GradGradGradGradGradGradGradGradGradGradGradGradGradGradGradGradGradGrad
 Berny optimization.
 Using GEDIIS/GDIIS optimizer.
 Internal  Forces:  Max     0.000001440 RMS     0.000000943
 Search for a local minimum.
 Step number   3 out of a maximum of   20
 All quantities printed in internal units (Hartrees-Bohrs-Radians)
 Mixed Optimization -- En-DIIS/RFO-DIIS
 Swaping is turned off.
 Update second derivatives using D2CorX and points    1    2    3
 DE= -1.69D-05 DEPred=-1.57D-05 R= 1.08D+00
 SS=  1.41D+00  RLast= 1.60D-02 DXNew= 5.7411D-01 4.7943D-02
 Trust test= 1.08D+00 RLast= 1.60D-02 DXMaxT set to 3.41D-01
 The second derivative matrix:
                          R1        R2        R3        A1        A2
           R1           0.15047
           R2          -0.00878   0.15047
           R3          -0.00878  -0.00878   0.15047
           A1          -0.00000  -0.00000  -0.00000   0.16000
           A2          -0.00000  -0.00000  -0.00000   0.00000   0.16000
           A3           0.00000   0.00000   0.00000  -0.00000  -0.00000
           D1          -0.00000  -0.00000  -0.00000   0.00000   0.00000
                          A3        D1
           A3           0.16000
           D1          -0.00000   0.02486
 ITU=  1  1  0
     Eigenvalues ---    0.02486   0.13291   0.15924   0.15924   0.16000
     Eigenvalues ---    0.16000
 En-DIIS/RFO-DIIS IScMMF=        0 using points:     3    2
 RFO step:  Lambda= 0.00000000D+00.
 DidBck=F Rises=F RFO-DIIS coefs:    0.99883    0.00117
 Iteration  1 RMS(Cart)=  0.00000709 RMS(Int)=  0.00000000
 Iteration  2 RMS(Cart)=  0.00000000 RMS(Int)=  0.00000000
 ClnCor:  largest displacement from symmetrization is 1.02D-13 for atom     2.
 Variable       Old X    -DE/DX   Delta X   Delta X   Delta X     New X
                                  (DIIS)     (GDIIS)  (Total)
    R1        3.00400  -0.00000  -0.00001  -0.00000  -0.00001   3.00399
    R2        3.00400  -0.00000  -0.00001  -0.00000  -0.00001   3.00399
    R3        3.00400  -0.00000  -0.00001   0.00000  -0.00001   3.00399
    A1        2.09440  -0.00000   0.00000  -0.00000   0.00000   2.09440
    A2        2.09440   0.00000   0.00000   0.00000   0.00000   2.09440
    A3        2.09440  -0.00000   0.00000  -0.00000   0.00000   2.09440
    D1        3.14159   0.00000   0.00000   0.00000   0.00000   3.14159
         Item               Value     Threshold  Converged?
 Maximum Force            0.000001     0.000450     YES
 RMS     Force            0.000001     0.000300     YES
 Maximum Displacement     0.000011     0.001800     YES
 RMS     Displacement     0.000007     0.001200     YES
 Predicted change in Energy=-2.340761D-11
 Optimization completed.
    -- Stationary point found.
                           ----------------------------
                           !   Optimized Parameters   !
                           ! (Angstroms and Degrees)  !
 --------------------------                            --------------------------
 ! Name  Definition              Value          Derivative Info.                !
 --------------------------------------------------------------------------------
 ! R1    R(1,4)                  1.5896         -DE/DX =    0.0                 !
 ! R2    R(2,4)                  1.5896         -DE/DX =    0.0                 !
 ! R3    R(3,4)                  1.5896         -DE/DX =    0.0                 !
 ! A1    A(1,4,2)              120.0            -DE/DX =    0.0                 !
 ! A2    A(1,4,3)              120.0            -DE/DX =    0.0                 !
 ! A3    A(2,4,3)              120.0            -DE/DX =    0.0                 !
 ! D1    D(1,4,3,2)            180.0            -DE/DX =    0.0                 !
 --------------------------------------------------------------------------------
 GradGradGradGradGradGradGradGradGradGradGradGradGradGradGradGradGradGrad

                          Input orientation:                          
 ---------------------------------------------------------------------
 Center     Atomic      Atomic             Coordinates (Angstroms)
 Number     Number       Type             X           Y           Z
 ---------------------------------------------------------------------
      1          1           0        0.000000    1.589647   -0.000000
      2          1           0        1.376675   -0.794824   -0.000000
      3          1           0       -1.376675   -0.794824   -0.000000
      4         31           0       -0.000000   -0.000000   -0.000000
 ---------------------------------------------------------------------
                    Distance matrix (angstroms):
                    1          2          3          4
     1  H    0.000000
     2  H    2.753350   0.000000
     3  H    2.753350   2.753350   0.000000
     4  Ga   1.589647   1.589647   1.589647   0.000000
 Stoichiometry    GaH3
 Framework group  D3H[O(Ga),3C2(H)]
 Deg. of freedom     1
 Full point group                 D3H     NOp  12
 Largest Abelian subgroup         C2V     NOp   4
 Largest concise Abelian subgroup C2      NOp   2
                         Standard orientation:                         
 ---------------------------------------------------------------------
 Center     Atomic      Atomic             Coordinates (Angstroms)
 Number     Number       Type             X           Y           Z
 ---------------------------------------------------------------------
      1          1           0        0.000000    1.589647    0.000000
      2          1           0        1.376675   -0.794824    0.000000
      3          1           0       -1.376675   -0.794824    0.000000
      4         31           0        0.000000    0.000000    0.000000
 ---------------------------------------------------------------------
 Rotational constants (GHZ):    132.2937030    132.2937030     66.1468515

 **********************************************************************

            Population analysis using the SCF density.

 **********************************************************************

 Orbital symmetries:
       Occupied  (A1') (A1') (A2") (E') (E') (A1') (A2") (E') (E')
                 (A1') (E") (E") (E') (E') (A1') (E') (E')
       Virtual   (A2") (E') (E') (A1') (A1') (A2") (E') (E') (A1')
                 (E') (E') (A1')
 The electronic state is 1-A1'.
 Alpha  occ. eigenvalues -- -376.43545 -47.96617 -42.22214 -42.22039 -42.22039
 Alpha  occ. eigenvalues --   -6.34469  -4.42436  -4.41892  -4.41892  -1.10561
 Alpha  occ. eigenvalues --   -1.10316  -1.10316  -1.09694  -1.09694  -0.58954
 Alpha  occ. eigenvalues --   -0.42124  -0.42124
 Alpha virt. eigenvalues --    0.03042   0.17429   0.17429   0.19034   0.25247
 Alpha virt. eigenvalues --    0.32772   0.36627   0.36627   1.33082   1.37186
 Alpha virt. eigenvalues --    1.37186   5.65286
          Condensed to atoms (all electrons):
              1          2          3          4
     1  H    0.873779  -0.008964  -0.008964   0.362409
     2  H   -0.008964   0.873779  -0.008964   0.362409
     3  H   -0.008964  -0.008964   0.873779   0.362409
     4  Ga   0.362409   0.362409   0.362409  29.257989
 Mulliken atomic charges:
              1
     1  H   -0.218261
     2  H   -0.218261
     3  H   -0.218261
     4  Ga   0.654783
 Sum of Mulliken atomic charges =   0.00000
 Mulliken charges with hydrogens summed into heavy atoms:
              1
     4  Ga   0.000000
 Sum of Mulliken charges with hydrogens summed into heavy atoms =   0.00000
 Electronic spatial extent (au):  <R**2>=             72.4334
 Charge=              0.0000 electrons
 Dipole moment (field-independent basis, Debye):
    X=              0.0000    Y=             -0.0000    Z=              0.0000  Tot=              0.0000
 Quadrupole moment (field-independent basis, Debye-Ang):
   XX=            -22.7474   YY=            -22.7474   ZZ=            -15.5178
   XY=              0.0000   XZ=              0.0000   YZ=              0.0000
 Traceless Quadrupole moment (field-independent basis, Debye-Ang):
   XX=             -2.4099   YY=             -2.4099   ZZ=              4.8197
   XY=              0.0000   XZ=              0.0000   YZ=              0.0000
 Octapole moment (field-independent basis, Debye-Ang**2):
  XXX=              0.0000  YYY=             -3.1763  ZZZ=              0.0000  XYY=             -0.0000
  XXY=              3.1763  XXZ=              0.0000  XZZ=              0.0000  YZZ=              0.0000
  YYZ=             -0.0000  XYZ=             -0.0000
 Hexadecapole moment (field-independent basis, Debye-Ang**3):
 XXXX=            -65.2837 YYYY=            -65.2837 ZZZZ=            -14.9511 XXXY=              0.0000
 XXXZ=              0.0000 YYYX=              0.0000 YYYZ=             -0.0000 ZZZX=              0.0000
 ZZZY=              0.0000 XXYY=            -21.7612 XXZZ=            -12.5528 YYZZ=            -12.5528
 XXYZ=             -0.0000 YYXZ=              0.0000 ZZXY=              0.0000
 N-N= 3.153532127685D+01 E-N=-4.655617375580D+03  KE= 1.916668157150D+03
 Symmetry A1   KE= 1.409215483944D+03
 Symmetry A2   KE= 2.601339870927D+01
 Symmetry B1   KE= 2.413339699699D+02
 Symmetry B2   KE= 2.401053045268D+02
 1\1\GINC-SRU01\FOpt\RMP2-FC\3-21G\Ga1H3\JAMES\18-Sep-2023\0\\# opt fre
 q=hpmodes mp2/3-21g geom=connectivity\\Title Card Required\\0,1\H,0.00
 00000021,1.5896474233,0.\H,1.3766750506,-0.7948237135,0.\H,-1.37667505
 27,-0.7948237098,0.\Ga,0.,0.,0.\\Version=AM64L-G09RevC.01\State=1-A1'\
 HF=-1915.5485297\MP2=-1915.5932379\RMSD=8.150e-09\RMSF=7.201e-07\Dipol
 e=0.,0.,0.\PG=D03H [O(Ga1),3C2(H1)]\\@


 IT IS DOUBTED WHETHER A MAN EVER BRINGS HIS FACULTIES TO BEAR WITH THEIR FULL FORCE
 ON A SUBJECT UNTIL HE WRITES UPON IT.

                          -- CICERO
 Job cpu time:  0 days  0 hours  0 minutes  5.1 seconds.
 File lengths (MBytes):  RWF=      5 Int=      0 D2E=      0 Chk=      2 Scr=      1
 Normal termination of Gaussian 09 at Mon Sep 18 09:23:59 2023.
 Link1:  Proceeding to internal job step number  2.
 -------------------------------------------------------------------
 #N Geom=AllCheck Guess=TCheck SCRF=Check GenChk RMP2(FC)/3-21G Freq
 -------------------------------------------------------------------
 1/10=4,29=7,30=1,38=1,40=1/1,3;
 2/12=2,40=1/2;
 3/5=5,11=1,14=-4,16=1,25=1,30=1,70=2,71=2,116=1/1,2,3;
 4/5=101/1;
 5/5=2,98=1/2;
 8/6=3,8=1,10=1,19=11,30=-1/1;
 9/15=3,16=-3/6;
 11/6=1,8=1,15=11,17=12,24=-1,27=1,28=-2,29=300,32=6,42=3/1,2,10;
 10/6=2,21=1/2;
 8/6=4,8=1,10=1,19=11,30=-1/11,4;
 10/5=1,20=4/2;
 11/12=2,14=11,16=1,17=2,28=-2,42=3/2,10,12;
 6/7=2,8=2,9=2,10=2/1;
 7/8=11,10=1,12=2,25=1,44=2/1,2,3,16;
 1/10=4,30=1/3;
 99//99;
 Structure from the checkpoint file:  GaH3.chk
 -------------------
 Title Card Required
 -------------------
 Charge =  0 Multiplicity = 1
 Redundant internal coordinates found in file.
 H,0,0.0000000021,1.5896474233,0.
 H,0,1.3766750506,-0.7948237135,0.
 H,0,-1.3766750527,-0.7948237098,0.
 Ga,0,0.,0.,0.
 Recover connectivity data from disk.

 GradGradGradGradGradGradGradGradGradGradGradGradGradGradGradGradGradGrad
 Berny optimization.
 Initialization pass.
                           ----------------------------
                           !    Initial Parameters    !
                           ! (Angstroms and Degrees)  !
 --------------------------                            --------------------------
 ! Name  Definition              Value          Derivative Info.                !
 --------------------------------------------------------------------------------
 ! R1    R(1,4)                  1.5896         calculate D2E/DX2 analytically  !
 ! R2    R(2,4)                  1.5896         calculate D2E/DX2 analytically  !
 ! R3    R(3,4)                  1.5896         calculate D2E/DX2 analytically  !
 ! A1    A(1,4,2)              120.0            calculate D2E/DX2 analytically  !
 ! A2    A(1,4,3)              120.0            calculate D2E/DX2 analytically  !
 ! A3    A(2,4,3)              120.0            calculate D2E/DX2 analytically  !
 ! D1    D(1,4,3,2)            180.0            calculate D2E/DX2 analytically  !
 --------------------------------------------------------------------------------
 Trust Radius=3.00D-01 FncErr=1.00D-07 GrdErr=1.00D-07
 Number of steps in this run=      2 maximum allowed number of steps=      2.
 GradGradGradGradGradGradGradGradGradGradGradGradGradGradGradGradGradGrad

                          Input orientation:                          
 ---------------------------------------------------------------------
 Center     Atomic      Atomic             Coordinates (Angstroms)
 Number     Number       Type             X           Y           Z
 ---------------------------------------------------------------------
      1          1           0        0.000000    1.589647   -0.000000
      2          1           0        1.376675   -0.794824   -0.000000
      3          1           0       -1.376675   -0.794824   -0.000000
      4         31           0       -0.000000   -0.000000   -0.000000
 ---------------------------------------------------------------------
                    Distance matrix (angstroms):
                    1          2          3          4
     1  H    0.000000
     2  H    2.753350   0.000000
     3  H    2.753350   2.753350   0.000000
     4  Ga   1.589647   1.589647   1.589647   0.000000
 Stoichiometry    GaH3
 Framework group  D3H[O(Ga),3C2(H)]
 Deg. of freedom     1
 Full point group                 D3H     NOp  12
 Largest Abelian subgroup         C2V     NOp   4
 Largest concise Abelian subgroup C2      NOp   2
                         Standard orientation:                         
 ---------------------------------------------------------------------
 Center     Atomic      Atomic             Coordinates (Angstroms)
 Number     Number       Type             X           Y           Z
 ---------------------------------------------------------------------
      1          1           0        0.000000    1.589647    0.000000
      2          1           0        1.376675   -0.794824    0.000000
      3          1           0       -1.376675   -0.794824    0.000000
      4         31           0        0.000000    0.000000    0.000000
 ---------------------------------------------------------------------
 Rotational constants (GHZ):    132.2937030    132.2937030     66.1468515
 Standard basis: 3-21G (6D, 7F)
 There are    16 symmetry adapted basis functions of A1  symmetry.
 There are     1 symmetry adapted basis functions of A2  symmetry.
 There are     7 symmetry adapted basis functions of B1  symmetry.
 There are     5 symmetry adapted basis functions of B2  symmetry.
 Integral buffers will be    131072 words long.
 Raffenetti 1 integral format.
 Two-electron integral symmetry is turned on.
    29 basis functions,    66 primitive gaussians,    29 cartesian basis functions
    17 alpha electrons       17 beta electrons
       nuclear repulsion energy        31.5353212769 Hartrees.
 NAtoms=    4 NActive=    4 NUniq=    2 SFac= 4.00D+00 NAtFMM=   60 NAOKFM=F Big=F
 One-electron integrals computed using PRISM.
 NBasis=    29 RedAO= T  NBF=    16     1     7     5
 NBsUse=    29 1.00D-06 NBFU=    16     1     7     5
 Initial guess read from the checkpoint file:  GaH3.chk
 B after Tr=     0.000000    0.000000    0.000000
         Rot=    1.000000    0.000000    0.000000    0.000000 Ang=   0.00 deg.
 Initial guess orbital symmetries:
       Occupied  (A1') (A1') (A2") (E') (E') (A1') (A2") (E') (E')
                 (A1') (E") (E") (E') (E') (A1') (E') (E')
       Virtual   (A2") (E') (E') (A1') (A1') (A2") (E') (E') (A1')
                 (E') (E') (A1')
 Requested convergence on RMS density matrix=1.00D-08 within 128 cycles.
 Requested convergence on MAX density matrix=1.00D-06.
 Requested convergence on             energy=1.00D-06.
 No special actions if energy rises.
 Keep R1 ints in memory in canonical form, NReq=936071.
 SCF Done:  E(RHF) =  -1915.54852969     A.U. after    1 cycles
             Convg  =    0.5132D-09             -V/T =  1.9994
 ExpMin= 5.72D-02 ExpMax= 4.75D+03 ExpMxC= 4.75D+03 IAcc=3 IRadAn=         5 AccDes= 0.00D+00
 HarFok:  IExCor=  205 AccDes= 0.00D+00 IRadAn=         5 IDoV=-2
 ScaDFX=  1.000000  1.000000  1.000000  1.000000
 Range of M.O.s used for correlation:    10    29
 NBasis=    29 NAE=    17 NBE=    17 NFC=     9 NFV=     0
 NROrb=     20 NOA=     8 NOB=     8 NVA=    12 NVB=    12
 Disk-based method using ON**2 memory for  8 occupieds at a time.
 Permanent disk used for amplitudes=       50592 words.
 Estimated scratch disk usage=      968620 words.
 Actual    scratch disk usage=      968620 words.
 JobTyp=1 Pass  1:  I=  10 to  17 NPSUse=  1 ParTrn=F ParDer=F DoDerP=T.
 (rs|ai) integrals will be sorted in core.
 Spin components of T(2) and E(2):
     alpha-alpha T2 =       0.7851557307D-03 E2=     -0.1388697637D-02
     alpha-beta  T2 =       0.2186215813D-01 E2=     -0.4193080983D-01
     beta-beta   T2 =       0.7851557307D-03 E2=     -0.1388697637D-02
 ANorm=    0.1011648392D+01
 E2 =    -0.4470820511D-01 EUMP2 =    -0.19155932378910D+04
 G2DrvN: will do     5 centers at a time, making    1 passes doing MaxLOS=2.
 Calling FoFCou, ICntrl=  3107 FMM=F I1Cent=   0 AccDes= 0.00D+00.
 FoFDir/FoFCou used for L=0 through L=2.
 End of G2Drv Frequency-dependent properties file   721 does not exist.
 End of G2Drv Frequency-dependent properties file   722 does not exist.
          IDoAtm=1111
          Differentiating once with respect to electric field.
                with respect to dipole field.
          Differentiating once with respect to nuclear coordinates.
          Keep R1 ints in memory in canonical form, NReq=915614.
          There are    15 degrees of freedom in the 1st order CPHF.  IDoFFX=5.
     12 vectors produced by pass  0 Test12= 1.36D-15 6.67D-09 XBig12= 7.43D+00 1.82D+00.
 AX will form    12 AO Fock derivatives at one time.
     12 vectors produced by pass  1 Test12= 1.36D-15 6.67D-09 XBig12= 4.03D-02 9.90D-02.
     12 vectors produced by pass  2 Test12= 1.36D-15 6.67D-09 XBig12= 1.35D-04 4.42D-03.
     12 vectors produced by pass  3 Test12= 1.36D-15 6.67D-09 XBig12= 5.39D-07 2.85D-04.
     12 vectors produced by pass  4 Test12= 1.36D-15 6.67D-09 XBig12= 1.72D-09 1.85D-05.
     11 vectors produced by pass  5 Test12= 1.36D-15 6.67D-09 XBig12= 4.21D-12 5.87D-07.
      4 vectors produced by pass  6 Test12= 1.36D-15 6.67D-09 XBig12= 3.37D-14 6.78D-08.
 Inverted reduced A of dimension    75 with in-core refinement.
 End of Minotr Frequency-dependent properties file   721 does not exist.
 End of Minotr Frequency-dependent properties file   722 does not exist.
 MDV=    33554432.
 Form MO integral derivatives with frozen-active canonical formalism.
 Discarding MO integrals.
 Reordered first order wavefunction length =        83232
 In DefCFB: NBatch=  1 ICI= 17 ICA= 12 LFMax= 17
            Large arrays: LIAPS=      686256 LIARS=      952476 words.
 Semi-Direct transformation.
 ModeAB=           4 MOrb=            17 LenV=      33382978
 LASXX=       101116 LTotXX=      101116 LenRXX=      225199
 LTotAB=      124083 MaxLAS=      207060 LenRXY=           0
 NonZer=      326315 LenScr=      978944 LnRSAI=      207060
 LnScr1=      785920 LExtra=           0 Total=      2197123
 MaxDsk=          -1 SrtSym=           T ITran=            4
 JobTyp=0 Pass  1:  I=   1 to  17.
 (rs|ai) integrals will be sorted in core.
 Spin components of T(2) and E(2):
     alpha-alpha T2 =       0.7851557307D-03 E2=     -0.1388697637D-02
     alpha-beta  T2 =       0.2186215813D-01 E2=     -0.4193080983D-01
     beta-beta   T2 =       0.7851557307D-03 E2=     -0.1388697637D-02
 ANorm=    0.1430686877D+01
 E2 =    -0.4470820511D-01 EUMP2 =    -0.19155932378910D+04
          IDoAtm=1111
          Differentiating once with respect to electric field.
                with respect to dipole field.
          Differentiating once with respect to nuclear coordinates.
          There are     1 degrees of freedom in the 1st order CPHF.  IDoFFX=0.
 LinEq1:  Iter=  0 NonCon=     1 RMS=3.85D-03 Max=2.78D-02
 LinEq1:  Iter=  1 NonCon=     1 RMS=2.26D-04 Max=1.63D-03
 LinEq1:  Iter=  2 NonCon=     1 RMS=1.22D-05 Max=1.22D-04
 LinEq1:  Iter=  3 NonCon=     1 RMS=1.39D-06 Max=1.18D-05
 LinEq1:  Iter=  4 NonCon=     1 RMS=1.12D-07 Max=7.38D-07
 LinEq1:  Iter=  5 NonCon=     1 RMS=5.95D-09 Max=4.32D-08
 LinEq1:  Iter=  6 NonCon=     1 RMS=2.79D-10 Max=2.12D-09
 LinEq1:  Iter=  7 NonCon=     0 RMS=2.65D-11 Max=1.73D-10
 Linear equations converged to 1.000D-10 1.000D-09 after     7 iterations.
 End of Minotr Frequency-dependent properties file   721 does not exist.
 End of Minotr Frequency-dependent properties file   722 does not exist.
 Symmetrizing basis deriv contribution to polar:
 IMax=3 JMax=2 DiffMx= 0.00D+00
 G2DrvN: will do     5 centers at a time, making    1 passes doing MaxLOS=2.
 Calling FoFCou, ICntrl=  3107 FMM=F I1Cent=   0 AccDes= 0.00D+00.
 FoFDir/FoFCou used for L=0 through L=2.
 End of G2Drv Frequency-dependent properties file   721 does not exist.
 End of G2Drv Frequency-dependent properties file   722 does not exist.
 R2 and R3 integrals will be kept in memory, NReq=     1009660.
 DD1Dir will call FoFMem   1 times, MxPair=       306
 NAB=   153 NAA=     0 NBB=     0.
 Discarding MO integrals.

 **********************************************************************

            Population analysis using the SCF density.

 **********************************************************************

 Orbital symmetries:
       Occupied  (A1') (A1') (A2") (E') (E') (A1') (A2") (E') (E')
                 (A1') (E") (E") (E') (E') (A1') (E') (E')
       Virtual   (A2") (E') (E') (A1') (A1') (A2") (E') (E') (A1')
                 (E') (E') (A1')
 The electronic state is 1-A1'.
 Alpha  occ. eigenvalues -- -376.43545 -47.96617 -42.22214 -42.22039 -42.22039
 Alpha  occ. eigenvalues --   -6.34469  -4.42436  -4.41892  -4.41892  -1.10561
 Alpha  occ. eigenvalues --   -1.10316  -1.10316  -1.09694  -1.09694  -0.58954
 Alpha  occ. eigenvalues --   -0.42124  -0.42124
 Alpha virt. eigenvalues --    0.03042   0.17429   0.17429   0.19034   0.25247
 Alpha virt. eigenvalues --    0.32772   0.36627   0.36627   1.33082   1.37186
 Alpha virt. eigenvalues --    1.37186   5.65286
          Condensed to atoms (all electrons):
              1          2          3          4
     1  H    0.873779  -0.008964  -0.008964   0.362409
     2  H   -0.008964   0.873779  -0.008964   0.362409
     3  H   -0.008964  -0.008964   0.873779   0.362409
     4  Ga   0.362409   0.362409   0.362409  29.257989
 Mulliken atomic charges:
              1
     1  H   -0.218261
     2  H   -0.218261
     3  H   -0.218261
     4  Ga   0.654783
 Sum of Mulliken atomic charges =   0.00000
 Mulliken charges with hydrogens summed into heavy atoms:
              1
     4  Ga   0.000000
 Sum of Mulliken charges with hydrogens summed into heavy atoms =   0.00000
 APT atomic charges:
              1
     1  H   -0.372508
     2  H   -0.372508
     3  H   -0.372508
     4  Ga   1.117525
 Sum of APT charges=  -0.00000
 APT Atomic charges with hydrogens summed into heavy atoms:
              1
     1  H    0.000000
     2  H    0.000000
     3  H    0.000000
     4  Ga  -0.000000
 Sum of APT charges=  -0.00000
 Electronic spatial extent (au):  <R**2>=             72.4334
 Charge=              0.0000 electrons
 Dipole moment (field-independent basis, Debye):
    X=              0.0000    Y=              0.0000    Z=              0.0000  Tot=              0.0000
 Quadrupole moment (field-independent basis, Debye-Ang):
   XX=            -22.7474   YY=            -22.7474   ZZ=            -15.5178
   XY=              0.0000   XZ=              0.0000   YZ=             -0.0000
 Traceless Quadrupole moment (field-independent basis, Debye-Ang):
   XX=             -2.4099   YY=             -2.4099   ZZ=              4.8197
   XY=              0.0000   XZ=              0.0000   YZ=             -0.0000
 Octapole moment (field-independent basis, Debye-Ang**2):
  XXX=              0.0000  YYY=             -3.1763  ZZZ=              0.0000  XYY=             -0.0000
  XXY=              3.1763  XXZ=              0.0000  XZZ=              0.0000  YZZ=              0.0000
  YYZ=             -0.0000  XYZ=             -0.0000
 Hexadecapole moment (field-independent basis, Debye-Ang**3):
 XXXX=            -65.2837 YYYY=            -65.2837 ZZZZ=            -14.9511 XXXY=              0.0000
 XXXZ=              0.0000 YYYX=              0.0000 YYYZ=             -0.0000 ZZZX=              0.0000
 ZZZY=              0.0000 XXYY=            -21.7612 XXZZ=            -12.5528 YYZZ=            -12.5528
 XXYZ=             -0.0000 YYXZ=              0.0000 ZZXY=              0.0000
 N-N= 3.153532127685D+01 E-N=-4.655617375558D+03  KE= 1.916668157150D+03
 Symmetry A1   KE= 1.409215483946D+03
 Symmetry A2   KE= 2.601339870927D+01
 Symmetry B1   KE= 2.413339699642D+02
 Symmetry B2   KE= 2.401053045309D+02
  Exact polarizability:  26.562  -0.000  26.562   0.000  -0.000  12.633
 Approx polarizability:  20.499  -0.000  20.499   0.000   0.000   8.783
 Calling FoFJK, ICntrl=    100127 FMM=F ISym2X=1 I1Cent= 0 IOpClX= 0 NMat=1 NMatS=1 NMatT=0.
 Full mass-weighted force constant matrix:
 Low frequencies ---   -0.0142   -0.0142   -0.0069    3.5435    3.5436    3.5462
 Low frequencies ---  733.2945  833.9542  833.9542
 Harmonic frequencies (cm**-1), IR intensities (KM/Mole), Raman scattering
 activities (A**4/AMU), depolarization ratios for plane and unpolarized
 incident light, reduced masses (AMU), force constants (mDyne/A),
 and normal coordinates:
                           1         2         3         4         5
                          A2"       E'        E'        E'        E'
       Frequencies ---   733.2945  833.9542  833.9542 1852.2554 1852.2554
    Reduced masses ---     1.0514    1.0315    1.0315    1.0268    1.0268
   Force constants ---     0.3331    0.4227    0.4227    2.0755    2.0755
    IR Intensities ---   304.1007  232.0371  232.0371  256.5796  256.5796
 Coord Atom Element:
   1     1     1         -0.00000   0.08347   0.81128  -0.05321  -0.00408
   2     1     1         -0.00000   0.03578  -0.00368  -0.06226   0.81225
   3     1     1          0.57717  -0.00000   0.00000  -0.00000   0.00000
   1     2     1          0.00000   0.35943   0.19511   0.62461  -0.32908
   2     2     1          0.00000   0.65196   0.27227  -0.38726   0.13443
   3     2     1          0.57717  -0.00000   0.00000  -0.00000   0.00000
   1     3     1         -0.00000  -0.31217   0.26421   0.56716   0.42043
   2     3     1          0.00000   0.58285  -0.39932   0.36225   0.19188
   3     3     1          0.57717  -0.00000   0.00000  -0.00000   0.00000
   1     4    31          0.00000  -0.00191  -0.01858  -0.01665  -0.00128
   2     4    31         -0.00000  -0.01858   0.00191   0.00128  -0.01665
   3     4    31         -0.02532   0.00000  -0.00000   0.00000  -0.00000
                           6
                          A1'
       Frequencies ---  1858.7192
    Reduced masses ---     1.0078
   Force constants ---     2.0515
    IR Intensities ---     0.0000
 Coord Atom Element:
   1     1     1          0.00000
   2     1     1          0.57735
   3     1     1          0.00000
   1     2     1          0.50000
   2     2     1         -0.28868
   3     2     1          0.00000
   1     3     1         -0.50000
   2     3     1         -0.28868
   3     3     1          0.00000
   1     4    31          0.00000
   2     4    31         -0.00000
   3     4    31         -0.00000
 Harmonic frequencies (cm**-1), IR intensities (KM/Mole), Raman scattering
 activities (A**4/AMU), depolarization ratios for plane and unpolarized
 incident light, reduced masses (AMU), force constants (mDyne/A),
 and normal coordinates:
                     1                      2                      3
                    A2"                    E'                     E'
 Frequencies --   733.2945               833.9542               833.9542
 Red. masses --     1.0514                 1.0315                 1.0315
 Frc consts  --     0.3331                 0.4227                 0.4227
 IR Inten    --   304.1007               232.0371               232.0371
  Atom  AN      X      Y      Z        X      Y      Z        X      Y      Z
     1   1    -0.00  -0.00   0.58     0.08   0.04  -0.00     0.81  -0.00   0.00
     2   1     0.00   0.00   0.58     0.36   0.65  -0.00     0.20   0.27   0.00
     3   1    -0.00   0.00   0.58    -0.31   0.58  -0.00     0.26  -0.40   0.00
     4  31     0.00  -0.00  -0.03    -0.00  -0.02   0.00    -0.02   0.00  -0.00
                     4                      5                      6
                    E'                     E'                     A1'
 Frequencies --  1852.2554              1852.2554              1858.7192
 Red. masses --     1.0268                 1.0268                 1.0078
 Frc consts  --     2.0755                 2.0755                 2.0515
 IR Inten    --   256.5796               256.5796                 0.0000
  Atom  AN      X      Y      Z        X      Y      Z        X      Y      Z
     1   1    -0.05  -0.06  -0.00    -0.00   0.81   0.00     0.00   0.58   0.00
     2   1     0.62  -0.39  -0.00    -0.33   0.13   0.00     0.50  -0.29   0.00
     3   1     0.57   0.36  -0.00     0.42   0.19   0.00    -0.50  -0.29   0.00
     4  31    -0.02   0.00   0.00    -0.00  -0.02  -0.00     0.00  -0.00  -0.00

 -------------------
 - Thermochemistry -
 -------------------
 Temperature   298.150 Kelvin.  Pressure   1.00000 Atm.
 Atom     1 has atomic number  1 and mass   1.00783
 Atom     2 has atomic number  1 and mass   1.00783
 Atom     3 has atomic number  1 and mass   1.00783
 Atom     4 has atomic number 31 and mass  68.92558
 Molecular mass:    71.94906 amu.
 Principal axes and moments of inertia in atomic units:
                           1         2         3
     Eigenvalues --    13.64193  13.64193  27.28386
           X           -0.40966   0.91224   0.00000
           Y            0.91224   0.40966   0.00000
           Z            0.00000   0.00000   1.00000
 This molecule is an oblate symmetric top.
 Rotational symmetry number  6.
 Rotational temperatures (Kelvin)      6.34909     6.34909     3.17454
 Rotational constants (GHZ):         132.29370   132.29370    66.14685
 Zero-point vibrational energy      47637.9 (Joules/Mol)
                                   11.38573 (Kcal/Mol)
 Vibrational temperatures:   1055.05  1199.87  1199.87  2664.98  2664.98
          (Kelvin)           2674.28
 
 Zero-point correction=                           0.018144 (Hartree/Particle)
 Thermal correction to Energy=                    0.021218
 Thermal correction to Enthalpy=                  0.022163
 Thermal correction to Gibbs Free Energy=        -0.002590
 Sum of electronic and zero-point Energies=          -1915.575094
 Sum of electronic and thermal Energies=             -1915.572019
 Sum of electronic and thermal Enthalpies=           -1915.571075
 Sum of electronic and thermal Free Energies=        -1915.595828
 
                     E (Thermal)             CV                S
                      KCal/Mol        Cal/Mol-Kelvin    Cal/Mol-Kelvin
 Total                   13.315              7.983             52.097
 Electronic               0.000              0.000              0.000
 Translational            0.889              2.981             38.737
 Rotational               0.889              2.981             12.720
 Vibrational             11.537              2.022              0.639
                       Q            Log10(Q)             Ln(Q)
 Total Bot       0.155371D+02          1.191369          2.743229
 Total V=0       0.344474D+10          9.537156         21.960114
 Vib (Bot)       0.481784D-08         -8.317147        -19.150939
 Vib (V=0)       0.106817D+01          0.028639          0.065945
 Electronic      0.100000D+01          0.000000          0.000000
 Translational   0.239879D+08          7.379993         16.993062
 Rotational      0.134439D+03          2.128524          4.901107
 ***** Axes restored to original set *****
 -------------------------------------------------------------------
 Center     Atomic                   Forces (Hartrees/Bohr)
 Number     Number              X              Y              Z
 -------------------------------------------------------------------
      1        1           0.000000000   -0.000001440    0.000000000
      2        1          -0.000001247    0.000000720   -0.000000000
      3        1           0.000001247    0.000000720   -0.000000000
      4       31           0.000000000   -0.000000000   -0.000000000
 -------------------------------------------------------------------
 Cartesian Forces:  Max     0.000001440 RMS     0.000000720

 GradGradGradGradGradGradGradGradGradGradGradGradGradGradGradGradGradGrad
 Berny optimization.
 Internal  Forces:  Max     0.000001440 RMS     0.000000942
 Search for a local minimum.
 Step number   1 out of a maximum of    2
 All quantities printed in internal units (Hartrees-Bohrs-Radians)
 Second derivative matrix not updated -- analytic derivatives used.
 The second derivative matrix:
                          R1        R2        R3        A1        A2
           R1           0.12919
           R2           0.00129   0.12919
           R3           0.00129   0.00129   0.12919
           A1           0.00418   0.00418  -0.00837   0.05295
           A2           0.00418  -0.00837   0.00418  -0.02648   0.05295
           A3          -0.00837   0.00418   0.00418  -0.02648  -0.02648
           D1           0.00000  -0.00000   0.00000  -0.00000   0.00000
                          A3        D1
           A3           0.05295
           D1          -0.00000   0.04432
 ITU=  0
     Eigenvalues ---    0.04432   0.07637   0.07637   0.13096   0.13096
     Eigenvalues ---    0.13177
 Angle between quadratic step and forces=   0.00 degrees.
 Linear search not attempted -- first point.
 Iteration  1 RMS(Cart)=  0.00000715 RMS(Int)=  0.00000000
 Iteration  2 RMS(Cart)=  0.00000000 RMS(Int)=  0.00000000
 ClnCor:  largest displacement from symmetrization is 1.28D-13 for atom     2.
 Variable       Old X    -DE/DX   Delta X   Delta X   Delta X     New X
                                 (Linear)    (Quad)   (Total)
    R1        3.00400  -0.00000   0.00000  -0.00001  -0.00001   3.00399
    R2        3.00400  -0.00000   0.00000  -0.00001  -0.00001   3.00399
    R3        3.00400  -0.00000   0.00000  -0.00001  -0.00001   3.00399
    A1        2.09440  -0.00000   0.00000  -0.00000   0.00000   2.09440
    A2        2.09440   0.00000   0.00000   0.00000   0.00000   2.09440
    A3        2.09440   0.00000   0.00000   0.00000   0.00000   2.09440
    D1        3.14159   0.00000   0.00000   0.00000   0.00000   3.14159
         Item               Value     Threshold  Converged?
 Maximum Force            0.000001     0.000450     YES
 RMS     Force            0.000001     0.000300     YES
 Maximum Displacement     0.000011     0.001800     YES
 RMS     Displacement     0.000007     0.001200     YES
 Predicted change in Energy=-2.359279D-11
 Optimization completed.
    -- Stationary point found.
                           ----------------------------
                           !   Optimized Parameters   !
                           ! (Angstroms and Degrees)  !
 --------------------------                            --------------------------
 ! Name  Definition              Value          Derivative Info.                !
 --------------------------------------------------------------------------------
 ! R1    R(1,4)                  1.5896         -DE/DX =    0.0                 !
 ! R2    R(2,4)                  1.5896         -DE/DX =    0.0                 !
 ! R3    R(3,4)                  1.5896         -DE/DX =    0.0                 !
 ! A1    A(1,4,2)              120.0            -DE/DX =    0.0                 !
 ! A2    A(1,4,3)              120.0            -DE/DX =    0.0                 !
 ! A3    A(2,4,3)              120.0            -DE/DX =    0.0                 !
 ! D1    D(1,4,3,2)            180.0            -DE/DX =    0.0                 !
 --------------------------------------------------------------------------------
 GradGradGradGradGradGradGradGradGradGradGradGradGradGradGradGradGradGrad

 1\1\GINC-SRU01\Freq\RMP2-FC\3-21G\Ga1H3\JAMES\18-Sep-2023\0\\#N Geom=A
 llCheck Guess=TCheck SCRF=Check GenChk RMP2(FC)/3-21G Freq\\Title Card
  Required\\0,1\H,0.0000000021,1.5896474233,0.\H,1.3766750506,-0.794823
 7135,0.\H,-1.3766750527,-0.7948237098,0.\Ga,0.,0.,0.\\Version=AM64L-G0
 9RevC.01\State=1-A1'\HF=-1915.5485297\MP2=-1915.5932379\RMSD=5.132e-10
 \RMSF=7.198e-07\ZeroPoint=0.0181443\Thermal=0.0212184\Dipole=0.,0.,0.\
 DipoleDeriv=-0.367597,0.,0.,0.,-0.4330866,0.,0.,0.,-0.3168419,-0.41671
 42,0.0283578,0.,0.0283578,-0.3839694,0.,0.,0.,-0.3168419,-0.4167142,-0
 .0283578,0.,-0.0283578,-0.3839694,0.,0.,0.,-0.3168419,1.2010253,0.,0.,
 0.,1.2010253,0.,0.,0.,0.9505258\Polar=26.562048,0.,26.562048,0.,0.,12.
 6330396\PG=D03H [O(Ga1),3C2(H1)]\NImag=0\\0.01760380,0.,0.12919154,0.,
 0.,0.00654921,0.00078332,-0.00097369,0.,0.10129460,0.00971103,-0.00426
 119,0.,-0.04831891,0.04550073,0.,0.,0.00654873,0.,0.,0.00654921,0.0007
 8332,0.00097369,0.,-0.00678344,-0.00534236,0.,0.10129460,-0.00971103,-
 0.00426119,0.,0.00534236,0.00330557,0.,0.04831891,0.04550073,0.,0.,0.0
 0654873,0.,0.,0.00654873,0.,0.,0.00654921,-0.01917043,0.,0.,-0.0952944
 8,0.04395024,0.,-0.09529448,-0.04395024,0.,0.20975940,0.,-0.12066916,0
 .,0.04395024,-0.04454512,0.,-0.04395024,-0.04454512,0.,0.,0.20975940,0
 .,0.,-0.01964666,0.,0.,-0.01964666,0.,0.,-0.01964666,0.,0.,0.05893999\
 \0.,0.00000144,0.,0.00000125,-0.00000072,0.,-0.00000125,-0.00000072,0.
 ,0.,0.,0.\\\@


 A MATHEMATICIAN IS A MACHINE FOR TURNING COFFEE INTO THEOREMS.
     -- QUOTED BY PAUL ERDOS
 Job cpu time:  0 days  0 hours  0 minutes  5.7 seconds.
 File lengths (MBytes):  RWF=     21 Int=      0 D2E=      0 Chk=      2 Scr=      1
 Normal termination of Gaussian 09 at Mon Sep 18 09:24:06 2023.
