 Entering Gaussian System, Link 0=g09
 Input=/home/james/3-bonds/C2v_Tshape/IH3/IH3.gjf
 Output=/home/james/3-bonds/C2v_Tshape/IH3/IH3.log
 Initial command:
 /usr/local/g09/l1.exe /scratch/james/Gau-1324.inp -scrdir=/scratch/james/
 Entering Link 1 = /usr/local/g09/l1.exe PID=      1326.
  
 Copyright (c) 1988,1990,1992,1993,1995,1998,2003,2009,2011,
            Gaussian, Inc.  All Rights Reserved.
  
 This is part of the Gaussian(R) 09 program.  It is based on
 the Gaussian(R) 03 system (copyright 2003, Gaussian, Inc.),
 the Gaussian(R) 98 system (copyright 1998, Gaussian, Inc.),
 the Gaussian(R) 94 system (copyright 1995, Gaussian, Inc.),
 the Gaussian 92(TM) system (copyright 1992, Gaussian, Inc.),
 the Gaussian 90(TM) system (copyright 1990, Gaussian, Inc.),
 the Gaussian 88(TM) system (copyright 1988, Gaussian, Inc.),
 the Gaussian 86(TM) system (copyright 1986, Carnegie Mellon
 University), and the Gaussian 82(TM) system (copyright 1983,
 Carnegie Mellon University). Gaussian is a federally registered
 trademark of Gaussian, Inc.
  
 This software contains proprietary and confidential information,
 including trade secrets, belonging to Gaussian, Inc.
  
 This software is provided under written license and may be
 used, copied, transmitted, or stored only in accord with that
 written license.
  
 The following legend is applicable only to US Government
 contracts under FAR:
  
                    RESTRICTED RIGHTS LEGEND
  
 Use, reproduction and disclosure by the US Government is
 subject to restrictions as set forth in subparagraphs (a)
 and (c) of the Commercial Computer Software - Restricted
 Rights clause in FAR 52.227-19.
  
 Gaussian, Inc.
 340 Quinnipiac St., Bldg. 40, Wallingford CT 06492
  
  
 ---------------------------------------------------------------
 Warning -- This program may not be used in any manner that
 competes with the business of Gaussian, Inc. or will provide
 assistance to any competitor of Gaussian, Inc.  The licensee
 of this program is prohibited from giving any competitor of
 Gaussian, Inc. access to this program.  By using this program,
 the user acknowledges that Gaussian, Inc. is engaged in the
 business of creating and licensing software in the field of
 computational chemistry and represents and warrants to the
 licensee that it is not a competitor of Gaussian, Inc. and that
 it will not use this program in any manner prohibited above.
 ---------------------------------------------------------------
  

 Cite this work as:
 Gaussian 09, Revision C.01,
 M. J. Frisch, G. W. Trucks, H. B. Schlegel, G. E. Scuseria, 
 M. A. Robb, J. R. Cheeseman, G. Scalmani, V. Barone, B. Mennucci, 
 G. A. Petersson, H. Nakatsuji, M. Caricato, X. Li, H. P. Hratchian, 
 A. F. Izmaylov, J. Bloino, G. Zheng, J. L. Sonnenberg, M. Hada, 
 M. Ehara, K. Toyota, R. Fukuda, J. Hasegawa, M. Ishida, T. Nakajima, 
 Y. Honda, O. Kitao, H. Nakai, T. Vreven, J. A. Montgomery, Jr., 
 J. E. Peralta, F. Ogliaro, M. Bearpark, J. J. Heyd, E. Brothers, 
 K. N. Kudin, V. N. Staroverov, T. Keith, R. Kobayashi, J. Normand, 
 K. Raghavachari, A. Rendell, J. C. Burant, S. S. Iyengar, J. Tomasi, 
 M. Cossi, N. Rega, J. M. Millam, M. Klene, J. E. Knox, J. B. Cross, 
 V. Bakken, C. Adamo, J. Jaramillo, R. Gomperts, R. E. Stratmann, 
 O. Yazyev, A. J. Austin, R. Cammi, C. Pomelli, J. W. Ochterski, 
 R. L. Martin, K. Morokuma, V. G. Zakrzewski, G. A. Voth, 
 P. Salvador, J. J. Dannenberg, S. Dapprich, A. D. Daniels, 
 O. Farkas, J. B. Foresman, J. V. Ortiz, J. Cioslowski, 
 and D. J. Fox, Gaussian, Inc., Wallingford CT, 2010.
 
 ******************************************
 Gaussian 09:  AM64L-G09RevC.01 23-Sep-2011
                18-Jun-2023 
 ******************************************
 %chk=IH3.chk
 ----------------------------------------------
 # opt freq=hpmodes mp2/3-21g geom=connectivity
 ----------------------------------------------
 1/18=20,19=15,38=1,57=2/1,3;
 2/9=110,12=2,17=6,18=5,40=1/2;
 3/5=5,11=9,16=1,25=1,30=1,71=1/1,2,3;
 4//1;
 5/5=2,38=5/2;
 8/6=4,10=1/1;
 9/15=2,16=-3/6;
 10/5=1/2;
 6/7=2,8=2,9=2,10=2/1;
 7/12=2/1,2,3,16;
 1/18=20,19=15/3(2);
 2/9=110/2;
 99//99;
 2/9=110/2;
 3/5=5,11=9,16=1,25=1,30=1,71=1/1,2,3;
 4/5=5,16=3/1;
 5/5=2,38=5/2;
 8/6=4,10=1/1;
 9/15=2,16=-3/6;
 10/5=1/2;
 7/12=2/1,2,3,16;
 1/18=20,19=15/3(-8);
 2/9=110/2;
 6/7=2,8=2,9=2,10=2/1;
 99//99;
 -------------------
 Title Card Required
 -------------------
 Charge =  0 Multiplicity = 1
 Symbolic Z-Matrix:
 I                     0.        0.       -0.02911 
 H                     0.        0.        1.60089 
 H                     1.63      0.       -0.02911 
 H                    -1.63      0.       -0.02911 
 

 GradGradGradGradGradGradGradGradGradGradGradGradGradGradGradGradGradGrad
 Berny optimization.
 Initialization pass.
                           ----------------------------
                           !    Initial Parameters    !
                           ! (Angstroms and Degrees)  !
 --------------------------                            --------------------------
 ! Name  Definition              Value          Derivative Info.                !
 --------------------------------------------------------------------------------
 ! R1    R(1,2)                  1.63           estimate D2E/DX2                !
 ! R2    R(1,3)                  1.63           estimate D2E/DX2                !
 ! R3    R(1,4)                  1.63           estimate D2E/DX2                !
 ! A1    A(2,1,3)               90.0            estimate D2E/DX2                !
 ! A2    A(2,1,4)               90.0            estimate D2E/DX2                !
 ! A3    L(3,1,4,2,-1)         180.0            estimate D2E/DX2                !
 ! A4    L(3,1,4,2,-2)         180.0            estimate D2E/DX2                !
 ! D1    D(1,2,4,3)              0.0            estimate D2E/DX2                !
 --------------------------------------------------------------------------------
 Trust Radius=3.00D-01 FncErr=1.00D-07 GrdErr=1.00D-07
 Number of steps in this run=     20 maximum allowed number of steps=    100.
 GradGradGradGradGradGradGradGradGradGradGradGradGradGradGradGradGradGrad

                          Input orientation:                          
 ---------------------------------------------------------------------
 Center     Atomic      Atomic             Coordinates (Angstroms)
 Number     Number       Type             X           Y           Z
 ---------------------------------------------------------------------
      1         53           0        0.000000    0.000000   -0.029107
      2          1           0        0.000000    0.000000    1.600893
      3          1           0        1.630000    0.000000   -0.029107
      4          1           0       -1.630000    0.000000   -0.029107
 ---------------------------------------------------------------------
                    Distance matrix (angstroms):
                    1          2          3          4
     1  I    0.000000
     2  H    1.630000   0.000000
     3  H    1.630000   2.305168   0.000000
     4  H    1.630000   2.305168   3.260000   0.000000
 Stoichiometry    H3I
 Framework group  C2V[C2(HI),SGV(H2)]
 Deg. of freedom     3
 Full point group                 C2V     NOp   4
 Largest Abelian subgroup         C2V     NOp   4
 Largest concise Abelian subgroup C2      NOp   2
                         Standard orientation:                         
 ---------------------------------------------------------------------
 Center     Atomic      Atomic             Coordinates (Angstroms)
 Number     Number       Type             X           Y           Z
 ---------------------------------------------------------------------
      1         53           0        0.000000    0.000000    0.029107
      2          1           0        0.000000   -0.000000   -1.600893
      3          1           0        0.000000    1.630000    0.029107
      4          1           0       -0.000000   -1.630000    0.029107
 ---------------------------------------------------------------------
 Rotational constants (GHZ):    190.2123972     94.3684558     63.0753967
 Standard basis: 3-21G (6D, 7F)
 There are    21 symmetry adapted basis functions of A1  symmetry.
 There are     2 symmetry adapted basis functions of A2  symmetry.
 There are     7 symmetry adapted basis functions of B1  symmetry.
 There are     9 symmetry adapted basis functions of B2  symmetry.
 Integral buffers will be    131072 words long.
 Raffenetti 1 integral format.
 Two-electron integral symmetry is turned on.
    39 basis functions,    96 primitive gaussians,    39 cartesian basis functions
    28 alpha electrons       28 beta electrons
       nuclear repulsion energy        52.2405732242 Hartrees.
 NAtoms=    4 NActive=    4 NUniq=    3 SFac= 1.78D+00 NAtFMM=   60 NAOKFM=F Big=F
 One-electron integrals computed using PRISM.
 NBasis=    39 RedAO= T  NBF=    21     2     7     9
 NBsUse=    39 1.00D-06 NBFU=    21     2     7     9
 Harris functional with IExCor=  205 diagonalized for initial guess.
 ExpMin= 1.15D-01 ExpMax= 1.44D+04 ExpMxC= 1.44D+04 IAcc=1 IRadAn=         1 AccDes= 0.00D+00
 HarFok:  IExCor=  205 AccDes= 0.00D+00 IRadAn=         1 IDoV= 1
 ScaDFX=  1.000000  1.000000  1.000000  1.000000
 Defaulting to unpruned grid for atomic number  53.
 FoFCou: FMM=F IPFlag=           0 FMFlag=      100000 FMFlg1=           0
         NFxFlg=           0 DoJE=T BraDBF=F KetDBF=T FulRan=T
         Omega=  0.000000  0.000000  1.000000  0.000000  0.000000 ICntrl=     500 IOpCl=  0
         NMat0=    1 NMatS0=    1 NMatT0=    0 NMatD0=    1 NMtDS0=    0 NMtDT0=    0
         I1Cent=           4 NGrid=           0.
 Petite list used in FoFCou.
 Initial guess orbital symmetries:
       Occupied  (A1) (A1) (B2) (A1) (B1) (A1) (B2) (A1) (B1) (A1)
                 (B2) (A1) (A2) (B1) (A1) (B2) (A1) (B1) (A1) (B2)
                 (A2) (A1) (B1) (A1) (B2) (A1) (B1) (A1)
       Virtual   (A1) (B2) (A1) (B2) (A1) (B1) (A1) (A1) (B2) (A1)
                 (A1)
 The electronic state of the initial guess is 1-A1.
 Requested convergence on RMS density matrix=1.00D-08 within 128 cycles.
 Requested convergence on MAX density matrix=1.00D-06.
 Requested convergence on             energy=1.00D-06.
 No special actions if energy rises.
 Keep R1 ints in memory in canonical form, NReq=1147923.
 SCF Done:  E(RHF) =  -6889.29814412     A.U. after   10 cycles
             Convg  =    0.3236D-08             -V/T =  2.0026
 ExpMin= 1.15D-01 ExpMax= 1.44D+04 ExpMxC= 1.44D+04 IAcc=3 IRadAn=         5 AccDes= 0.00D+00
 HarFok:  IExCor=  205 AccDes= 0.00D+00 IRadAn=         5 IDoV=-2
 ScaDFX=  1.000000  1.000000  1.000000  1.000000
 Defaulting to unpruned grid for atomic number  53.
 Range of M.O.s used for correlation:    19    39
 NBasis=    39 NAE=    28 NBE=    28 NFC=    18 NFV=     0
 NROrb=     21 NOA=    10 NOB=    10 NVA=    11 NVB=    11

 **** Warning!!: The largest alpha MO coefficient is  0.20828436D+02

 Fully direct method using O(ONN) memory.
 JobTyp=1 Pass  1:  I=  19 to  28 NPSUse=  1 ParTrn=F ParDer=F DoDerP=T.
 Spin components of T(2) and E(2):
     alpha-alpha T2 =       0.1213458427D-02 E2=     -0.2862991939D-02
     alpha-beta  T2 =       0.3155593132D-01 E2=     -0.5671688775D-01
     beta-beta   T2 =       0.1213458427D-02 E2=     -0.2862991939D-02
 ANorm=    0.1016849472D+01
 E2 =    -0.6244287162D-01 EUMP2 =    -0.68893605869933D+04
          IDoAtm=1111
          Differentiating once with respect to electric field.
                with respect to dipole field.
          Differentiating once with respect to nuclear coordinates.
          Keep R1 ints in memory in canonical form, NReq=1125324.
          There are     1 degrees of freedom in the 1st order CPHF.  IDoFFX=0.
 LinEq1:  Iter=  0 NonCon=     1 RMS=3.04D-03 Max=3.32D-02
 AX will form     1 AO Fock derivatives at one time.
 LinEq1:  Iter=  1 NonCon=     1 RMS=3.26D-04 Max=3.35D-03
 LinEq1:  Iter=  2 NonCon=     1 RMS=6.48D-05 Max=8.67D-04
 LinEq1:  Iter=  3 NonCon=     1 RMS=1.55D-05 Max=1.40D-04
 LinEq1:  Iter=  4 NonCon=     1 RMS=2.02D-06 Max=1.65D-05
 LinEq1:  Iter=  5 NonCon=     1 RMS=2.11D-07 Max=1.76D-06
 LinEq1:  Iter=  6 NonCon=     1 RMS=1.67D-08 Max=1.61D-07
 LinEq1:  Iter=  7 NonCon=     1 RMS=1.07D-09 Max=6.72D-09
 LinEq1:  Iter=  8 NonCon=     0 RMS=7.79D-11 Max=6.30D-10
 Linear equations converged to 1.000D-10 1.000D-09 after     8 iterations.
 End of Minotr Frequency-dependent properties file   721 does not exist.
 End of Minotr Frequency-dependent properties file   722 does not exist.

 **********************************************************************

            Population analysis using the SCF density.

 **********************************************************************

 Orbital symmetries:
       Occupied  (A1) (A1) (B2) (A1) (B1) (A1) (B2) (A1) (B1) (A1)
                 (B2) (A2) (B1) (A1) (A1) (B2) (A1) (B1) (A1) (B2)
                 (A2) (B1) (A1) (A1) (B2) (A1) (B1) (A1)
       Virtual   (A1) (B2) (A1) (A1) (B1) (B2) (A1) (A1) (B2) (A1)
                 (A1)
 The electronic state is 1-A1.
 Alpha  occ. eigenvalues -- **********-180.15868-168.39785-168.39724-168.39685
 Alpha  occ. eigenvalues --  -37.91279 -32.80622 -32.80433 -32.80217 -24.25562
 Alpha  occ. eigenvalues --  -24.25477 -24.25241 -24.25085 -24.25050  -7.33837
 Alpha  occ. eigenvalues --   -5.46992  -5.46534  -5.45691  -2.51708  -2.51177
 Alpha  occ. eigenvalues --   -2.50264  -2.49859  -2.49737  -0.97026  -0.63052
 Alpha  occ. eigenvalues --   -0.57758  -0.43434  -0.26555
 Alpha virt. eigenvalues --    0.09818   0.26095   0.51279   0.52717   0.52866
 Alpha virt. eigenvalues --    0.54254   1.11624   1.24235   1.31162   4.56252
 Alpha virt. eigenvalues --  228.97863
          Condensed to atoms (all electrons):
              1          2          3          4
     1  I   52.320500   0.263340  -0.161105  -0.161105
     2  H    0.263340   0.968675  -0.085320  -0.085320
     3  H   -0.161105  -0.085320   1.561114   0.023809
     4  H   -0.161105  -0.085320   0.023809   1.561114
 Mulliken atomic charges:
              1
     1  I    0.738369
     2  H   -0.061375
     3  H   -0.338497
     4  H   -0.338497
 Sum of Mulliken atomic charges =   0.00000
 Mulliken charges with hydrogens summed into heavy atoms:
              1
     1  I    0.000000
 Sum of Mulliken charges with hydrogens summed into heavy atoms =   0.00000
 Electronic spatial extent (au):  <R**2>=            102.4612
 Charge=              0.0000 electrons
 Dipole moment (field-independent basis, Debye):
    X=              0.0000    Y=              0.0000    Z=             -1.3330  Tot=              1.3330
 Quadrupole moment (field-independent basis, Debye-Ang):
   XX=            -31.5607   YY=            -38.3642   ZZ=            -29.8320
   XY=             -0.0000   XZ=             -0.0000   YZ=              0.0000
 Traceless Quadrupole moment (field-independent basis, Debye-Ang):
   XX=              1.6916   YY=             -5.1119   ZZ=              3.4203
   XY=             -0.0000   XZ=             -0.0000   YZ=              0.0000
 Octapole moment (field-independent basis, Debye-Ang**2):
  XXX=              0.0000  YYY=             -0.0000  ZZZ=              0.8893  XYY=              0.0000
  XXY=             -0.0000  XXZ=             -0.2552  XZZ=              0.0000  YZZ=             -0.0000
  YYZ=              1.4502  XYZ=              0.0000
 Hexadecapole moment (field-independent basis, Debye-Ang**3):
 XXXX=            -40.3829 YYYY=           -119.5829 ZZZZ=            -53.1877 XXXY=             -0.0000
 XXXZ=             -0.0000 YYYX=             -0.0000 YYYZ=             -0.0000 ZZZX=             -0.0000
 ZZZY=             -0.0000 XXYY=            -20.3351 XXZZ=            -15.3504 YYZZ=            -21.4573
 XXYZ=             -0.0000 YYXZ=             -0.0000 ZZXY=             -0.0000
 N-N= 5.224057322417D+01 E-N=-1.644915693421D+04  KE= 6.871142923008D+03
 Symmetry A1   KE= 4.680257437300D+03
 Symmetry A2   KE= 1.917657283711D+02
 Symmetry B1   KE= 1.000338102445D+03
 Symmetry B2   KE= 9.987816548924D+02
 Calling FoFJK, ICntrl=      2127 FMM=F ISym2X=1 I1Cent= 0 IOpClX= 0 NMat=1 NMatS=1 NMatT=0.
 ***** Axes restored to original set *****
 -------------------------------------------------------------------
 Center     Atomic                   Forces (Hartrees/Bohr)
 Number     Number              X              Y              Z
 -------------------------------------------------------------------
      1       53          -0.000000000   -0.000000000   -0.077198264
      2        1           0.000000000    0.000000000    0.015639523
      3        1           0.073748467   -0.000000000    0.030779370
      4        1          -0.073748467   -0.000000000    0.030779370
 -------------------------------------------------------------------
 Cartesian Forces:  Max     0.077198264 RMS     0.039766588

 GradGradGradGradGradGradGradGradGradGradGradGradGradGradGradGradGradGrad
 Berny optimization.
 Internal  Forces:  Max     0.073748467 RMS     0.046252935
 Search for a local minimum.
 Step number   1 out of a maximum of   20
 All quantities printed in internal units (Hartrees-Bohrs-Radians)
 Mixed Optimization -- RFO/linear search
 Second derivative matrix not updated -- first step.
 The second derivative matrix:
                          R1        R2        R3        A1        A2
           R1           0.15289
           R2           0.00000   0.15289
           R3           0.00000   0.00000   0.15289
           A1           0.00000   0.00000   0.00000   0.16000
           A2           0.00000   0.00000   0.00000   0.00000   0.16000
           A3           0.00000   0.00000   0.00000   0.00000   0.00000
           A4           0.00000   0.00000   0.00000   0.00000   0.00000
           D1           0.00000   0.00000   0.00000   0.00000   0.00000
                          A3        A4        D1
           A3           0.00230
           A4           0.00000   0.00230
           D1           0.00000   0.00000   0.00230
 ITU=  0
     Eigenvalues ---    0.00230   0.05487   0.15289   0.15289   0.15289
     Eigenvalues ---    0.16000
 RFO step:  Lambda=-8.80776716D-02 EMin= 2.30000000D-03
 Linear search not attempted -- first point.
 Maximum step size (   0.300) exceeded in Quadratic search.
    -- Step size scaled by   0.431
 Iteration  1 RMS(Cart)=  0.11691511 RMS(Int)=  0.00724109
 Iteration  2 RMS(Cart)=  0.00857711 RMS(Int)=  0.00003064
 Iteration  3 RMS(Cart)=  0.00003248 RMS(Int)=  0.00000000
 Iteration  4 RMS(Cart)=  0.00000000 RMS(Int)=  0.00000000
 ClnCor:  largest displacement from symmetrization is 3.19D-15 for atom     1.
 Variable       Old X    -DE/DX   Delta X   Delta X   Delta X     New X
                                 (Linear)    (Quad)   (Total)
    R1        3.08025   0.01564   0.00000   0.02796   0.02796   3.10822
    R2        3.08025   0.07375   0.00000   0.13186   0.13186   3.21212
    R3        3.08025   0.07375   0.00000   0.13186   0.13186   3.21212
    A1        1.57080  -0.03160   0.00000  -0.09526  -0.09526   1.47554
    A2        1.57080  -0.03160   0.00000  -0.09526  -0.09526   1.47554
    A3        3.14159  -0.06321   0.00000  -0.19051  -0.19051   2.95108
    A4        3.14159   0.00000   0.00000   0.00000   0.00000   3.14159
    D1        0.00000   0.00000   0.00000   0.00000   0.00000   0.00000
         Item               Value     Threshold  Converged?
 Maximum Force            0.073748     0.000450     NO 
 RMS     Force            0.046253     0.000300     NO 
 Maximum Displacement     0.159746     0.001800     NO 
 RMS     Displacement     0.118796     0.001200     NO 
 Predicted change in Energy=-3.373712D-02
 GradGradGradGradGradGradGradGradGradGradGradGradGradGradGradGradGradGrad

                          Input orientation:                          
 ---------------------------------------------------------------------
 Center     Atomic      Atomic             Coordinates (Angstroms)
 Number     Number       Type             X           Y           Z
 ---------------------------------------------------------------------
      1         53           0       -0.000000    0.000000   -0.113641
      2          1           0        0.000000   -0.000000    1.531157
      3          1           0        1.692073    0.000000    0.048028
      4          1           0       -1.692073   -0.000000    0.048028
 ---------------------------------------------------------------------
                    Distance matrix (angstroms):
                    1          2          3          4
     1  I    0.000000
     2  H    1.644798   0.000000
     3  H    1.699779   2.250063   0.000000
     4  H    1.699779   2.250063   3.384147   0.000000
 Stoichiometry    H3I
 Framework group  C2V[C2(HI),SGV(H2)]
 Deg. of freedom     3
 Full point group                 C2V     NOp   4
 Largest Abelian subgroup         C2V     NOp   4
 Largest concise Abelian subgroup C2      NOp   2
                         Standard orientation:                         
 ---------------------------------------------------------------------
 Center     Atomic      Atomic             Coordinates (Angstroms)
 Number     Number       Type             X           Y           Z
 ---------------------------------------------------------------------
      1         53           0        0.000000   -0.000000    0.035145
      2          1           0        0.000000    0.000000   -1.609653
      3          1           0        0.000000    1.692073   -0.126524
      4          1           0       -0.000000   -1.692073   -0.126524
 ---------------------------------------------------------------------
 Rotational constants (GHZ):    183.8457417     87.5716685     59.3170436
 Standard basis: 3-21G (6D, 7F)
 There are    21 symmetry adapted basis functions of A1  symmetry.
 There are     2 symmetry adapted basis functions of A2  symmetry.
 There are     7 symmetry adapted basis functions of B1  symmetry.
 There are     9 symmetry adapted basis functions of B2  symmetry.
 Integral buffers will be    131072 words long.
 Raffenetti 1 integral format.
 Two-electron integral symmetry is turned on.
    39 basis functions,    96 primitive gaussians,    39 cartesian basis functions
    28 alpha electrons       28 beta electrons
       nuclear repulsion energy        50.6783510049 Hartrees.
 NAtoms=    4 NActive=    4 NUniq=    3 SFac= 1.78D+00 NAtFMM=   60 NAOKFM=F Big=F
 One-electron integrals computed using PRISM.
 NBasis=    39 RedAO= T  NBF=    21     2     7     9
 NBsUse=    39 1.00D-06 NBFU=    21     2     7     9
 Initial guess read from the read-write file.
 B after Tr=     0.000000    0.000000    0.000000
         Rot=    1.000000    0.000000    0.000000    0.000000 Ang=   0.00 deg.
 Initial guess orbital symmetries:
       Occupied  (A1) (A1) (B2) (A1) (B1) (A1) (B2) (A1) (B1) (A1)
                 (B2) (A2) (B1) (A1) (A1) (B2) (A1) (B1) (A1) (B2)
                 (A2) (B1) (A1) (A1) (B2) (A1) (B1) (A1)
       Virtual   (A1) (B2) (A1) (A1) (B1) (B2) (A1) (A1) (B2) (A1)
                 (A1)
 Harris functional with IExCor=  205 diagonalized for initial guess.
 ExpMin= 1.15D-01 ExpMax= 1.44D+04 ExpMxC= 1.44D+04 IAcc=1 IRadAn=         1 AccDes= 0.00D+00
 HarFok:  IExCor=  205 AccDes= 0.00D+00 IRadAn=         1 IDoV= 1
 ScaDFX=  1.000000  1.000000  1.000000  1.000000
 Defaulting to unpruned grid for atomic number  53.
 FoFCou: FMM=F IPFlag=           0 FMFlag=      100000 FMFlg1=           0
         NFxFlg=           0 DoJE=T BraDBF=F KetDBF=T FulRan=T
         Omega=  0.000000  0.000000  1.000000  0.000000  0.000000 ICntrl=     500 IOpCl=  0
         NMat0=    1 NMatS0=    1 NMatT0=    0 NMatD0=    1 NMtDS0=    0 NMtDT0=    0
         I1Cent=           4 NGrid=           0.
 Petite list used in FoFCou.
 Requested convergence on RMS density matrix=1.00D-08 within 128 cycles.
 Requested convergence on MAX density matrix=1.00D-06.
 Requested convergence on             energy=1.00D-06.
 No special actions if energy rises.
 Keep R1 ints in memory in canonical form, NReq=1147923.
 SCF Done:  E(RHF) =  -6889.32524260     A.U. after   10 cycles
             Convg  =    0.3645D-08             -V/T =  2.0027
 ExpMin= 1.15D-01 ExpMax= 1.44D+04 ExpMxC= 1.44D+04 IAcc=3 IRadAn=         5 AccDes= 0.00D+00
 HarFok:  IExCor=  205 AccDes= 0.00D+00 IRadAn=         5 IDoV=-2
 ScaDFX=  1.000000  1.000000  1.000000  1.000000
 Defaulting to unpruned grid for atomic number  53.
 Range of M.O.s used for correlation:    19    39
 NBasis=    39 NAE=    28 NBE=    28 NFC=    18 NFV=     0
 NROrb=     21 NOA=    10 NOB=    10 NVA=    11 NVB=    11

 **** Warning!!: The largest alpha MO coefficient is  0.20828190D+02

 Fully direct method using O(ONN) memory.
 JobTyp=1 Pass  1:  I=  19 to  28 NPSUse=  1 ParTrn=F ParDer=F DoDerP=T.
 Spin components of T(2) and E(2):
     alpha-alpha T2 =       0.1227486153D-02 E2=     -0.2840423207D-02
     alpha-beta  T2 =       0.3374388430D-01 E2=     -0.5816461897D-01
     beta-beta   T2 =       0.1227486153D-02 E2=     -0.2840423207D-02
 ANorm=    0.1017938533D+01
 E2 =    -0.6384546539D-01 EUMP2 =    -0.68893890880615D+04
          IDoAtm=1111
          Differentiating once with respect to electric field.
                with respect to dipole field.
          Differentiating once with respect to nuclear coordinates.
          Keep R1 ints in memory in canonical form, NReq=1125324.
          There are     1 degrees of freedom in the 1st order CPHF.  IDoFFX=0.
 LinEq1:  Iter=  0 NonCon=     1 RMS=3.35D-03 Max=3.88D-02
 AX will form     1 AO Fock derivatives at one time.
 LinEq1:  Iter=  1 NonCon=     1 RMS=3.50D-04 Max=3.74D-03
 LinEq1:  Iter=  2 NonCon=     1 RMS=5.54D-05 Max=5.11D-04
 LinEq1:  Iter=  3 NonCon=     1 RMS=1.31D-05 Max=1.66D-04
 LinEq1:  Iter=  4 NonCon=     1 RMS=1.89D-06 Max=1.80D-05
 LinEq1:  Iter=  5 NonCon=     1 RMS=2.04D-07 Max=1.98D-06
 LinEq1:  Iter=  6 NonCon=     1 RMS=1.65D-08 Max=1.71D-07
 LinEq1:  Iter=  7 NonCon=     1 RMS=1.09D-09 Max=7.80D-09
 LinEq1:  Iter=  8 NonCon=     0 RMS=6.66D-11 Max=6.25D-10
 Linear equations converged to 1.000D-10 1.000D-09 after     8 iterations.
 End of Minotr Frequency-dependent properties file   721 does not exist.
 End of Minotr Frequency-dependent properties file   722 does not exist.
 Calling FoFJK, ICntrl=      2127 FMM=F ISym2X=1 I1Cent= 0 IOpClX= 0 NMat=1 NMatS=1 NMatT=0.
 ***** Axes restored to original set *****
 -------------------------------------------------------------------
 Center     Atomic                   Forces (Hartrees/Bohr)
 Number     Number              X              Y              Z
 -------------------------------------------------------------------
      1       53           0.000000000   -0.000000000   -0.045565548
      2        1          -0.000000000    0.000000000    0.012431915
      3        1           0.042374338   -0.000000000    0.016566816
      4        1          -0.042374338    0.000000000    0.016566816
 -------------------------------------------------------------------
 Cartesian Forces:  Max     0.045565548 RMS     0.023041375

 GradGradGradGradGradGradGradGradGradGradGradGradGradGradGradGradGradGrad
 Berny optimization.
 Using GEDIIS/GDIIS optimizer.
 Internal  Forces:  Max     0.043757938 RMS     0.025130166
 Search for a local minimum.
 Step number   2 out of a maximum of   20
 All quantities printed in internal units (Hartrees-Bohrs-Radians)
 Mixed Optimization -- RFO/linear search
 Update second derivatives using D2CorX and points    1    2
 DE= -2.85D-02 DEPred=-3.37D-02 R= 8.45D-01
 SS=  1.41D+00  RLast= 3.00D-01 DXNew= 5.0454D-01 9.0000D-01
 Trust test= 8.45D-01 RLast= 3.00D-01 DXMaxT set to 5.05D-01
 The second derivative matrix:
                          R1        R2        R3        A1        A2
           R1           0.15128
           R2          -0.00501   0.15343
           R3          -0.00501   0.00054   0.15343
           A1           0.00456   0.00677   0.00677   0.15051
           A2           0.00456   0.00677   0.00677  -0.00949   0.15051
           A3          -0.00613  -0.05836  -0.05836   0.03538   0.03538
           A4           0.00000   0.00000   0.00000  -0.00000  -0.00000
           D1           0.00000   0.00000   0.00000  -0.00000  -0.00000
                          A3        A4        D1
           A3           0.07462
           A4          -0.00000   0.00230
           D1          -0.00000   0.00000   0.00230
 ITU=  1  0
 Use linear search instead of GDIIS.
     Eigenvalues ---    0.00230   0.08864   0.15148   0.15289   0.16000
     Eigenvalues ---    0.20906
 RFO step:  Lambda=-5.55046082D-03 EMin= 2.30000000D-03
 Quartic linear search produced a step of  1.26318.
 Iteration  1 RMS(Cart)=  0.10658730 RMS(Int)=  0.03986361
 Iteration  2 RMS(Cart)=  0.03928588 RMS(Int)=  0.00007259
 Iteration  3 RMS(Cart)=  0.00010511 RMS(Int)=  0.00000001
 Iteration  4 RMS(Cart)=  0.00000001 RMS(Int)=  0.00000000
 ClnCor:  largest displacement from symmetrization is 6.37D-10 for atom     1.
 Variable       Old X    -DE/DX   Delta X   Delta X   Delta X     New X
                                 (Linear)    (Quad)   (Total)
    R1        3.10822   0.01243   0.03532   0.06963   0.10495   3.21317
    R2        3.21212   0.04376   0.16657   0.11588   0.28244   3.49456
    R3        3.21212   0.04376   0.16657   0.11588   0.28244   3.49456
    A1        1.47554  -0.01334  -0.12032   0.06523  -0.05509   1.42045
    A2        1.47554  -0.01334  -0.12032   0.06523  -0.05509   1.42045
    A3        2.95108  -0.02669  -0.24065   0.13047  -0.11018   2.84090
    A4        3.14159  -0.00000   0.00000  -0.00000   0.00000   3.14159
    D1        0.00000  -0.00000   0.00000  -0.00000   0.00000   0.00000
         Item               Value     Threshold  Converged?
 Maximum Force            0.043758     0.000450     NO 
 RMS     Force            0.025130     0.000300     NO 
 Maximum Displacement     0.257583     0.001800     NO 
 RMS     Displacement     0.143863     0.001200     NO 
 Predicted change in Energy=-1.307549D-02
 GradGradGradGradGradGradGradGradGradGradGradGradGradGradGradGradGradGrad

                          Input orientation:                          
 ---------------------------------------------------------------------
 Center     Atomic      Atomic             Coordinates (Angstroms)
 Number     Number       Type             X           Y           Z
 ---------------------------------------------------------------------
      1         53           0        0.000000    0.000000   -0.185181
      2          1           0       -0.000000   -0.000000    1.515155
      3          1           0        1.828381    0.000000    0.091799
      4          1           0       -1.828381   -0.000000    0.091799
 ---------------------------------------------------------------------
                    Distance matrix (angstroms):
                    1          2          3          4
     1  I    0.000000
     2  H    1.700337   0.000000
     3  H    1.849241   2.317093   0.000000
     4  H    1.849241   2.317093   3.656761   0.000000
 Stoichiometry    H3I
 Framework group  C2V[C2(HI),SGV(H2)]
 Deg. of freedom     3
 Full point group                 C2V     NOp   4
 Largest Abelian subgroup         C2V     NOp   4
 Largest concise Abelian subgroup C2      NOp   2
                         Standard orientation:                         
 ---------------------------------------------------------------------
 Center     Atomic      Atomic             Coordinates (Angstroms)
 Number     Number       Type             X           Y           Z
 ---------------------------------------------------------------------
      1         53           0        0.000000    0.000000    0.040255
      2          1           0       -0.000000   -0.000000   -1.660081
      3          1           0       -0.000000    1.828381   -0.236725
      4          1           0       -0.000000   -1.828381   -0.236725
 ---------------------------------------------------------------------
 Rotational constants (GHZ):    166.8646634     75.0013102     51.7438158
 Standard basis: 3-21G (6D, 7F)
 There are    21 symmetry adapted basis functions of A1  symmetry.
 There are     2 symmetry adapted basis functions of A2  symmetry.
 There are     7 symmetry adapted basis functions of B1  symmetry.
 There are     9 symmetry adapted basis functions of B2  symmetry.
 Integral buffers will be    131072 words long.
 Raffenetti 1 integral format.
 Two-electron integral symmetry is turned on.
    39 basis functions,    96 primitive gaussians,    39 cartesian basis functions
    28 alpha electrons       28 beta electrons
       nuclear repulsion energy        47.4289457104 Hartrees.
 NAtoms=    4 NActive=    4 NUniq=    3 SFac= 1.78D+00 NAtFMM=   60 NAOKFM=F Big=F
 One-electron integrals computed using PRISM.
 NBasis=    39 RedAO= T  NBF=    21     2     7     9
 NBsUse=    39 1.00D-06 NBFU=    21     2     7     9
 Initial guess read from the read-write file.
 B after Tr=     0.000000    0.000000    0.000000
         Rot=    1.000000    0.000000    0.000000    0.000000 Ang=   0.00 deg.
 Initial guess orbital symmetries:
       Occupied  (A1) (A1) (B2) (A1) (B1) (A1) (B2) (A1) (B1) (A1)
                 (B2) (A2) (B1) (A1) (A1) (B2) (A1) (B1) (A1) (B2)
                 (A2) (B1) (A1) (A1) (B2) (A1) (B1) (A1)
       Virtual   (A1) (B2) (A1) (B1) (A1) (B2) (A1) (A1) (B2) (A1)
                 (A1)
 Harris functional with IExCor=  205 diagonalized for initial guess.
 ExpMin= 1.15D-01 ExpMax= 1.44D+04 ExpMxC= 1.44D+04 IAcc=1 IRadAn=         1 AccDes= 0.00D+00
 HarFok:  IExCor=  205 AccDes= 0.00D+00 IRadAn=         1 IDoV= 1
 ScaDFX=  1.000000  1.000000  1.000000  1.000000
 Defaulting to unpruned grid for atomic number  53.
 FoFCou: FMM=F IPFlag=           0 FMFlag=      100000 FMFlg1=           0
         NFxFlg=           0 DoJE=T BraDBF=F KetDBF=T FulRan=T
         Omega=  0.000000  0.000000  1.000000  0.000000  0.000000 ICntrl=     500 IOpCl=  0
         NMat0=    1 NMatS0=    1 NMatT0=    0 NMatD0=    1 NMtDS0=    0 NMtDT0=    0
         I1Cent=           4 NGrid=           0.
 Petite list used in FoFCou.
 Requested convergence on RMS density matrix=1.00D-08 within 128 cycles.
 Requested convergence on MAX density matrix=1.00D-06.
 Requested convergence on             energy=1.00D-06.
 No special actions if energy rises.
 Keep R1 ints in memory in canonical form, NReq=1147923.
 SCF Done:  E(RHF) =  -6889.33689876     A.U. after   10 cycles
             Convg  =    0.3756D-08             -V/T =  2.0027
 ExpMin= 1.15D-01 ExpMax= 1.44D+04 ExpMxC= 1.44D+04 IAcc=3 IRadAn=         5 AccDes= 0.00D+00
 HarFok:  IExCor=  205 AccDes= 0.00D+00 IRadAn=         5 IDoV=-2
 ScaDFX=  1.000000  1.000000  1.000000  1.000000
 Defaulting to unpruned grid for atomic number  53.
 Range of M.O.s used for correlation:    19    39
 NBasis=    39 NAE=    28 NBE=    28 NFC=    18 NFV=     0
 NROrb=     21 NOA=    10 NOB=    10 NVA=    11 NVB=    11

 **** Warning!!: The largest alpha MO coefficient is  0.20827841D+02

 Fully direct method using O(ONN) memory.
 JobTyp=1 Pass  1:  I=  19 to  28 NPSUse=  1 ParTrn=F ParDer=F DoDerP=T.
 Spin components of T(2) and E(2):
     alpha-alpha T2 =       0.1324242520D-02 E2=     -0.2893980775D-02
     alpha-beta  T2 =       0.4101931148D-01 E2=     -0.6251876644D-01
     beta-beta   T2 =       0.1324242520D-02 E2=     -0.2893980775D-02
 ANorm=    0.1021600605D+01
 E2 =    -0.6830672799D-01 EUMP2 =    -0.68894052054916D+04
          IDoAtm=1111
          Differentiating once with respect to electric field.
                with respect to dipole field.
          Differentiating once with respect to nuclear coordinates.
          Keep R1 ints in memory in canonical form, NReq=1125324.
          There are     1 degrees of freedom in the 1st order CPHF.  IDoFFX=0.
 LinEq1:  Iter=  0 NonCon=     1 RMS=4.38D-03 Max=5.63D-02
 AX will form     1 AO Fock derivatives at one time.
 LinEq1:  Iter=  1 NonCon=     1 RMS=5.03D-04 Max=4.91D-03
 LinEq1:  Iter=  2 NonCon=     1 RMS=8.32D-05 Max=6.93D-04
 LinEq1:  Iter=  3 NonCon=     1 RMS=1.80D-05 Max=2.05D-04
 LinEq1:  Iter=  4 NonCon=     1 RMS=2.85D-06 Max=2.96D-05
 LinEq1:  Iter=  5 NonCon=     1 RMS=2.68D-07 Max=2.57D-06
 LinEq1:  Iter=  6 NonCon=     1 RMS=2.34D-08 Max=1.83D-07
 LinEq1:  Iter=  7 NonCon=     1 RMS=1.58D-09 Max=1.07D-08
 LinEq1:  Iter=  8 NonCon=     0 RMS=8.11D-11 Max=7.35D-10
 Linear equations converged to 1.000D-10 1.000D-09 after     8 iterations.
 End of Minotr Frequency-dependent properties file   721 does not exist.
 End of Minotr Frequency-dependent properties file   722 does not exist.
 Calling FoFJK, ICntrl=      2127 FMM=F ISym2X=1 I1Cent= 0 IOpClX= 0 NMat=1 NMatS=1 NMatT=0.
 ***** Axes restored to original set *****
 -------------------------------------------------------------------
 Center     Atomic                   Forces (Hartrees/Bohr)
 Number     Number              X              Y              Z
 -------------------------------------------------------------------
      1       53          -0.000000000   -0.000000000    0.000999752
      2        1           0.000000000    0.000000000   -0.006550167
      3        1           0.006911264    0.000000000    0.002775207
      4        1          -0.006911264    0.000000000    0.002775207
 -------------------------------------------------------------------
 Cartesian Forces:  Max     0.006911264 RMS     0.003592108

 GradGradGradGradGradGradGradGradGradGradGradGradGradGradGradGradGradGrad
 Berny optimization.
 Using GEDIIS/GDIIS optimizer.
 Internal  Forces:  Max     0.007248972 RMS     0.004633714
 Search for a local minimum.
 Step number   3 out of a maximum of   20
 All quantities printed in internal units (Hartrees-Bohrs-Radians)
 Mixed Optimization -- RFO/linear search
 Update second derivatives using D2CorX and points    2    3
 DE= -1.61D-02 DEPred=-1.31D-02 R= 1.23D+00
 SS=  1.41D+00  RLast= 4.34D-01 DXNew= 8.4853D-01 1.3034D+00
 Trust test= 1.23D+00 RLast= 4.34D-01 DXMaxT set to 8.49D-01
 The second derivative matrix:
                          R1        R2        R3        A1        A2
           R1           0.15991
           R2           0.00275   0.13582
           R3           0.00275  -0.01707   0.13582
           A1          -0.00081   0.00137   0.00137   0.15384
           A2          -0.00081   0.00137   0.00137  -0.00616   0.15384
           A3          -0.00506  -0.02572  -0.02572   0.03546   0.03546
           A4           0.00000   0.00000   0.00000  -0.00000  -0.00000
           D1           0.00000   0.00000   0.00000  -0.00000  -0.00000
                          A3        A4        D1
           A3           0.03393
           A4          -0.00000   0.00230
           D1          -0.00000   0.00000   0.00230
 ITU=  1  1  0
 Use linear search instead of GDIIS.
     Eigenvalues ---    0.00230   0.09081   0.14459   0.15289   0.16000
     Eigenvalues ---    0.16238
 RFO step:  Lambda=-6.59172398D-04 EMin= 2.30000000D-03
 Quartic linear search produced a step of  0.21849.
 Iteration  1 RMS(Cart)=  0.04442517 RMS(Int)=  0.00022322
 Iteration  2 RMS(Cart)=  0.00033658 RMS(Int)=  0.00000006
 Iteration  3 RMS(Cart)=  0.00000005 RMS(Int)=  0.00000000
 ClnCor:  largest displacement from symmetrization is 3.73D-09 for atom     1.
 Variable       Old X    -DE/DX   Delta X   Delta X   Delta X     New X
                                 (Linear)    (Quad)   (Total)
    R1        3.21317  -0.00655   0.02293  -0.06124  -0.03831   3.17486
    R2        3.49456   0.00725   0.06171   0.01708   0.07879   3.57335
    R3        3.49456   0.00725   0.06171   0.01708   0.07879   3.57335
    A1        1.42045  -0.00199  -0.01204   0.00127  -0.01076   1.40969
    A2        1.42045  -0.00199  -0.01204   0.00127  -0.01076   1.40969
    A3        2.84090  -0.00398  -0.02407   0.00254  -0.02153   2.81937
    A4        3.14159  -0.00000   0.00000  -0.00000   0.00000   3.14159
    D1        0.00000  -0.00000   0.00000  -0.00000   0.00000   0.00000
         Item               Value     Threshold  Converged?
 Maximum Force            0.007249     0.000450     NO 
 RMS     Force            0.004634     0.000300     NO 
 Maximum Displacement     0.071937     0.001800     NO 
 RMS     Displacement     0.044496     0.001200     NO 
 Predicted change in Energy=-5.647055D-04
 GradGradGradGradGradGradGradGradGradGradGradGradGradGradGradGradGradGrad

                          Input orientation:                          
 ---------------------------------------------------------------------
 Center     Atomic      Atomic             Coordinates (Angstroms)
 Number     Number       Type             X           Y           Z
 ---------------------------------------------------------------------
      1         53           0        0.000000    0.000000   -0.193290
      2          1           0       -0.000000   -0.000000    1.486773
      3          1           0        1.866448    0.000000    0.110044
      4          1           0       -1.866448   -0.000000    0.110044
 ---------------------------------------------------------------------
                    Distance matrix (angstroms):
                    1          2          3          4
     1  I    0.000000
     2  H    1.680064   0.000000
     3  H    1.890936   2.319270   0.000000
     4  H    1.890936   2.319270   3.732896   0.000000
 Stoichiometry    H3I
 Framework group  C2V[C2(HI),SGV(H2)]
 Deg. of freedom     3
 Full point group                 C2V     NOp   4
 Largest Abelian subgroup         C2V     NOp   4
 Largest concise Abelian subgroup C2      NOp   2
                         Standard orientation:                         
 ---------------------------------------------------------------------
 Center     Atomic      Atomic             Coordinates (Angstroms)
 Number     Number       Type             X           Y           Z
 ---------------------------------------------------------------------
      1         53           0        0.000000    0.000000    0.040835
      2          1           0       -0.000000    0.000000   -1.639229
      3          1           0       -0.000000    1.866448   -0.262500
      4          1           0       -0.000000   -1.866448   -0.262500
 ---------------------------------------------------------------------
 Rotational constants (GHZ):    169.0635457     71.9730964     50.4820627
 Standard basis: 3-21G (6D, 7F)
 There are    21 symmetry adapted basis functions of A1  symmetry.
 There are     2 symmetry adapted basis functions of A2  symmetry.
 There are     7 symmetry adapted basis functions of B1  symmetry.
 There are     9 symmetry adapted basis functions of B2  symmetry.
 Integral buffers will be    131072 words long.
 Raffenetti 1 integral format.
 Two-electron integral symmetry is turned on.
    39 basis functions,    96 primitive gaussians,    39 cartesian basis functions
    28 alpha electrons       28 beta electrons
       nuclear repulsion energy        46.9557645937 Hartrees.
 NAtoms=    4 NActive=    4 NUniq=    3 SFac= 1.78D+00 NAtFMM=   60 NAOKFM=F Big=F
 One-electron integrals computed using PRISM.
 NBasis=    39 RedAO= T  NBF=    21     2     7     9
 NBsUse=    39 1.00D-06 NBFU=    21     2     7     9
 Initial guess read from the read-write file.
 B after Tr=     0.000000    0.000000    0.000000
         Rot=    1.000000    0.000000    0.000000    0.000000 Ang=   0.00 deg.
 Initial guess orbital symmetries:
       Occupied  (A1) (A1) (B2) (A1) (B1) (A1) (B2) (A1) (B1) (A1)
                 (B2) (A2) (B1) (A1) (A1) (B2) (A1) (B1) (A1) (B2)
                 (A2) (B1) (A1) (A1) (B2) (A1) (B1) (A1)
       Virtual   (A1) (B2) (A1) (B1) (A1) (B2) (A1) (B2) (A1) (A1)
                 (A1)
 Harris functional with IExCor=  205 diagonalized for initial guess.
 ExpMin= 1.15D-01 ExpMax= 1.44D+04 ExpMxC= 1.44D+04 IAcc=1 IRadAn=         1 AccDes= 0.00D+00
 HarFok:  IExCor=  205 AccDes= 0.00D+00 IRadAn=         1 IDoV= 1
 ScaDFX=  1.000000  1.000000  1.000000  1.000000
 Defaulting to unpruned grid for atomic number  53.
 FoFCou: FMM=F IPFlag=           0 FMFlag=      100000 FMFlg1=           0
         NFxFlg=           0 DoJE=T BraDBF=F KetDBF=T FulRan=T
         Omega=  0.000000  0.000000  1.000000  0.000000  0.000000 ICntrl=     500 IOpCl=  0
         NMat0=    1 NMatS0=    1 NMatT0=    0 NMatD0=    1 NMtDS0=    0 NMtDT0=    0
         I1Cent=           4 NGrid=           0.
 Petite list used in FoFCou.
 Requested convergence on RMS density matrix=1.00D-08 within 128 cycles.
 Requested convergence on MAX density matrix=1.00D-06.
 Requested convergence on             energy=1.00D-06.
 No special actions if energy rises.
 Keep R1 ints in memory in canonical form, NReq=1147923.
 SCF Done:  E(RHF) =  -6889.33679735     A.U. after    9 cycles
             Convg  =    0.1170D-08             -V/T =  2.0027
 ExpMin= 1.15D-01 ExpMax= 1.44D+04 ExpMxC= 1.44D+04 IAcc=3 IRadAn=         5 AccDes= 0.00D+00
 HarFok:  IExCor=  205 AccDes= 0.00D+00 IRadAn=         5 IDoV=-2
 ScaDFX=  1.000000  1.000000  1.000000  1.000000
 Defaulting to unpruned grid for atomic number  53.
 Range of M.O.s used for correlation:    19    39
 NBasis=    39 NAE=    28 NBE=    28 NFC=    18 NFV=     0
 NROrb=     21 NOA=    10 NOB=    10 NVA=    11 NVB=    11

 **** Warning!!: The largest alpha MO coefficient is  0.20827841D+02

 Fully direct method using O(ONN) memory.
 JobTyp=1 Pass  1:  I=  19 to  28 NPSUse=  1 ParTrn=F ParDer=F DoDerP=T.
 Spin components of T(2) and E(2):
     alpha-alpha T2 =       0.1343004997D-02 E2=     -0.2910360065D-02
     alpha-beta  T2 =       0.4278645297D-01 E2=     -0.6347106298D-01
     beta-beta   T2 =       0.1343004997D-02 E2=     -0.2910360065D-02
 ANorm=    0.1022483478D+01
 E2 =    -0.6929178311D-01 EUMP2 =    -0.68894060891372D+04
          IDoAtm=1111
          Differentiating once with respect to electric field.
                with respect to dipole field.
          Differentiating once with respect to nuclear coordinates.
          Keep R1 ints in memory in canonical form, NReq=1125324.
          There are     1 degrees of freedom in the 1st order CPHF.  IDoFFX=0.
 LinEq1:  Iter=  0 NonCon=     1 RMS=4.77D-03 Max=6.35D-02
 AX will form     1 AO Fock derivatives at one time.
 LinEq1:  Iter=  1 NonCon=     1 RMS=5.73D-04 Max=5.16D-03
 LinEq1:  Iter=  2 NonCon=     1 RMS=1.06D-04 Max=9.08D-04
 LinEq1:  Iter=  3 NonCon=     1 RMS=2.75D-05 Max=3.16D-04
 LinEq1:  Iter=  4 NonCon=     1 RMS=3.34D-06 Max=3.60D-05
 LinEq1:  Iter=  5 NonCon=     1 RMS=2.78D-07 Max=2.75D-06
 LinEq1:  Iter=  6 NonCon=     1 RMS=2.40D-08 Max=1.93D-07
 LinEq1:  Iter=  7 NonCon=     1 RMS=1.64D-09 Max=1.15D-08
 LinEq1:  Iter=  8 NonCon=     0 RMS=8.13D-11 Max=7.39D-10
 Linear equations converged to 1.000D-10 1.000D-09 after     8 iterations.
 End of Minotr Frequency-dependent properties file   721 does not exist.
 End of Minotr Frequency-dependent properties file   722 does not exist.
 Calling FoFJK, ICntrl=      2127 FMM=F ISym2X=1 I1Cent= 0 IOpClX= 0 NMat=1 NMatS=1 NMatT=0.
 ***** Axes restored to original set *****
 -------------------------------------------------------------------
 Center     Atomic                   Forces (Hartrees/Bohr)
 Number     Number              X              Y              Z
 -------------------------------------------------------------------
      1       53           0.000000000   -0.000000000    0.003152694
      2        1          -0.000000000    0.000000000   -0.002963370
      3        1           0.001166602    0.000000000   -0.000094662
      4        1          -0.001166602    0.000000000   -0.000094662
 -------------------------------------------------------------------
 Cartesian Forces:  Max     0.003152694 RMS     0.001337313

 GradGradGradGradGradGradGradGradGradGradGradGradGradGradGradGradGradGrad
 Berny optimization.
 Using GEDIIS/GDIIS optimizer.
 Internal  Forces:  Max     0.002963370 RMS     0.001226483
 Search for a local minimum.
 Step number   4 out of a maximum of   20
 All quantities printed in internal units (Hartrees-Bohrs-Radians)
 Mixed Optimization -- RFO/linear search
 Update second derivatives using D2CorX and points    2    3    4
 DE= -8.84D-04 DEPred=-5.65D-04 R= 1.56D+00
 SS=  1.41D+00  RLast= 1.21D-01 DXNew= 1.4270D+00 3.6224D-01
 Trust test= 1.56D+00 RLast= 1.21D-01 DXMaxT set to 8.49D-01
 The second derivative matrix:
                          R1        R2        R3        A1        A2
           R1           0.15631
           R2           0.01383   0.11575
           R3           0.01383  -0.03714   0.11575
           A1          -0.00151   0.00056   0.00056   0.15615
           A2          -0.00151   0.00056   0.00056  -0.00385   0.15615
           A3          -0.00884  -0.02136  -0.02136   0.03860   0.03860
           A4           0.00000   0.00000   0.00000  -0.00000  -0.00000
           D1           0.00000   0.00000   0.00000  -0.00000  -0.00000
                          A3        A4        D1
           A3           0.03674
           A4          -0.00000   0.00230
           D1          -0.00000   0.00000   0.00230
 ITU=  1  1  1  0
 Use linear search instead of GDIIS.
     Eigenvalues ---    0.00230   0.06615   0.12910   0.15289   0.16000
     Eigenvalues ---    0.16642
 RFO step:  Lambda=-6.39566095D-05 EMin= 2.30000000D-03
 Quartic linear search produced a step of  0.23410.
 Iteration  1 RMS(Cart)=  0.01345271 RMS(Int)=  0.00002761
 Iteration  2 RMS(Cart)=  0.00003568 RMS(Int)=  0.00000000
 Iteration  3 RMS(Cart)=  0.00000000 RMS(Int)=  0.00000000
 ClnCor:  largest displacement from symmetrization is 1.46D-08 for atom     1.
 Variable       Old X    -DE/DX   Delta X   Delta X   Delta X     New X
                                 (Linear)    (Quad)   (Total)
    R1        3.17486  -0.00296  -0.00897  -0.01371  -0.02268   3.15218
    R2        3.57335   0.00114   0.01844   0.00378   0.02222   3.59558
    R3        3.57335   0.00114   0.01844   0.00378   0.02222   3.59558
    A1        1.40969   0.00033  -0.00252   0.00684   0.00432   1.41401
    A2        1.40969   0.00033  -0.00252   0.00684   0.00432   1.41401
    A3        2.81937   0.00067  -0.00504   0.01368   0.00864   2.82801
    A4        3.14159  -0.00000   0.00000  -0.00000   0.00000   3.14159
    D1        0.00000  -0.00000   0.00000  -0.00000   0.00000   0.00000
         Item               Value     Threshold  Converged?
 Maximum Force            0.002963     0.000450     NO 
 RMS     Force            0.001226     0.000300     NO 
 Maximum Displacement     0.024395     0.001800     NO 
 RMS     Displacement     0.013452     0.001200     NO 
 Predicted change in Energy=-6.014765D-05
 GradGradGradGradGradGradGradGradGradGradGradGradGradGradGradGradGradGrad

                          Input orientation:                          
 ---------------------------------------------------------------------
 Center     Atomic      Atomic             Coordinates (Angstroms)
 Number     Number       Type             X           Y           Z
 ---------------------------------------------------------------------
      1         53           0        0.000000    0.000000   -0.187175
      2          1           0        0.000000   -0.000000    1.480888
      3          1           0        1.879357    0.000000    0.109929
      4          1           0       -1.879357   -0.000000    0.109929
 ---------------------------------------------------------------------
                    Distance matrix (angstroms):
                    1          2          3          4
     1  I    0.000000
     2  H    1.668063   0.000000
     3  H    1.902697   2.326266   0.000000
     4  H    1.902697   2.326266   3.758715   0.000000
 Stoichiometry    H3I
 Framework group  C2V[C2(HI),SGV(H2)]
 Deg. of freedom     3
 Full point group                 C2V     NOp   4
 Largest Abelian subgroup         C2V     NOp   4
 Largest concise Abelian subgroup C2      NOp   2
                         Standard orientation:                         
 ---------------------------------------------------------------------
 Center     Atomic      Atomic             Coordinates (Angstroms)
 Number     Number       Type             X           Y           Z
 ---------------------------------------------------------------------
      1         53           0        0.000000   -0.000000    0.040398
      2          1           0       -0.000000    0.000000   -1.627665
      3          1           0        0.000000    1.879357   -0.256706
      4          1           0       -0.000000   -1.879357   -0.256706
 ---------------------------------------------------------------------
 Rotational constants (GHZ):    171.7738030     70.9877291     50.2296723
 Standard basis: 3-21G (6D, 7F)
 There are    21 symmetry adapted basis functions of A1  symmetry.
 There are     2 symmetry adapted basis functions of A2  symmetry.
 There are     7 symmetry adapted basis functions of B1  symmetry.
 There are     9 symmetry adapted basis functions of B2  symmetry.
 Integral buffers will be    131072 words long.
 Raffenetti 1 integral format.
 Two-electron integral symmetry is turned on.
    39 basis functions,    96 primitive gaussians,    39 cartesian basis functions
    28 alpha electrons       28 beta electrons
       nuclear repulsion energy        46.8901686426 Hartrees.
 NAtoms=    4 NActive=    4 NUniq=    3 SFac= 1.78D+00 NAtFMM=   60 NAOKFM=F Big=F
 One-electron integrals computed using PRISM.
 NBasis=    39 RedAO= T  NBF=    21     2     7     9
 NBsUse=    39 1.00D-06 NBFU=    21     2     7     9
 Initial guess read from the read-write file.
 B after Tr=     0.000000    0.000000    0.000000
         Rot=    1.000000    0.000000    0.000000    0.000000 Ang=   0.00 deg.
 Initial guess orbital symmetries:
       Occupied  (A1) (A1) (B2) (A1) (B1) (A1) (B2) (A1) (B1) (A1)
                 (B2) (A2) (B1) (A1) (A1) (B2) (A1) (B1) (A1) (B2)
                 (A2) (B1) (A1) (A1) (B2) (A1) (B1) (A1)
       Virtual   (A1) (B2) (A1) (B1) (A1) (B2) (A1) (B2) (A1) (A1)
                 (A1)
 Harris functional with IExCor=  205 diagonalized for initial guess.
 ExpMin= 1.15D-01 ExpMax= 1.44D+04 ExpMxC= 1.44D+04 IAcc=1 IRadAn=         1 AccDes= 0.00D+00
 HarFok:  IExCor=  205 AccDes= 0.00D+00 IRadAn=         1 IDoV= 1
 ScaDFX=  1.000000  1.000000  1.000000  1.000000
 Defaulting to unpruned grid for atomic number  53.
 FoFCou: FMM=F IPFlag=           0 FMFlag=      100000 FMFlg1=           0
         NFxFlg=           0 DoJE=T BraDBF=F KetDBF=T FulRan=T
         Omega=  0.000000  0.000000  1.000000  0.000000  0.000000 ICntrl=     500 IOpCl=  0
         NMat0=    1 NMatS0=    1 NMatT0=    0 NMatD0=    1 NMtDS0=    0 NMtDT0=    0
         I1Cent=           4 NGrid=           0.
 Petite list used in FoFCou.
 Requested convergence on RMS density matrix=1.00D-08 within 128 cycles.
 Requested convergence on MAX density matrix=1.00D-06.
 Requested convergence on             energy=1.00D-06.
 No special actions if energy rises.
 Keep R1 ints in memory in canonical form, NReq=1147923.
 SCF Done:  E(RHF) =  -6889.33667299     A.U. after    8 cycles
             Convg  =    0.5539D-08             -V/T =  2.0027
 ExpMin= 1.15D-01 ExpMax= 1.44D+04 ExpMxC= 1.44D+04 IAcc=3 IRadAn=         5 AccDes= 0.00D+00
 HarFok:  IExCor=  205 AccDes= 0.00D+00 IRadAn=         5 IDoV=-2
 ScaDFX=  1.000000  1.000000  1.000000  1.000000
 Defaulting to unpruned grid for atomic number  53.
 Range of M.O.s used for correlation:    19    39
 NBasis=    39 NAE=    28 NBE=    28 NFC=    18 NFV=     0
 NROrb=     21 NOA=    10 NOB=    10 NVA=    11 NVB=    11

 **** Warning!!: The largest alpha MO coefficient is  0.20827854D+02

 Fully direct method using O(ONN) memory.
 JobTyp=1 Pass  1:  I=  19 to  28 NPSUse=  1 ParTrn=F ParDer=F DoDerP=T.
 Spin components of T(2) and E(2):
     alpha-alpha T2 =       0.1342819631D-02 E2=     -0.2909145544D-02
     alpha-beta  T2 =       0.4318756536D-01 E2=     -0.6365931696D-01
     beta-beta   T2 =       0.1342819631D-02 E2=     -0.2909145544D-02
 ANorm=    0.1022679424D+01
 E2 =    -0.6947760805D-01 EUMP2 =    -0.68894061505958D+04
          IDoAtm=1111
          Differentiating once with respect to electric field.
                with respect to dipole field.
          Differentiating once with respect to nuclear coordinates.
          Keep R1 ints in memory in canonical form, NReq=1125324.
          There are     1 degrees of freedom in the 1st order CPHF.  IDoFFX=0.
 LinEq1:  Iter=  0 NonCon=     1 RMS=4.90D-03 Max=6.59D-02
 AX will form     1 AO Fock derivatives at one time.
 LinEq1:  Iter=  1 NonCon=     1 RMS=5.96D-04 Max=5.24D-03
 LinEq1:  Iter=  2 NonCon=     1 RMS=1.13D-04 Max=1.03D-03
 LinEq1:  Iter=  3 NonCon=     1 RMS=2.99D-05 Max=3.36D-04
 LinEq1:  Iter=  4 NonCon=     1 RMS=3.41D-06 Max=3.75D-05
 LinEq1:  Iter=  5 NonCon=     1 RMS=2.78D-07 Max=2.77D-06
 LinEq1:  Iter=  6 NonCon=     1 RMS=2.39D-08 Max=1.93D-07
 LinEq1:  Iter=  7 NonCon=     1 RMS=1.63D-09 Max=1.15D-08
 LinEq1:  Iter=  8 NonCon=     0 RMS=8.06D-11 Max=7.35D-10
 Linear equations converged to 1.000D-10 1.000D-09 after     8 iterations.
 End of Minotr Frequency-dependent properties file   721 does not exist.
 End of Minotr Frequency-dependent properties file   722 does not exist.
 Calling FoFJK, ICntrl=      2127 FMM=F ISym2X=1 I1Cent= 0 IOpClX= 0 NMat=1 NMatS=1 NMatT=0.
 ***** Axes restored to original set *****
 -------------------------------------------------------------------
 Center     Atomic                   Forces (Hartrees/Bohr)
 Number     Number              X              Y              Z
 -------------------------------------------------------------------
      1       53          -0.000000000   -0.000000000    0.000252315
      2        1           0.000000000    0.000000000   -0.000364500
      3        1          -0.000226105    0.000000000    0.000056092
      4        1           0.000226105    0.000000000    0.000056092
 -------------------------------------------------------------------
 Cartesian Forces:  Max     0.000364500 RMS     0.000159443

 GradGradGradGradGradGradGradGradGradGradGradGradGradGradGradGradGradGrad
 Berny optimization.
 Using GEDIIS/GDIIS optimizer.
 Internal  Forces:  Max     0.000364500 RMS     0.000192309
 Search for a local minimum.
 Step number   5 out of a maximum of   20
 All quantities printed in internal units (Hartrees-Bohrs-Radians)
 Mixed Optimization -- En-DIIS/RFO-DIIS
 Update second derivatives using D2CorX and points    2    3    4    5
 DE= -6.15D-05 DEPred=-6.01D-05 R= 1.02D+00
 SS=  1.41D+00  RLast= 4.02D-02 DXNew= 1.4270D+00 1.2053D-01
 Trust test= 1.02D+00 RLast= 4.02D-02 DXMaxT set to 8.49D-01
 The second derivative matrix:
                          R1        R2        R3        A1        A2
           R1           0.14087
           R2           0.01539   0.11693
           R3           0.01539  -0.03596   0.11693
           A1           0.01328  -0.00492  -0.00492   0.15159
           A2           0.01328  -0.00492  -0.00492  -0.00841   0.15159
           A3          -0.02350  -0.00659  -0.00659   0.03981   0.03981
           A4           0.00000   0.00000   0.00000  -0.00000  -0.00000
           D1          -0.00000   0.00000   0.00000  -0.00000  -0.00000
                          A3        A4        D1
           A3           0.03492
           A4          -0.00000   0.00230
           D1          -0.00000   0.00000   0.00230
 ITU=  1  1  1  1  0
 Use linear search instead of GDIIS.
     Eigenvalues ---    0.00230   0.07188   0.12087   0.15289   0.15317
     Eigenvalues ---    0.16000
 RFO step:  Lambda=-2.47258562D-06 EMin= 2.30000000D-03
 Quartic linear search produced a step of -0.03091.
 Iteration  1 RMS(Cart)=  0.00231327 RMS(Int)=  0.00000126
 Iteration  2 RMS(Cart)=  0.00000137 RMS(Int)=  0.00000000
 Iteration  3 RMS(Cart)=  0.00000000 RMS(Int)=  0.00000000
 ClnCor:  largest displacement from symmetrization is 1.57D-11 for atom     1.
 Variable       Old X    -DE/DX   Delta X   Delta X   Delta X     New X
                                 (Linear)    (Quad)   (Total)
    R1        3.15218  -0.00036   0.00070  -0.00290  -0.00220   3.14998
    R2        3.59558  -0.00021  -0.00069  -0.00185  -0.00253   3.59304
    R3        3.59558  -0.00021  -0.00069  -0.00185  -0.00253   3.59304
    A1        1.41401  -0.00011  -0.00013  -0.00096  -0.00109   1.41291
    A2        1.41401  -0.00011  -0.00013  -0.00096  -0.00109   1.41291
    A3        2.82801  -0.00022  -0.00027  -0.00192  -0.00218   2.82583
    A4        3.14159  -0.00000   0.00000  -0.00000   0.00000   3.14159
    D1        0.00000  -0.00000   0.00000  -0.00000   0.00000   0.00000
         Item               Value     Threshold  Converged?
 Maximum Force            0.000364     0.000450     YES
 RMS     Force            0.000192     0.000300     YES
 Maximum Displacement     0.003388     0.001800     NO 
 RMS     Displacement     0.002313     0.001200     NO 
 Predicted change in Energy=-1.301837D-06
 GradGradGradGradGradGradGradGradGradGradGradGradGradGradGradGradGradGrad

                          Input orientation:                          
 ---------------------------------------------------------------------
 Center     Atomic      Atomic             Coordinates (Angstroms)
 Number     Number       Type             X           Y           Z
 ---------------------------------------------------------------------
      1         53           0        0.000000    0.000000   -0.187805
      2          1           0       -0.000000   -0.000000    1.479095
      3          1           0        1.877708    0.000000    0.111140
      4          1           0       -1.877708   -0.000000    0.111140
 ---------------------------------------------------------------------
                    Distance matrix (angstroms):
                    1          2          3          4
     1  I    0.000000
     2  H    1.666900   0.000000
     3  H    1.901356   2.323164   0.000000
     4  H    1.901356   2.323164   3.755417   0.000000
 Stoichiometry    H3I
 Framework group  C2V[C2(HI),SGV(H2)]
 Deg. of freedom     3
 Full point group                 C2V     NOp   4
 Largest Abelian subgroup         C2V     NOp   4
 Largest concise Abelian subgroup C2      NOp   2
                         Standard orientation:                         
 ---------------------------------------------------------------------
 Center     Atomic      Atomic             Coordinates (Angstroms)
 Number     Number       Type             X           Y           Z
 ---------------------------------------------------------------------
      1         53           0        0.000000    0.000000    0.040443
      2          1           0        0.000000   -0.000000   -1.626457
      3          1           0        0.000000    1.877708   -0.258502
      4          1           0       -0.000000   -1.877708   -0.258502
 ---------------------------------------------------------------------
 Rotational constants (GHZ):    171.8781658     71.1124790     50.3010413
 Standard basis: 3-21G (6D, 7F)
 There are    21 symmetry adapted basis functions of A1  symmetry.
 There are     2 symmetry adapted basis functions of A2  symmetry.
 There are     7 symmetry adapted basis functions of B1  symmetry.
 There are     9 symmetry adapted basis functions of B2  symmetry.
 Integral buffers will be    131072 words long.
 Raffenetti 1 integral format.
 Two-electron integral symmetry is turned on.
    39 basis functions,    96 primitive gaussians,    39 cartesian basis functions
    28 alpha electrons       28 beta electrons
       nuclear repulsion energy        46.9234136467 Hartrees.
 NAtoms=    4 NActive=    4 NUniq=    3 SFac= 1.78D+00 NAtFMM=   60 NAOKFM=F Big=F
 One-electron integrals computed using PRISM.
 NBasis=    39 RedAO= T  NBF=    21     2     7     9
 NBsUse=    39 1.00D-06 NBFU=    21     2     7     9
 Initial guess read from the read-write file.
 B after Tr=     0.000000    0.000000    0.000000
         Rot=    1.000000    0.000000    0.000000    0.000000 Ang=   0.00 deg.
 Initial guess orbital symmetries:
       Occupied  (A1) (A1) (B2) (A1) (B1) (A1) (B2) (A1) (B1) (A1)
                 (B2) (A2) (B1) (A1) (A1) (B2) (A1) (B1) (A1) (B2)
                 (A2) (B1) (A1) (A1) (A1) (B2) (B1) (A1)
       Virtual   (A1) (B2) (A1) (B1) (A1) (B2) (A1) (B2) (A1) (A1)
                 (A1)
 Requested convergence on RMS density matrix=1.00D-08 within 128 cycles.
 Requested convergence on MAX density matrix=1.00D-06.
 Requested convergence on             energy=1.00D-06.
 No special actions if energy rises.
 Keep R1 ints in memory in canonical form, NReq=1147923.
 SCF Done:  E(RHF) =  -6889.33672773     A.U. after    7 cycles
             Convg  =    0.3015D-08             -V/T =  2.0027
 ExpMin= 1.15D-01 ExpMax= 1.44D+04 ExpMxC= 1.44D+04 IAcc=3 IRadAn=         5 AccDes= 0.00D+00
 HarFok:  IExCor=  205 AccDes= 0.00D+00 IRadAn=         5 IDoV=-2
 ScaDFX=  1.000000  1.000000  1.000000  1.000000
 Defaulting to unpruned grid for atomic number  53.
 Range of M.O.s used for correlation:    19    39
 NBasis=    39 NAE=    28 NBE=    28 NFC=    18 NFV=     0
 NROrb=     21 NOA=    10 NOB=    10 NVA=    11 NVB=    11

 **** Warning!!: The largest alpha MO coefficient is  0.20827855D+02

 Fully direct method using O(ONN) memory.
 JobTyp=1 Pass  1:  I=  19 to  28 NPSUse=  1 ParTrn=F ParDer=F DoDerP=T.
 Spin components of T(2) and E(2):
     alpha-alpha T2 =       0.1341862398D-02 E2=     -0.2908652691D-02
     alpha-beta  T2 =       0.4309287104D-01 E2=     -0.6360673280D-01
     beta-beta   T2 =       0.1341862398D-02 E2=     -0.2908652691D-02
 ANorm=    0.1022632190D+01
 E2 =    -0.6942403818D-01 EUMP2 =    -0.68894061517653D+04
          IDoAtm=1111
          Differentiating once with respect to electric field.
                with respect to dipole field.
          Differentiating once with respect to nuclear coordinates.
          Keep R1 ints in memory in canonical form, NReq=1125324.
          There are     1 degrees of freedom in the 1st order CPHF.  IDoFFX=0.
 LinEq1:  Iter=  0 NonCon=     1 RMS=4.89D-03 Max=6.57D-02
 AX will form     1 AO Fock derivatives at one time.
 LinEq1:  Iter=  1 NonCon=     1 RMS=5.94D-04 Max=5.22D-03
 LinEq1:  Iter=  2 NonCon=     1 RMS=1.13D-04 Max=1.02D-03
 LinEq1:  Iter=  3 NonCon=     1 RMS=2.97D-05 Max=3.34D-04
 LinEq1:  Iter=  4 NonCon=     1 RMS=3.39D-06 Max=3.73D-05
 LinEq1:  Iter=  5 NonCon=     1 RMS=2.76D-07 Max=2.76D-06
 LinEq1:  Iter=  6 NonCon=     1 RMS=2.38D-08 Max=1.92D-07
 LinEq1:  Iter=  7 NonCon=     1 RMS=1.62D-09 Max=1.15D-08
 LinEq1:  Iter=  8 NonCon=     0 RMS=8.03D-11 Max=7.32D-10
 Linear equations converged to 1.000D-10 1.000D-09 after     8 iterations.
 End of Minotr Frequency-dependent properties file   721 does not exist.
 End of Minotr Frequency-dependent properties file   722 does not exist.
 Calling FoFJK, ICntrl=      2127 FMM=F ISym2X=1 I1Cent= 0 IOpClX= 0 NMat=1 NMatS=1 NMatT=0.
 ***** Axes restored to original set *****
 -------------------------------------------------------------------
 Center     Atomic                   Forces (Hartrees/Bohr)
 Number     Number              X              Y              Z
 -------------------------------------------------------------------
      1       53          -0.000000000   -0.000000000    0.000070044
      2        1           0.000000000    0.000000000    0.000026593
      3        1          -0.000020679    0.000000000   -0.000048318
      4        1           0.000020679    0.000000000   -0.000048318
 -------------------------------------------------------------------
 Cartesian Forces:  Max     0.000070044 RMS     0.000030466

 GradGradGradGradGradGradGradGradGradGradGradGradGradGradGradGradGradGrad
 Berny optimization.
 Using GEDIIS/GDIIS optimizer.
 Internal  Forces:  Max     0.000106512 RMS     0.000049110
 Search for a local minimum.
 Step number   6 out of a maximum of   20
 All quantities printed in internal units (Hartrees-Bohrs-Radians)
 Mixed Optimization -- En-DIIS/RFO-DIIS
 Swaping is turned off.
 Update second derivatives using D2CorX and points    2    3    4    5    6
 DE= -1.17D-06 DEPred=-1.30D-06 R= 8.98D-01
 SS=  1.41D+00  RLast= 4.98D-03 DXNew= 1.4270D+00 1.4945D-02
 Trust test= 8.98D-01 RLast= 4.98D-03 DXMaxT set to 8.49D-01
 The second derivative matrix:
                          R1        R2        R3        A1        A2
           R1           0.14187
           R2           0.01006   0.11281
           R3           0.01006  -0.04008   0.11281
           A1           0.00240  -0.00884  -0.00884   0.11994
           A2           0.00240  -0.00884  -0.00884  -0.04006   0.11994
           A3           0.01057  -0.00021  -0.00021   0.05232   0.05232
           A4           0.00000   0.00000   0.00000  -0.00000  -0.00000
           D1          -0.00000   0.00000   0.00000  -0.00000  -0.00000
                          A3        A4        D1
           A3           0.08586
           A4          -0.00000   0.00230
           D1          -0.00000   0.00000   0.00230
 ITU=  1  1  1  1  1  0
     Eigenvalues ---    0.00230   0.06813   0.14019   0.15289   0.15990
     Eigenvalues ---    0.16000
 En-DIIS/RFO-DIIS IScMMF=        0 using points:     6    5
 RFO step:  Lambda=-4.92339055D-08.
 DidBck=F Rises=F RFO-DIIS coefs:    0.90738    0.09262
 Iteration  1 RMS(Cart)=  0.00046864 RMS(Int)=  0.00000010
 Iteration  2 RMS(Cart)=  0.00000011 RMS(Int)=  0.00000000
 ClnCor:  largest displacement from symmetrization is 1.43D-11 for atom     1.
 Variable       Old X    -DE/DX   Delta X   Delta X   Delta X     New X
                                  (DIIS)     (GDIIS)  (Total)
    R1        3.14998   0.00003   0.00020  -0.00003   0.00017   3.15016
    R2        3.59304  -0.00003   0.00023  -0.00056  -0.00033   3.59272
    R3        3.59304  -0.00003   0.00023  -0.00056  -0.00033   3.59272
    A1        1.41291   0.00005   0.00010   0.00023   0.00033   1.41324
    A2        1.41291   0.00005   0.00010   0.00023   0.00033   1.41324
    A3        2.82583   0.00011   0.00020   0.00046   0.00066   2.82649
    A4        3.14159  -0.00000   0.00000  -0.00000   0.00000   3.14159
    D1        0.00000  -0.00000   0.00000  -0.00000   0.00000   0.00000
         Item               Value     Threshold  Converged?
 Maximum Force            0.000107     0.000450     YES
 RMS     Force            0.000049     0.000300     YES
 Maximum Displacement     0.000740     0.001800     YES
 RMS     Displacement     0.000469     0.001200     YES
 Predicted change in Energy=-6.403175D-08
 Optimization completed.
    -- Stationary point found.
                           ----------------------------
                           !   Optimized Parameters   !
                           ! (Angstroms and Degrees)  !
 --------------------------                            --------------------------
 ! Name  Definition              Value          Derivative Info.                !
 --------------------------------------------------------------------------------
 ! R1    R(1,2)                  1.6669         -DE/DX =    0.0                 !
 ! R2    R(1,3)                  1.9014         -DE/DX =    0.0                 !
 ! R3    R(1,4)                  1.9014         -DE/DX =    0.0                 !
 ! A1    A(2,1,3)               80.954          -DE/DX =    0.0001              !
 ! A2    A(2,1,4)               80.954          -DE/DX =    0.0001              !
 ! A3    L(3,1,4,2,-1)         161.908          -DE/DX =    0.0001              !
 ! A4    L(3,1,4,2,-2)         180.0            -DE/DX =    0.0                 !
 ! D1    D(1,2,4,3)              0.0            -DE/DX =    0.0                 !
 --------------------------------------------------------------------------------
 GradGradGradGradGradGradGradGradGradGradGradGradGradGradGradGradGradGrad

                          Input orientation:                          
 ---------------------------------------------------------------------
 Center     Atomic      Atomic             Coordinates (Angstroms)
 Number     Number       Type             X           Y           Z
 ---------------------------------------------------------------------
      1         53           0        0.000000    0.000000   -0.187805
      2          1           0       -0.000000   -0.000000    1.479095
      3          1           0        1.877708    0.000000    0.111140
      4          1           0       -1.877708   -0.000000    0.111140
 ---------------------------------------------------------------------
                    Distance matrix (angstroms):
                    1          2          3          4
     1  I    0.000000
     2  H    1.666900   0.000000
     3  H    1.901356   2.323164   0.000000
     4  H    1.901356   2.323164   3.755417   0.000000
 Stoichiometry    H3I
 Framework group  C2V[C2(HI),SGV(H2)]
 Deg. of freedom     3
 Full point group                 C2V     NOp   4
 Largest Abelian subgroup         C2V     NOp   4
 Largest concise Abelian subgroup C2      NOp   2
                         Standard orientation:                         
 ---------------------------------------------------------------------
 Center     Atomic      Atomic             Coordinates (Angstroms)
 Number     Number       Type             X           Y           Z
 ---------------------------------------------------------------------
      1         53           0        0.000000    0.000000    0.040443
      2          1           0        0.000000   -0.000000   -1.626457
      3          1           0       -0.000000    1.877708   -0.258502
      4          1           0       -0.000000   -1.877708   -0.258502
 ---------------------------------------------------------------------
 Rotational constants (GHZ):    171.8781658     71.1124790     50.3010413

 **********************************************************************

            Population analysis using the SCF density.

 **********************************************************************

 Orbital symmetries:
       Occupied  (A1) (A1) (B2) (A1) (B1) (A1) (B2) (A1) (B1) (A1)
                 (B2) (A2) (B1) (A1) (A1) (B2) (A1) (B1) (A1) (B2)
                 (A2) (B1) (A1) (A1) (A1) (B2) (B1) (A1)
       Virtual   (A1) (B2) (A1) (B1) (A1) (B2) (A1) (B2) (A1) (A1)
                 (A1)
 The electronic state is 1-A1.
 Alpha  occ. eigenvalues -- **********-180.17591-168.41515-168.41465-168.41410
 Alpha  occ. eigenvalues --  -37.92785 -32.82109 -32.81972 -32.81691 -24.27096
 Alpha  occ. eigenvalues --  -24.27049 -24.26759 -24.26622 -24.26567  -7.34913
 Alpha  occ. eigenvalues --   -5.47794  -5.47740  -5.46755  -2.52406  -2.52186
 Alpha  occ. eigenvalues --   -2.51129  -2.51019  -2.50742  -0.94659  -0.56420
 Alpha  occ. eigenvalues --   -0.56135  -0.43864  -0.28533
 Alpha virt. eigenvalues --    0.08539   0.13892   0.50847   0.52286   0.55547
 Alpha virt. eigenvalues --    0.60428   1.11668   1.26531   1.27231   4.53606
 Alpha virt. eigenvalues --  228.95696
          Condensed to atoms (all electrons):
              1          2          3          4
     1  I   51.965125   0.228338   0.086491   0.086491
     2  H    0.228338   0.946314  -0.073526  -0.073526
     3  H    0.086491  -0.073526   1.284216   0.005796
     4  H    0.086491  -0.073526   0.005796   1.284216
 Mulliken atomic charges:
              1
     1  I    0.633555
     2  H   -0.027600
     3  H   -0.302977
     4  H   -0.302977
 Sum of Mulliken atomic charges =  -0.00000
 Mulliken charges with hydrogens summed into heavy atoms:
              1
     1  I   -0.000000
 Sum of Mulliken charges with hydrogens summed into heavy atoms =  -0.00000
 Electronic spatial extent (au):  <R**2>=            111.4174
 Charge=              0.0000 electrons
 Dipole moment (field-independent basis, Debye):
    X=              0.0000    Y=             -0.0000    Z=             -0.0820  Tot=              0.0820
 Quadrupole moment (field-independent basis, Debye-Ang):
   XX=            -31.9492   YY=            -40.6038   ZZ=            -29.6725
   XY=             -0.0000   XZ=             -0.0000   YZ=             -0.0000
 Traceless Quadrupole moment (field-independent basis, Debye-Ang):
   XX=              2.1259   YY=             -6.5286   ZZ=              4.4027
   XY=             -0.0000   XZ=             -0.0000   YZ=             -0.0000
 Octapole moment (field-independent basis, Debye-Ang**2):
  XXX=              0.0000  YYY=              0.0000  ZZZ=              4.0886  XYY=              0.0000
  XXY=             -0.0000  XXZ=              0.8992  XZZ=              0.0000  YZZ=             -0.0000
  YYZ=              4.8874  XYZ=              0.0000
 Hexadecapole moment (field-independent basis, Debye-Ang**3):
 XXXX=            -40.7528 YYYY=           -150.1508 ZZZZ=            -52.8450 XXXY=             -0.0000
 XXXZ=             -0.0000 YYYX=             -0.0000 YYYZ=             -0.0000 ZZZX=             -0.0000
 ZZZY=              0.0000 XXYY=            -24.5828 XXZZ=            -15.4840 YYZZ=            -26.7000
 XXYZ=              0.0000 YYXZ=             -0.0000 ZZXY=             -0.0000
 N-N= 4.692341364667D+01 E-N=-1.643755205396D+04  KE= 6.870557126750D+03
 Symmetry A1   KE= 4.680037500583D+03
 Symmetry A2   KE= 1.917657283711D+02
 Symmetry B1   KE= 1.000357350575D+03
 Symmetry B2   KE= 9.983965472215D+02
 1\1\GINC-SRU01\FOpt\RMP2-FC\3-21G\H3I1\JAMES\18-Jun-2023\0\\# opt freq
 =hpmodes mp2/3-21g geom=connectivity\\Title Card Required\\0,1\I,0.,0.
 ,-0.1878045335\H,0.,0.,1.4790953229\H,1.8777082713,0.,0.1111403253\H,-
 1.8777082713,0.,0.1111403253\\Version=AM64L-G09RevC.01\State=1-A1\HF=-
 6889.3367277\MP2=-6889.4061518\RMSD=3.015e-09\RMSF=3.047e-05\Dipole=0.
 ,0.,0.0480673\PG=C02V [C2(H1I1),SGV(H2)]\\@


 A MAN SHOULD NEVER BE ASHAMED TO OWN HE HAS BEEN IN THE WRONG
 WHICH IS BUT SAYING IN OTHER WORDS,
 THAT HE IS WISER TODAY THAN HE WAS YESTERDAY.

                          -- JONATHAN SWIFT
 Job cpu time:  0 days  0 hours  0 minutes 11.8 seconds.
 File lengths (MBytes):  RWF=      5 Int=      0 D2E=      0 Chk=      2 Scr=      1
 Normal termination of Gaussian 09 at Sun Jun 18 22:04:26 2023.
 Link1:  Proceeding to internal job step number  2.
 -------------------------------------------------------------------
 #N Geom=AllCheck Guess=TCheck SCRF=Check GenChk RMP2(FC)/3-21G Freq
 -------------------------------------------------------------------
 1/10=4,29=7,30=1,38=1,40=1/1,3;
 2/12=2,40=1/2;
 3/5=5,11=1,14=-4,16=1,25=1,30=1,70=2,71=2,116=1/1,2,3;
 4/5=101/1;
 5/5=2,98=1/2;
 8/6=3,8=1,10=1,19=11,30=-1/1;
 9/15=3,16=-3/6;
 11/6=1,8=1,15=11,17=12,24=-1,27=1,28=-2,29=300,32=6,42=3/1,2,10;
 10/6=2,21=1/2;
 8/6=4,8=1,10=1,19=11,30=-1/11,4;
 10/5=1,20=4/2;
 11/12=2,14=11,16=1,17=2,28=-2,42=3/2,10,12;
 6/7=2,8=2,9=2,10=2/1;
 7/8=11,10=1,12=2,25=1,44=2/1,2,3,16;
 1/10=4,30=1/3;
 99//99;
 Structure from the checkpoint file:  IH3.chk
 -------------------
 Title Card Required
 -------------------
 Charge =  0 Multiplicity = 1
 Redundant internal coordinates found in file.
 I,0,0.,0.,-0.1878045335
 H,0,0.,0.,1.4790953229
 H,0,1.8777082713,0.,0.1111403253
 H,0,-1.8777082713,0.,0.1111403253
 Recover connectivity data from disk.

 GradGradGradGradGradGradGradGradGradGradGradGradGradGradGradGradGradGrad
 Berny optimization.
 Initialization pass.
                           ----------------------------
                           !    Initial Parameters    !
                           ! (Angstroms and Degrees)  !
 --------------------------                            --------------------------
 ! Name  Definition              Value          Derivative Info.                !
 --------------------------------------------------------------------------------
 ! R1    R(1,2)                  1.6669         calculate D2E/DX2 analytically  !
 ! R2    R(1,3)                  1.9014         calculate D2E/DX2 analytically  !
 ! R3    R(1,4)                  1.9014         calculate D2E/DX2 analytically  !
 ! A1    A(2,1,3)               80.954          calculate D2E/DX2 analytically  !
 ! A2    A(2,1,4)               80.954          calculate D2E/DX2 analytically  !
 ! A3    L(3,1,4,2,-1)         161.908          calculate D2E/DX2 analytically  !
 ! A4    L(3,1,4,2,-2)         180.0            calculate D2E/DX2 analytically  !
 ! D1    D(1,2,4,3)              0.0            calculate D2E/DX2 analytically  !
 --------------------------------------------------------------------------------
 Trust Radius=3.00D-01 FncErr=1.00D-07 GrdErr=1.00D-07
 Number of steps in this run=      2 maximum allowed number of steps=      2.
 GradGradGradGradGradGradGradGradGradGradGradGradGradGradGradGradGradGrad

                          Input orientation:                          
 ---------------------------------------------------------------------
 Center     Atomic      Atomic             Coordinates (Angstroms)
 Number     Number       Type             X           Y           Z
 ---------------------------------------------------------------------
      1         53           0        0.000000    0.000000   -0.187805
      2          1           0       -0.000000   -0.000000    1.479095
      3          1           0        1.877708    0.000000    0.111140
      4          1           0       -1.877708   -0.000000    0.111140
 ---------------------------------------------------------------------
                    Distance matrix (angstroms):
                    1          2          3          4
     1  I    0.000000
     2  H    1.666900   0.000000
     3  H    1.901356   2.323164   0.000000
     4  H    1.901356   2.323164   3.755417   0.000000
 Stoichiometry    H3I
 Framework group  C2V[C2(HI),SGV(H2)]
 Deg. of freedom     3
 Full point group                 C2V     NOp   4
 Largest Abelian subgroup         C2V     NOp   4
 Largest concise Abelian subgroup C2      NOp   2
                         Standard orientation:                         
 ---------------------------------------------------------------------
 Center     Atomic      Atomic             Coordinates (Angstroms)
 Number     Number       Type             X           Y           Z
 ---------------------------------------------------------------------
      1         53           0        0.000000    0.000000    0.040443
      2          1           0       -0.000000    0.000000   -1.626457
      3          1           0        0.000000    1.877708   -0.258502
      4          1           0       -0.000000   -1.877708   -0.258502
 ---------------------------------------------------------------------
 Rotational constants (GHZ):    171.8781658     71.1124790     50.3010413
 Standard basis: 3-21G (6D, 7F)
 There are    21 symmetry adapted basis functions of A1  symmetry.
 There are     2 symmetry adapted basis functions of A2  symmetry.
 There are     7 symmetry adapted basis functions of B1  symmetry.
 There are     9 symmetry adapted basis functions of B2  symmetry.
 Integral buffers will be    131072 words long.
 Raffenetti 1 integral format.
 Two-electron integral symmetry is turned on.
    39 basis functions,    96 primitive gaussians,    39 cartesian basis functions
    28 alpha electrons       28 beta electrons
       nuclear repulsion energy        46.9234136467 Hartrees.
 NAtoms=    4 NActive=    4 NUniq=    3 SFac= 1.78D+00 NAtFMM=   60 NAOKFM=F Big=F
 One-electron integrals computed using PRISM.
 NBasis=    39 RedAO= T  NBF=    21     2     7     9
 NBsUse=    39 1.00D-06 NBFU=    21     2     7     9
 Initial guess read from the checkpoint file:  IH3.chk
 B after Tr=     0.000000    0.000000    0.000000
         Rot=    1.000000    0.000000   -0.000000    0.000000 Ang=   0.00 deg.
 Initial guess orbital symmetries:
       Occupied  (A1) (A1) (B2) (A1) (B1) (A1) (B2) (A1) (B1) (A1)
                 (B2) (A2) (B1) (A1) (A1) (B2) (A1) (B1) (A1) (B2)
                 (A2) (B1) (A1) (A1) (A1) (B2) (B1) (A1)
       Virtual   (A1) (B2) (A1) (B1) (A1) (B2) (A1) (B2) (A1) (A1)
                 (A1)
 Requested convergence on RMS density matrix=1.00D-08 within 128 cycles.
 Requested convergence on MAX density matrix=1.00D-06.
 Requested convergence on             energy=1.00D-06.
 No special actions if energy rises.
 Keep R1 ints in memory in canonical form, NReq=1147923.
 SCF Done:  E(RHF) =  -6889.33672773     A.U. after    1 cycles
             Convg  =    0.2809D-09             -V/T =  2.0027
 ExpMin= 1.15D-01 ExpMax= 1.44D+04 ExpMxC= 1.44D+04 IAcc=3 IRadAn=         5 AccDes= 0.00D+00
 HarFok:  IExCor=  205 AccDes= 0.00D+00 IRadAn=         5 IDoV=-2
 ScaDFX=  1.000000  1.000000  1.000000  1.000000
 Defaulting to unpruned grid for atomic number  53.
 Range of M.O.s used for correlation:    19    39
 NBasis=    39 NAE=    28 NBE=    28 NFC=    18 NFV=     0
 NROrb=     21 NOA=    10 NOB=    10 NVA=    11 NVB=    11

 **** Warning!!: The largest alpha MO coefficient is  0.20827855D+02

 Disk-based method using ON**2 memory for 10 occupieds at a time.
 Permanent disk used for amplitudes=      115654 words.
 Estimated scratch disk usage=     1463606 words.
 Actual    scratch disk usage=     1463606 words.
 JobTyp=1 Pass  1:  I=  19 to  28 NPSUse=  1 ParTrn=F ParDer=F DoDerP=T.
 (rs|ai) integrals will be sorted in core.
 Spin components of T(2) and E(2):
     alpha-alpha T2 =       0.1341862397D-02 E2=     -0.2908652688D-02
     alpha-beta  T2 =       0.4309287072D-01 E2=     -0.6360673257D-01
     beta-beta   T2 =       0.1341862397D-02 E2=     -0.2908652688D-02
 ANorm=    0.1022632190D+01
 E2 =    -0.6942403795D-01 EUMP2 =    -0.68894061517651D+04
 G2DrvN: will do     5 centers at a time, making    1 passes doing MaxLOS=2.
 Calling FoFCou, ICntrl=  3107 FMM=F I1Cent=   0 AccDes= 0.00D+00.
 FoFDir/FoFCou used for L=0 through L=2.
 End of G2Drv Frequency-dependent properties file   721 does not exist.
 End of G2Drv Frequency-dependent properties file   722 does not exist.
          IDoAtm=1111
          Differentiating once with respect to electric field.
                with respect to dipole field.
          Differentiating once with respect to nuclear coordinates.
          Keep R1 ints in memory in canonical form, NReq=1125324.
          There are    15 degrees of freedom in the 1st order CPHF.  IDoFFX=5.
     12 vectors produced by pass  0 Test12= 2.05D-15 6.67D-09 XBig12= 4.16D+01 6.36D+00.
 AX will form    12 AO Fock derivatives at one time.
     12 vectors produced by pass  1 Test12= 2.05D-15 6.67D-09 XBig12= 1.69D-01 3.24D-01.
     12 vectors produced by pass  2 Test12= 2.05D-15 6.67D-09 XBig12= 1.03D-03 1.75D-02.
     12 vectors produced by pass  3 Test12= 2.05D-15 6.67D-09 XBig12= 3.62D-06 7.55D-04.
     12 vectors produced by pass  4 Test12= 2.05D-15 6.67D-09 XBig12= 1.86D-08 5.36D-05.
      8 vectors produced by pass  5 Test12= 2.05D-15 6.67D-09 XBig12= 2.70D-11 2.30D-06.
      1 vectors produced by pass  6 Test12= 2.05D-15 6.67D-09 XBig12= 2.32D-14 5.14D-08.
 Inverted reduced A of dimension    69 with in-core refinement.
 End of Minotr Frequency-dependent properties file   721 does not exist.
 End of Minotr Frequency-dependent properties file   722 does not exist.
 MDV=    33554432.
 Form MO integral derivatives with frozen-active canonical formalism.
 Discarding MO integrals.
 Reordered first order wavefunction length =       189728
 In DefCFB: NBatch=  1 ICI= 28 ICA= 11 LFMax= 14
            Large arrays: LIAPS=     1873872 LIARS=     2774772 words.
 Semi-Direct transformation.
 ModeAB=           4 MOrb=            28 LenV=      33372277
 LASXX=       320649 LTotXX=      320649 LenRXX=      752521
 LTotAB=      431872 MaxLAS=      836472 LenRXY=           0
 NonZer=     1073170 LenScr=     2357760 LnRSAI=      836472
 LnScr1=     1881600 LExtra=           0 Total=      5828353
 MaxDsk=          -1 SrtSym=           T ITran=            4
 JobTyp=0 Pass  1:  I=   1 to  28.
 (rs|ai) integrals will be sorted in core.
 Spin components of T(2) and E(2):
     alpha-alpha T2 =       0.1341862397D-02 E2=     -0.2908652688D-02
     alpha-beta  T2 =       0.4309287072D-01 E2=     -0.6360673257D-01
     beta-beta   T2 =       0.1341862397D-02 E2=     -0.2908652688D-02
 ANorm=    0.1446220312D+01
 E2 =    -0.6942403795D-01 EUMP2 =    -0.68894061517651D+04
          IDoAtm=1111
          Differentiating once with respect to electric field.
                with respect to dipole field.
          Differentiating once with respect to nuclear coordinates.
          There are     1 degrees of freedom in the 1st order CPHF.  IDoFFX=0.
 LinEq1:  Iter=  0 NonCon=     1 RMS=4.89D-03 Max=6.57D-02
 LinEq1:  Iter=  1 NonCon=     1 RMS=5.94D-04 Max=5.22D-03
 LinEq1:  Iter=  2 NonCon=     1 RMS=1.13D-04 Max=1.02D-03
 LinEq1:  Iter=  3 NonCon=     1 RMS=2.97D-05 Max=3.34D-04
 LinEq1:  Iter=  4 NonCon=     1 RMS=3.39D-06 Max=3.73D-05
 LinEq1:  Iter=  5 NonCon=     1 RMS=2.76D-07 Max=2.76D-06
 LinEq1:  Iter=  6 NonCon=     1 RMS=2.38D-08 Max=1.92D-07
 LinEq1:  Iter=  7 NonCon=     1 RMS=1.62D-09 Max=1.15D-08
 LinEq1:  Iter=  8 NonCon=     0 RMS=8.03D-11 Max=7.32D-10
 Linear equations converged to 1.000D-10 1.000D-09 after     8 iterations.
 End of Minotr Frequency-dependent properties file   721 does not exist.
 End of Minotr Frequency-dependent properties file   722 does not exist.
 Symmetrizing basis deriv contribution to polar:
 IMax=3 JMax=2 DiffMx= 0.00D+00
 G2DrvN: will do     5 centers at a time, making    1 passes doing MaxLOS=2.
 Calling FoFCou, ICntrl=  3107 FMM=F I1Cent=   0 AccDes= 0.00D+00.
 FoFDir/FoFCou used for L=0 through L=2.
 End of G2Drv Frequency-dependent properties file   721 does not exist.
 End of G2Drv Frequency-dependent properties file   722 does not exist.
 R2 and R3 integrals will be kept in memory, NReq=     1429180.
 DD1Dir will call FoFMem   1 times, MxPair=       812
 NAB=   406 NAA=     0 NBB=     0.
 Discarding MO integrals.

 **********************************************************************

            Population analysis using the SCF density.

 **********************************************************************

 Orbital symmetries:
       Occupied  (A1) (A1) (B2) (A1) (B1) (A1) (B2) (A1) (B1) (A1)
                 (B2) (A2) (B1) (A1) (A1) (B2) (A1) (B1) (A1) (B2)
                 (A2) (B1) (A1) (A1) (A1) (B2) (B1) (A1)
       Virtual   (A1) (B2) (A1) (B1) (A1) (B2) (A1) (B2) (A1) (A1)
                 (A1)
 The electronic state is 1-A1.
 Alpha  occ. eigenvalues -- **********-180.17591-168.41515-168.41465-168.41410
 Alpha  occ. eigenvalues --  -37.92785 -32.82109 -32.81972 -32.81691 -24.27096
 Alpha  occ. eigenvalues --  -24.27049 -24.26759 -24.26622 -24.26567  -7.34913
 Alpha  occ. eigenvalues --   -5.47794  -5.47740  -5.46755  -2.52406  -2.52186
 Alpha  occ. eigenvalues --   -2.51129  -2.51019  -2.50742  -0.94659  -0.56420
 Alpha  occ. eigenvalues --   -0.56135  -0.43864  -0.28533
 Alpha virt. eigenvalues --    0.08539   0.13892   0.50847   0.52286   0.55547
 Alpha virt. eigenvalues --    0.60428   1.11668   1.26531   1.27231   4.53606
 Alpha virt. eigenvalues --  228.95696
          Condensed to atoms (all electrons):
              1          2          3          4
     1  I   51.965125   0.228338   0.086491   0.086491
     2  H    0.228338   0.946314  -0.073526  -0.073526
     3  H    0.086491  -0.073526   1.284216   0.005796
     4  H    0.086491  -0.073526   0.005796   1.284216
 Mulliken atomic charges:
              1
     1  I    0.633555
     2  H   -0.027600
     3  H   -0.302977
     4  H   -0.302977
 Sum of Mulliken atomic charges =  -0.00000
 Mulliken charges with hydrogens summed into heavy atoms:
              1
     1  I   -0.000000
 Sum of Mulliken charges with hydrogens summed into heavy atoms =  -0.00000
 APT atomic charges:
              1
     1  I    1.034000
     2  H   -0.077709
     3  H   -0.478145
     4  H   -0.478145
 Sum of APT charges=   0.00000
 APT Atomic charges with hydrogens summed into heavy atoms:
              1
     1  I    0.000000
     2  H    0.000000
     3  H    0.000000
     4  H    0.000000
 Sum of APT charges=   0.00000
 Electronic spatial extent (au):  <R**2>=            111.4174
 Charge=             -0.0000 electrons
 Dipole moment (field-independent basis, Debye):
    X=              0.0000    Y=              0.0000    Z=             -0.0820  Tot=              0.0820
 Quadrupole moment (field-independent basis, Debye-Ang):
   XX=            -31.9492   YY=            -40.6038   ZZ=            -29.6725
   XY=             -0.0000   XZ=             -0.0000   YZ=              0.0000
 Traceless Quadrupole moment (field-independent basis, Debye-Ang):
   XX=              2.1259   YY=             -6.5286   ZZ=              4.4027
   XY=             -0.0000   XZ=             -0.0000   YZ=              0.0000
 Octapole moment (field-independent basis, Debye-Ang**2):
  XXX=              0.0000  YYY=             -0.0000  ZZZ=              4.0886  XYY=              0.0000
  XXY=             -0.0000  XXZ=              0.8992  XZZ=              0.0000  YZZ=              0.0000
  YYZ=              4.8874  XYZ=              0.0000
 Hexadecapole moment (field-independent basis, Debye-Ang**3):
 XXXX=            -40.7528 YYYY=           -150.1508 ZZZZ=            -52.8450 XXXY=             -0.0000
 XXXZ=             -0.0000 YYYX=             -0.0000 YYYZ=              0.0000 ZZZX=             -0.0000
 ZZZY=              0.0000 XXYY=            -24.5828 XXZZ=            -15.4840 YYZZ=            -26.7000
 XXYZ=             -0.0000 YYXZ=             -0.0000 ZZXY=             -0.0000
 N-N= 4.692341364667D+01 E-N=-1.643755205395D+04  KE= 6.870557126751D+03
 Symmetry A1   KE= 4.680037500596D+03
 Symmetry A2   KE= 1.917657283711D+02
 Symmetry B1   KE= 1.000357350585D+03
 Symmetry B2   KE= 9.983965471991D+02
  Exact polarizability:   8.658   0.000  62.279   0.000  -0.000  22.586
 Approx polarizability:   6.608   0.000  71.890   0.000   0.000  19.046
 Calling FoFJK, ICntrl=    100127 FMM=F ISym2X=1 I1Cent= 0 IOpClX= 0 NMat=1 NMatS=1 NMatT=0.
 Full mass-weighted force constant matrix:
 Low frequencies ---   -8.6016    0.0222    0.0390    0.0427    9.3020   12.3617
 Low frequencies ---  827.3861  950.6014 1203.9765
 Harmonic frequencies (cm**-1), IR intensities (KM/Mole), Raman scattering
 activities (A**4/AMU), depolarization ratios for plane and unpolarized
 incident light, reduced masses (AMU), force constants (mDyne/A),
 and normal coordinates:
                           1         2         3         4         5
                          B1        A1        B2        B2        A1
       Frequencies ---   827.3858  950.6014 1203.9765 1254.6500 1355.7305
    Reduced masses ---     1.0179    1.0235    1.0175    1.0177    1.0082
   Force constants ---     0.4105    0.5449    0.8690    0.9439    1.0919
    IR Intensities ---   129.0082  226.4847  327.5232 1260.0526    0.1680
 Coord Atom Element:
   1     1    53          0.00893   0.00000  -0.00000   0.00000   0.00000
   2     1    53         -0.00000  -0.00000  -0.00878   0.00885  -0.00000
   3     1    53         -0.00000   0.01118  -0.00000   0.00000   0.00183
   1     2     1          0.24583   0.00000  -0.00000   0.00000   0.00000
   2     2     1          0.00000   0.00000   0.81357   0.25378   0.00000
   3     2     1         -0.00000  -0.04929  -0.00000   0.00000   0.16120
   1     3     1         -0.68538  -0.00000   0.00000  -0.00000  -0.00000
   2     3     1          0.00000  -0.19437   0.14591  -0.68392   0.66985
   3     3     1          0.00000  -0.67893  -0.38435  -0.00376  -0.19573
   1     4     1         -0.68538  -0.00000   0.00000  -0.00000  -0.00000
   2     4     1          0.00000   0.19437   0.14591  -0.68392  -0.66985
   3     4     1          0.00000  -0.67893   0.38435   0.00376  -0.19573
                           6
                          A1
       Frequencies ---  1966.1601
    Reduced masses ---     1.0152
   Force constants ---     2.3124
    IR Intensities ---    18.7262
 Coord Atom Element:
   1     1    53          0.00000
   2     1    53         -0.00000
   3     1    53         -0.00768
   1     2     1          0.00000
   2     2     1          0.00000
   3     2     1          0.98538
   1     3     1         -0.00000
   2     3     1         -0.11998
   3     3     1         -0.00937
   1     4     1         -0.00000
   2     4     1          0.11998
   3     4     1         -0.00937
 Harmonic frequencies (cm**-1), IR intensities (KM/Mole), Raman scattering
 activities (A**4/AMU), depolarization ratios for plane and unpolarized
 incident light, reduced masses (AMU), force constants (mDyne/A),
 and normal coordinates:
                     1                      2                      3
                    B1                     A1                     B2
 Frequencies --   827.3858               950.6014              1203.9765
 Red. masses --     1.0179                 1.0235                 1.0175
 Frc consts  --     0.4105                 0.5449                 0.8690
 IR Inten    --   129.0082               226.4847               327.5232
  Atom  AN      X      Y      Z        X      Y      Z        X      Y      Z
     1  53     0.01  -0.00  -0.00     0.00  -0.00   0.01    -0.00  -0.01  -0.00
     2   1     0.25   0.00  -0.00     0.00   0.00  -0.05    -0.00   0.81  -0.00
     3   1    -0.69   0.00   0.00    -0.00  -0.19  -0.68     0.00   0.15  -0.38
     4   1    -0.69   0.00   0.00    -0.00   0.19  -0.68     0.00   0.15   0.38
                     4                      5                      6
                    B2                     A1                     A1
 Frequencies --  1254.6500              1355.7305              1966.1601
 Red. masses --     1.0177                 1.0082                 1.0152
 Frc consts  --     0.9439                 1.0919                 2.3124
 IR Inten    --  1260.0526                 0.1680                18.7262
  Atom  AN      X      Y      Z        X      Y      Z        X      Y      Z
     1  53     0.00   0.01   0.00     0.00  -0.00   0.00     0.00  -0.00  -0.01
     2   1     0.00   0.25   0.00     0.00   0.00   0.16     0.00   0.00   0.99
     3   1    -0.00  -0.68  -0.00    -0.00   0.67  -0.20    -0.00  -0.12  -0.01
     4   1    -0.00  -0.68   0.00    -0.00  -0.67  -0.20    -0.00   0.12  -0.01

 -------------------
 - Thermochemistry -
 -------------------
 Temperature   298.150 Kelvin.  Pressure   1.00000 Atm.
 Atom     1 has atomic number 53 and mass 126.90040
 Atom     2 has atomic number  1 and mass   1.00783
 Atom     3 has atomic number  1 and mass   1.00783
 Atom     4 has atomic number  1 and mass   1.00783
 Molecular mass:   129.92388 amu.
 Principal axes and moments of inertia in atomic units:
                           1         2         3
     Eigenvalues --    10.50012  25.37869  35.87880
           X            0.00000   0.00000   1.00000
           Y            1.00000   0.00000  -0.00000
           Z            0.00000   1.00000   0.00000
 This molecule is an asymmetric top.
 Rotational symmetry number  2.
 Rotational temperatures (Kelvin)      8.24884     3.41286     2.41407
 Rotational constants (GHZ):         171.87817    71.11248    50.30104
 Zero-point vibrational energy      45209.9 (Joules/Mol)
                                   10.80542 (Kcal/Mol)
 Vibrational temperatures:   1190.42  1367.70  1732.25  1805.16  1950.59
          (Kelvin)           2828.86
 
 Zero-point correction=                           0.017220 (Hartree/Particle)
 Thermal correction to Energy=                    0.020207
 Thermal correction to Enthalpy=                  0.021151
 Thermal correction to Gibbs Free Energy=        -0.005659
 Sum of electronic and zero-point Energies=          -6889.388932
 Sum of electronic and thermal Energies=             -6889.385945
 Sum of electronic and thermal Enthalpies=           -6889.385001
 Sum of electronic and thermal Free Energies=        -6889.411811
 
                     E (Thermal)             CV                S
                      KCal/Mol        Cal/Mol-Kelvin    Cal/Mol-Kelvin
 Total                   12.680              7.513             56.428
 Electronic               0.000              0.000              0.000
 Translational            0.889              2.981             40.498
 Rotational               0.889              2.981             15.532
 Vibrational             10.903              1.552              0.397
                       Q            Log10(Q)             Ln(Q)
 Total Bot       0.401004D+03          2.603149          5.993973
 Total V=0       0.333865D+11         10.523571         24.231417
 Vib (Bot)       0.124478D-07         -7.904907        -18.201720
 Vib (V=0)       0.103637D+01          0.015515          0.035725
 Electronic      0.100000D+01          0.000000          0.000000
 Translational   0.582088D+08          7.764989         17.879547
 Rotational      0.553436D+03          2.743067          6.316145
 ***** Axes restored to original set *****
 -------------------------------------------------------------------
 Center     Atomic                   Forces (Hartrees/Bohr)
 Number     Number              X              Y              Z
 -------------------------------------------------------------------
      1       53          -0.000000000   -0.000000000    0.000070044
      2        1           0.000000000    0.000000000    0.000026592
      3        1          -0.000020679   -0.000000000   -0.000048318
      4        1           0.000020679    0.000000000   -0.000048318
 -------------------------------------------------------------------
 Cartesian Forces:  Max     0.000070044 RMS     0.000030466

 GradGradGradGradGradGradGradGradGradGradGradGradGradGradGradGradGradGrad
 Berny optimization.
 Internal  Forces:  Max     0.000106512 RMS     0.000049110
 Search for a local minimum.
 Step number   1 out of a maximum of    2
 All quantities printed in internal units (Hartrees-Bohrs-Radians)
 Second derivative matrix not updated -- analytic derivatives used.
 The second derivative matrix:
                          R1        R2        R3        A1        A2
           R1           0.14402
           R2           0.00891   0.06520
           R3           0.00891   0.00647   0.06520
           A1           0.00464  -0.00043  -0.00379   0.12428
           A2           0.00464  -0.00379  -0.00043  -0.07455   0.12428
           A3           0.00929  -0.00423  -0.00423   0.04972   0.04972
           A4          -0.00000  -0.00000   0.00000   0.00000  -0.00000
           D1          -0.00000  -0.00000   0.00000   0.00000  -0.00000
                          A3        A4        D1
           A3           0.09945
           A4          -0.00000   0.05163
           D1          -0.00000   0.04384   0.03723
 ITU=  0
     Eigenvalues ---    0.05865   0.06849   0.08886   0.13805   0.15831
     Eigenvalues ---    0.19891
 Angle between quadratic step and forces=  13.59 degrees.
 Linear search not attempted -- first point.
 Iteration  1 RMS(Cart)=  0.00048498 RMS(Int)=  0.00000011
 Iteration  2 RMS(Cart)=  0.00000012 RMS(Int)=  0.00000000
 ClnCor:  largest displacement from symmetrization is 3.18D-10 for atom     1.
 Variable       Old X    -DE/DX   Delta X   Delta X   Delta X     New X
                                 (Linear)    (Quad)   (Total)
    R1        3.14998   0.00003   0.00000   0.00016   0.00016   3.15015
    R2        3.59304  -0.00003   0.00000  -0.00035  -0.00035   3.59269
    R3        3.59304  -0.00003   0.00000  -0.00035  -0.00035   3.59269
    A1        1.41291   0.00005   0.00000   0.00034   0.00034   1.41326
    A2        1.41291   0.00005   0.00000   0.00034   0.00034   1.41326
    A3        2.82583   0.00011   0.00000   0.00068   0.00068   2.82651
    A4        3.14159  -0.00000   0.00000  -0.00000   0.00000   3.14159
    D1        0.00000  -0.00000   0.00000  -0.00000   0.00000   0.00000
         Item               Value     Threshold  Converged?
 Maximum Force            0.000107     0.000450     YES
 RMS     Force            0.000049     0.000300     YES
 Maximum Displacement     0.000756     0.001800     YES
 RMS     Displacement     0.000485     0.001200     YES
 Predicted change in Energy=-6.662151D-08
 Optimization completed.
    -- Stationary point found.
                           ----------------------------
                           !   Optimized Parameters   !
                           ! (Angstroms and Degrees)  !
 --------------------------                            --------------------------
 ! Name  Definition              Value          Derivative Info.                !
 --------------------------------------------------------------------------------
 ! R1    R(1,2)                  1.6669         -DE/DX =    0.0                 !
 ! R2    R(1,3)                  1.9014         -DE/DX =    0.0                 !
 ! R3    R(1,4)                  1.9014         -DE/DX =    0.0                 !
 ! A1    A(2,1,3)               80.954          -DE/DX =    0.0001              !
 ! A2    A(2,1,4)               80.954          -DE/DX =    0.0001              !
 ! A3    L(3,1,4,2,-1)         161.908          -DE/DX =    0.0001              !
 ! A4    L(3,1,4,2,-2)         180.0            -DE/DX =    0.0                 !
 ! D1    D(1,2,4,3)              0.0            -DE/DX =    0.0                 !
 --------------------------------------------------------------------------------
 GradGradGradGradGradGradGradGradGradGradGradGradGradGradGradGradGradGrad

 1\1\GINC-SRU01\Freq\RMP2-FC\3-21G\H3I1\JAMES\18-Jun-2023\0\\#N Geom=Al
 lCheck Guess=TCheck SCRF=Check GenChk RMP2(FC)/3-21G Freq\\Title Card 
 Required\\0,1\I,0.,0.,-0.1878045335\H,0.,0.,1.4790953229\H,1.877708271
 3,0.,0.1111403253\H,-1.8777082713,0.,0.1111403253\\Version=AM64L-G09Re
 vC.01\State=1-A1\HF=-6889.3367277\MP2=-6889.4061518\RMSD=2.809e-10\RMS
 F=3.047e-05\ZeroPoint=0.0172195\Thermal=0.020207\Dipole=0.,0.,0.048067
 3\DipoleDeriv=1.8998292,0.,0.,0.,0.3894979,0.,0.,0.,0.8126717,-0.17869
 82,0.,0.,0.,0.1037128,0.,0.,0.,-0.1581416,-0.8605655,0.,0.0678689,0.,-
 0.2466054,0.,-0.2230994,0.,-0.3272651,-0.8605655,0.,-0.0678689,0.,-0.2
 466054,0.,0.2230994,0.,-0.3272651\Polar=62.2789469,0.,8.6581233,0.,0.,
 22.5863539\PG=C02V [C2(H1I1),SGV(H2)]\NImag=0\\0.14071559,0.,0.0327745
 6,0.,0.,0.20766724,-0.03243718,0.,0.,0.04006834,0.,0.00713527,0.,0.,0.
 00154901,0.,0.,-0.13916318,0.,0.,0.14401697,-0.05413921,0.,-0.01850137
 ,-0.00381558,0.,0.00941307,0.06380740,0.,-0.01995491,0.,0.,-0.00434214
 ,0.,0.,0.01215144,-0.02300723,0.,-0.03425202,0.01718123,0.,-0.00242689
 ,0.00745715,0.,0.02643230,-0.05413921,0.,0.01850137,-0.00381558,0.,-0.
 00941307,-0.00585261,0.,-0.00163115,0.06380740,0.,-0.01995491,0.,0.,-0
 .00434214,0.,0.,0.01214561,0.,0.,0.01215144,0.02300723,0.,-0.03425202,
 -0.01718123,0.,-0.00242689,0.00163115,0.,0.01024662,-0.00745715,0.,0.0
 2643230\\0.,0.,-0.00007004,0.,0.,-0.00002659,0.00002068,0.,0.00004832,
 -0.00002068,0.,0.00004832\\\@


 A people that values its privileges above its principles soon loses both.
 -- Dwight D. Eisenhower
 Job cpu time:  0 days  0 hours  0 minutes  8.0 seconds.
 File lengths (MBytes):  RWF=     53 Int=      0 D2E=      0 Chk=      2 Scr=      1
 Normal termination of Gaussian 09 at Sun Jun 18 22:04:35 2023.
