 Entering Gaussian System, Link 0=g09
 Input=/home/james/2-bonds/SCl2/SCl2.gjf
 Output=/home/james/2-bonds/SCl2/SCl2.log
 Initial command:
 /usr/local/g09/l1.exe /scratch/james/Gau-4896.inp -scrdir=/scratch/james/
 Entering Link 1 = /usr/local/g09/l1.exe PID=      4898.
  
 Copyright (c) 1988,1990,1992,1993,1995,1998,2003,2009,2011,
            Gaussian, Inc.  All Rights Reserved.
  
 This is part of the Gaussian(R) 09 program.  It is based on
 the Gaussian(R) 03 system (copyright 2003, Gaussian, Inc.),
 the Gaussian(R) 98 system (copyright 1998, Gaussian, Inc.),
 the Gaussian(R) 94 system (copyright 1995, Gaussian, Inc.),
 the Gaussian 92(TM) system (copyright 1992, Gaussian, Inc.),
 the Gaussian 90(TM) system (copyright 1990, Gaussian, Inc.),
 the Gaussian 88(TM) system (copyright 1988, Gaussian, Inc.),
 the Gaussian 86(TM) system (copyright 1986, Carnegie Mellon
 University), and the Gaussian 82(TM) system (copyright 1983,
 Carnegie Mellon University). Gaussian is a federally registered
 trademark of Gaussian, Inc.
  
 This software contains proprietary and confidential information,
 including trade secrets, belonging to Gaussian, Inc.
  
 This software is provided under written license and may be
 used, copied, transmitted, or stored only in accord with that
 written license.
  
 The following legend is applicable only to US Government
 contracts under FAR:
  
                    RESTRICTED RIGHTS LEGEND
  
 Use, reproduction and disclosure by the US Government is
 subject to restrictions as set forth in subparagraphs (a)
 and (c) of the Commercial Computer Software - Restricted
 Rights clause in FAR 52.227-19.
  
 Gaussian, Inc.
 340 Quinnipiac St., Bldg. 40, Wallingford CT 06492
  
  
 ---------------------------------------------------------------
 Warning -- This program may not be used in any manner that
 competes with the business of Gaussian, Inc. or will provide
 assistance to any competitor of Gaussian, Inc.  The licensee
 of this program is prohibited from giving any competitor of
 Gaussian, Inc. access to this program.  By using this program,
 the user acknowledges that Gaussian, Inc. is engaged in the
 business of creating and licensing software in the field of
 computational chemistry and represents and warrants to the
 licensee that it is not a competitor of Gaussian, Inc. and that
 it will not use this program in any manner prohibited above.
 ---------------------------------------------------------------
  

 Cite this work as:
 Gaussian 09, Revision C.01,
 M. J. Frisch, G. W. Trucks, H. B. Schlegel, G. E. Scuseria, 
 M. A. Robb, J. R. Cheeseman, G. Scalmani, V. Barone, B. Mennucci, 
 G. A. Petersson, H. Nakatsuji, M. Caricato, X. Li, H. P. Hratchian, 
 A. F. Izmaylov, J. Bloino, G. Zheng, J. L. Sonnenberg, M. Hada, 
 M. Ehara, K. Toyota, R. Fukuda, J. Hasegawa, M. Ishida, T. Nakajima, 
 Y. Honda, O. Kitao, H. Nakai, T. Vreven, J. A. Montgomery, Jr., 
 J. E. Peralta, F. Ogliaro, M. Bearpark, J. J. Heyd, E. Brothers, 
 K. N. Kudin, V. N. Staroverov, T. Keith, R. Kobayashi, J. Normand, 
 K. Raghavachari, A. Rendell, J. C. Burant, S. S. Iyengar, J. Tomasi, 
 M. Cossi, N. Rega, J. M. Millam, M. Klene, J. E. Knox, J. B. Cross, 
 V. Bakken, C. Adamo, J. Jaramillo, R. Gomperts, R. E. Stratmann, 
 O. Yazyev, A. J. Austin, R. Cammi, C. Pomelli, J. W. Ochterski, 
 R. L. Martin, K. Morokuma, V. G. Zakrzewski, G. A. Voth, 
 P. Salvador, J. J. Dannenberg, S. Dapprich, A. D. Daniels, 
 O. Farkas, J. B. Foresman, J. V. Ortiz, J. Cioslowski, 
 and D. J. Fox, Gaussian, Inc., Wallingford CT, 2010.
 
 ******************************************
 Gaussian 09:  AM64L-G09RevC.01 23-Sep-2011
                27-Aug-2023 
 ******************************************
 %chk=SCl2.chk
 ----------------------------------------------
 # opt freq=hpmodes mp2/3-21g geom=connectivity
 ----------------------------------------------
 1/18=20,19=15,38=1,57=2/1,3;
 2/9=110,12=2,17=6,18=5,40=1/2;
 3/5=5,11=9,16=1,25=1,30=1,71=1/1,2,3;
 4//1;
 5/5=2,38=5/2;
 8/6=4,10=1/1;
 9/15=2,16=-3/6;
 10/5=1/2;
 6/7=2,8=2,9=2,10=2/1;
 7/12=2/1,2,3,16;
 1/18=20,19=15/3(2);
 2/9=110/2;
 99//99;
 2/9=110/2;
 3/5=5,11=9,16=1,25=1,30=1,71=1/1,2,3;
 4/5=5,16=3/1;
 5/5=2,38=5/2;
 8/6=4,10=1/1;
 9/15=2,16=-3/6;
 10/5=1/2;
 7/12=2/1,2,3,16;
 1/18=20,19=15/3(-8);
 2/9=110/2;
 6/7=2,8=2,9=2,10=2/1;
 99//99;
 -------------------
 Title Card Required
 -------------------
 Charge =  0 Multiplicity = 1
 Symbolic Z-Matrix:
 S                     0.        0.       -0.7852 
 Cl                    0.        1.63299   0.3695 
 Cl                    0.       -1.63299   0.3695 
 

 GradGradGradGradGradGradGradGradGradGradGradGradGradGradGradGradGradGrad
 Berny optimization.
 Initialization pass.
                           ----------------------------
                           !    Initial Parameters    !
                           ! (Angstroms and Degrees)  !
 --------------------------                            --------------------------
 ! Name  Definition              Value          Derivative Info.                !
 --------------------------------------------------------------------------------
 ! R1    R(1,2)                  2.0            estimate D2E/DX2                !
 ! R2    R(1,3)                  2.0            estimate D2E/DX2                !
 ! A1    A(2,1,3)              109.4712         estimate D2E/DX2                !
 --------------------------------------------------------------------------------
 Trust Radius=3.00D-01 FncErr=1.00D-07 GrdErr=1.00D-07
 Number of steps in this run=     20 maximum allowed number of steps=    100.
 GradGradGradGradGradGradGradGradGradGradGradGradGradGradGradGradGradGrad

                          Input orientation:                          
 ---------------------------------------------------------------------
 Center     Atomic      Atomic             Coordinates (Angstroms)
 Number     Number       Type             X           Y           Z
 ---------------------------------------------------------------------
      1         16           0        0.000000    0.000000   -0.785196
      2         17           0        0.000000    1.632993    0.369504
      3         17           0        0.000000   -1.632993    0.369504
 ---------------------------------------------------------------------
                    Distance matrix (angstroms):
                    1          2          3
     1  S    0.000000
     2  Cl   2.000000   0.000000
     3  Cl   2.000000   3.265986   0.000000
 Stoichiometry    Cl2S
 Framework group  C2V[C2(S),SGV(Cl2)]
 Deg. of freedom     2
 Full point group                 C2V     NOp   4
 Largest Abelian subgroup         C2V     NOp   4
 Largest concise Abelian subgroup C2      NOp   2
                         Standard orientation:                         
 ---------------------------------------------------------------------
 Center     Atomic      Atomic             Coordinates (Angstroms)
 Number     Number       Type             X           Y           Z
 ---------------------------------------------------------------------
      1         16           0       -0.000000    0.000000    0.785196
      2         17           0        0.000000    1.632993   -0.369504
      3         17           0       -0.000000   -1.632993   -0.369504
 ---------------------------------------------------------------------
 Rotational constants (GHZ):     17.2747651      2.7097990      2.3423649
 Standard basis: 3-21G (6D, 7F)
 There are    17 symmetry adapted basis functions of A1  symmetry.
 There are     3 symmetry adapted basis functions of A2  symmetry.
 There are     6 symmetry adapted basis functions of B1  symmetry.
 There are    13 symmetry adapted basis functions of B2  symmetry.
 Integral buffers will be    131072 words long.
 Raffenetti 1 integral format.
 Two-electron integral symmetry is turned on.
    39 basis functions,    81 primitive gaussians,    39 cartesian basis functions
    25 alpha electrons       25 beta electrons
       nuclear repulsion energy       190.7619368035 Hartrees.
 NAtoms=    3 NActive=    3 NUniq=    2 SFac= 2.25D+00 NAtFMM=   60 NAOKFM=F Big=F
 One-electron integrals computed using PRISM.
 NBasis=    39 RedAO= T  NBF=    17     3     6    13
 NBsUse=    39 1.00D-06 NBFU=    17     3     6    13
 Harris functional with IExCor=  205 diagonalized for initial guess.
 ExpMin= 1.42D-01 ExpMax= 1.38D+03 ExpMxC= 1.38D+03 IAcc=1 IRadAn=         1 AccDes= 0.00D+00
 HarFok:  IExCor=  205 AccDes= 0.00D+00 IRadAn=         1 IDoV= 1
 ScaDFX=  1.000000  1.000000  1.000000  1.000000
 FoFCou: FMM=F IPFlag=           0 FMFlag=      100000 FMFlg1=           0
         NFxFlg=           0 DoJE=T BraDBF=F KetDBF=T FulRan=T
         Omega=  0.000000  0.000000  1.000000  0.000000  0.000000 ICntrl=     500 IOpCl=  0
         NMat0=    1 NMatS0=    1 NMatT0=    0 NMatD0=    1 NMtDS0=    0 NMtDT0=    0
         I1Cent=           4 NGrid=           0.
 Petite list used in FoFCou.
 Initial guess orbital symmetries:
       Occupied  (B2) (A1) (A1) (B2) (A1) (A1) (B2) (A1) (B2) (A2)
                 (B1) (A1) (B2) (A1) (B1) (A1) (B2) (A1) (B2) (A1)
                 (B1) (A2) (B2) (A1) (B1)
       Virtual   (A1) (B2) (A1) (B2) (A1) (B1) (A1) (B2) (A2) (B1)
                 (A1) (B2) (A1) (B2)
 The electronic state of the initial guess is 1-A1.
 Requested convergence on RMS density matrix=1.00D-08 within 128 cycles.
 Requested convergence on MAX density matrix=1.00D-06.
 Requested convergence on             energy=1.00D-06.
 No special actions if energy rises.
 Keep R1 ints in memory in canonical form, NReq=1127913.
 SCF Done:  E(RHF) =  -1310.07099535     A.U. after   11 cycles
             Convg  =    0.6631D-08             -V/T =  2.0001
 ExpMin= 1.42D-01 ExpMax= 1.38D+03 ExpMxC= 1.38D+03 IAcc=3 IRadAn=         5 AccDes= 0.00D+00
 HarFok:  IExCor=  205 AccDes= 0.00D+00 IRadAn=         5 IDoV=-2
 ScaDFX=  1.000000  1.000000  1.000000  1.000000
 Range of M.O.s used for correlation:    16    39
 NBasis=    39 NAE=    25 NBE=    25 NFC=    15 NFV=     0
 NROrb=     24 NOA=    10 NOB=    10 NVA=    14 NVB=    14
 Fully direct method using O(ONN) memory.
 JobTyp=1 Pass  1:  I=  16 to  25 NPSUse=  1 ParTrn=F ParDer=F DoDerP=T.
 Spin components of T(2) and E(2):
     alpha-alpha T2 =       0.7861505529D-02 E2=     -0.1708610847D-01
     alpha-beta  T2 =       0.5640797684D-01 E2=     -0.1148007736D+00
     beta-beta   T2 =       0.7861505529D-02 E2=     -0.1708610847D-01
 ANorm=    0.1035437583D+01
 E2 =    -0.1489729905D+00 EUMP2 =    -0.13102199683420D+04
          IDoAtm=111
          Differentiating once with respect to electric field.
                with respect to dipole field.
          Differentiating once with respect to nuclear coordinates.
          Keep R1 ints in memory in canonical form, NReq=1105282.
          There are     1 degrees of freedom in the 1st order CPHF.  IDoFFX=0.
 LinEq1:  Iter=  0 NonCon=     1 RMS=6.74D-03 Max=5.59D-02
 AX will form     1 AO Fock derivatives at one time.
 LinEq1:  Iter=  1 NonCon=     1 RMS=1.97D-03 Max=2.31D-02
 LinEq1:  Iter=  2 NonCon=     1 RMS=4.90D-04 Max=3.86D-03
 LinEq1:  Iter=  3 NonCon=     1 RMS=5.83D-05 Max=4.18D-04
 LinEq1:  Iter=  4 NonCon=     1 RMS=7.33D-06 Max=5.14D-05
 LinEq1:  Iter=  5 NonCon=     1 RMS=1.88D-06 Max=1.62D-05
 LinEq1:  Iter=  6 NonCon=     1 RMS=3.37D-07 Max=2.80D-06
 LinEq1:  Iter=  7 NonCon=     1 RMS=5.68D-08 Max=5.27D-07
 LinEq1:  Iter=  8 NonCon=     1 RMS=5.66D-09 Max=3.69D-08
 LinEq1:  Iter=  9 NonCon=     1 RMS=7.58D-10 Max=7.55D-09
 LinEq1:  Iter= 10 NonCon=     0 RMS=6.48D-11 Max=3.92D-10
 Linear equations converged to 1.000D-10 1.000D-09 after    10 iterations.
 End of Minotr Frequency-dependent properties file   721 does not exist.
 End of Minotr Frequency-dependent properties file   722 does not exist.

 **********************************************************************

            Population analysis using the SCF density.

 **********************************************************************

 Orbital symmetries:
       Occupied  (B2) (A1) (A1) (B2) (A1) (A1) (B2) (A1) (B2) (A1)
                 (A2) (B1) (B2) (A1) (B1) (A1) (B2) (A1) (B2) (B1)
                 (A1) (A2) (B2) (A1) (B1)
       Virtual   (A1) (B2) (A1) (B2) (B1) (A1) (A1) (B2) (A2) (B1)
                 (A1) (A1) (B2) (B2)
 The electronic state is 1-A1.
 Alpha  occ. eigenvalues -- -104.15685-104.15666 -91.43221 -10.55538 -10.55475
 Alpha  occ. eigenvalues --   -9.03625  -8.01900  -8.01878  -8.01329  -8.01305
 Alpha  occ. eigenvalues --   -8.01268  -8.01265  -6.71046  -6.70641  -6.70197
 Alpha  occ. eigenvalues --   -1.24559  -1.15390  -0.91643  -0.61489  -0.59121
 Alpha  occ. eigenvalues --   -0.58692  -0.51956  -0.49818  -0.47466  -0.40096
 Alpha virt. eigenvalues --    0.01631   0.07135   0.57234   0.65152   0.65558
 Alpha virt. eigenvalues --    0.65937   0.71961   0.72243   0.77971   0.79068
 Alpha virt. eigenvalues --    0.79796   0.82035   0.83529   0.95467
          Condensed to atoms (all electrons):
              1          2          3
     1  S   15.856935  -0.056678  -0.056678
     2  Cl  -0.056678  17.233865  -0.048977
     3  Cl  -0.056678  -0.048977  17.233865
 Mulliken atomic charges:
              1
     1  S    0.256420
     2  Cl  -0.128210
     3  Cl  -0.128210
 Sum of Mulliken atomic charges =  -0.00000
 Mulliken charges with hydrogens summed into heavy atoms:
              1
     1  S    0.256420
     2  Cl  -0.128210
     3  Cl  -0.128210
 Sum of Mulliken charges with hydrogens summed into heavy atoms =  -0.00000
 Electronic spatial extent (au):  <R**2>=            464.9552
 Charge=              0.0000 electrons
 Dipole moment (field-independent basis, Debye):
    X=              0.0000    Y=              0.0000    Z=              0.6415  Tot=              0.6415
 Quadrupole moment (field-independent basis, Debye-Ang):
   XX=            -40.1353   YY=            -41.0229   ZZ=            -39.0534
   XY=             -0.0000   XZ=             -0.0000   YZ=              0.0000
 Traceless Quadrupole moment (field-independent basis, Debye-Ang):
   XX=             -0.0647   YY=             -0.9524   ZZ=              1.0171
   XY=             -0.0000   XZ=             -0.0000   YZ=              0.0000
 Octapole moment (field-independent basis, Debye-Ang**2):
  XXX=              0.0000  YYY=              0.0000  ZZZ=             -1.5986  XYY=              0.0000
  XXY=             -0.0000  XXZ=             -1.5269  XZZ=              0.0000  YZZ=              0.0000
  YYZ=              0.1518  XYZ=              0.0000
 Hexadecapole moment (field-independent basis, Debye-Ang**3):
 XXXX=            -47.3207 YYYY=           -448.9201 ZZZZ=           -111.9722 XXXY=             -0.0000
 XXXZ=             -0.0000 YYYX=             -0.0000 YYYZ=             -0.0000 ZZZX=             -0.0000
 ZZZY=              0.0000 XXYY=            -85.5594 XXZZ=            -28.2049 YYZZ=            -89.6189
 XXYZ=              0.0000 YYXZ=             -0.0000 ZZXY=             -0.0000
 N-N= 1.907619368035D+02 E-N=-3.501433761473D+03  KE= 1.309973237900D+03
 Symmetry A1   KE= 7.320166225346D+02
 Symmetry A2   KE= 4.541896081247D+01
 Symmetry B1   KE= 8.415822704625D+01
 Symmetry B2   KE= 4.483794275063D+02
 Calling FoFJK, ICntrl=      2127 FMM=F ISym2X=1 I1Cent= 0 IOpClX= 0 NMat=1 NMatS=1 NMatT=0.
 ***** Axes restored to original set *****
 -------------------------------------------------------------------
 Center     Atomic                   Forces (Hartrees/Bohr)
 Number     Number              X              Y              Z
 -------------------------------------------------------------------
      1       16           0.000000000    0.000000000   -0.130459556
      2       17          -0.000000000    0.084962875    0.065229778
      3       17          -0.000000000   -0.084962875    0.065229778
 -------------------------------------------------------------------
 Cartesian Forces:  Max     0.130459556 RMS     0.066639098

 GradGradGradGradGradGradGradGradGradGradGradGradGradGradGradGradGradGrad
 Berny optimization.
 Internal  Forces:  Max     0.107032327 RMS     0.087872254
 Search for a local minimum.
 Step number   1 out of a maximum of   20
 All quantities printed in internal units (Hartrees-Bohrs-Radians)
 Mixed Optimization -- RFO/linear search
 Second derivative matrix not updated -- first step.
 The second derivative matrix:
                          R1        R2        A1
           R1           0.34590
           R2           0.00000   0.34590
           A1           0.00000   0.00000   0.25000
 ITU=  0
     Eigenvalues ---    0.25000   0.34590   0.34590
 RFO step:  Lambda=-5.76034999D-02 EMin= 2.50000000D-01
 Linear search not attempted -- first point.
 Maximum step size (   0.300) exceeded in Quadratic search.
    -- Step size scaled by   0.792
 Iteration  1 RMS(Cart)=  0.12800274 RMS(Int)=  0.00821045
 Iteration  2 RMS(Cart)=  0.00626529 RMS(Int)=  0.00000336
 Iteration  3 RMS(Cart)=  0.00000729 RMS(Int)=  0.00000000
 Iteration  4 RMS(Cart)=  0.00000000 RMS(Int)=  0.00000000
 ClnCor:  largest displacement from symmetrization is 6.66D-15 for atom     3.
 Variable       Old X    -DE/DX   Delta X   Delta X   Delta X     New X
                                 (Linear)    (Quad)   (Total)
    R1        3.77945   0.10703   0.00000   0.21015   0.21015   3.98960
    R2        3.77945   0.10703   0.00000   0.21015   0.21015   3.98960
    A1        1.91063  -0.01590   0.00000  -0.04095  -0.04095   1.86969
         Item               Value     Threshold  Converged?
 Maximum Force            0.107032     0.000450     NO 
 RMS     Force            0.087872     0.000300     NO 
 Maximum Displacement     0.125022     0.001800     NO 
 RMS     Displacement     0.134254     0.001200     NO 
 Predicted change in Energy=-3.015074D-02
 GradGradGradGradGradGradGradGradGradGradGradGradGradGradGradGradGradGrad

                          Input orientation:                          
 ---------------------------------------------------------------------
 Center     Atomic      Atomic             Coordinates (Angstroms)
 Number     Number       Type             X           Y           Z
 ---------------------------------------------------------------------
      1         16           0       -0.000000   -0.000000   -0.851355
      2         17           0       -0.000000    1.698477    0.402584
      3         17           0        0.000000   -1.698477    0.402584
 ---------------------------------------------------------------------
                    Distance matrix (angstroms):
                    1          2          3
     1  S    0.000000
     2  Cl   2.111205   0.000000
     3  Cl   2.111205   3.396954   0.000000
 Stoichiometry    Cl2S
 Framework group  C2V[C2(S),SGV(Cl2)]
 Deg. of freedom     2
 Full point group                 C2V     NOp   4
 Largest Abelian subgroup         C2V     NOp   4
 Largest concise Abelian subgroup C2      NOp   2
                         Standard orientation:                         
 ---------------------------------------------------------------------
 Center     Atomic      Atomic             Coordinates (Angstroms)
 Number     Number       Type             X           Y           Z
 ---------------------------------------------------------------------
      1         16           0       -0.000000    0.000000    0.852678
      2         17           0       -0.000000    1.698477   -0.401260
      3         17           0       -0.000000   -1.698477   -0.401260
 ---------------------------------------------------------------------
 Rotational constants (GHZ):     14.6486687      2.5048781      2.1390987
 Standard basis: 3-21G (6D, 7F)
 There are    17 symmetry adapted basis functions of A1  symmetry.
 There are     3 symmetry adapted basis functions of A2  symmetry.
 There are     6 symmetry adapted basis functions of B1  symmetry.
 There are    13 symmetry adapted basis functions of B2  symmetry.
 Integral buffers will be    131072 words long.
 Raffenetti 1 integral format.
 Two-electron integral symmetry is turned on.
    39 basis functions,    81 primitive gaussians,    39 cartesian basis functions
    25 alpha electrons       25 beta electrons
       nuclear repulsion energy       181.3749558184 Hartrees.
 NAtoms=    3 NActive=    3 NUniq=    2 SFac= 2.25D+00 NAtFMM=   60 NAOKFM=F Big=F
 One-electron integrals computed using PRISM.
 NBasis=    39 RedAO= T  NBF=    17     3     6    13
 NBsUse=    39 1.00D-06 NBFU=    17     3     6    13
 Initial guess read from the read-write file.
 B after Tr=     0.000000    0.000000    0.000000
         Rot=    1.000000    0.000000    0.000000    0.000000 Ang=   0.00 deg.
 Initial guess orbital symmetries:
       Occupied  (B2) (A1) (A1) (B2) (A1) (A1) (B2) (A1) (B2) (A1)
                 (A2) (B1) (B2) (A1) (B1) (A1) (B2) (A1) (B2) (B1)
                 (A1) (A2) (B2) (A1) (B1)
       Virtual   (A1) (B2) (A1) (B2) (B1) (A1) (A1) (B2) (A2) (B1)
                 (A1) (A1) (B2) (B2)
 Harris functional with IExCor=  205 diagonalized for initial guess.
 ExpMin= 1.42D-01 ExpMax= 1.38D+03 ExpMxC= 1.38D+03 IAcc=1 IRadAn=         1 AccDes= 0.00D+00
 HarFok:  IExCor=  205 AccDes= 0.00D+00 IRadAn=         1 IDoV= 1
 ScaDFX=  1.000000  1.000000  1.000000  1.000000
 FoFCou: FMM=F IPFlag=           0 FMFlag=      100000 FMFlg1=           0
         NFxFlg=           0 DoJE=T BraDBF=F KetDBF=T FulRan=T
         Omega=  0.000000  0.000000  1.000000  0.000000  0.000000 ICntrl=     500 IOpCl=  0
         NMat0=    1 NMatS0=    1 NMatT0=    0 NMatD0=    1 NMtDS0=    0 NMtDT0=    0
         I1Cent=           4 NGrid=           0.
 Petite list used in FoFCou.
 Requested convergence on RMS density matrix=1.00D-08 within 128 cycles.
 Requested convergence on MAX density matrix=1.00D-06.
 Requested convergence on             energy=1.00D-06.
 No special actions if energy rises.
 Keep R1 ints in memory in canonical form, NReq=1127913.
 SCF Done:  E(RHF) =  -1310.09803167     A.U. after   12 cycles
             Convg  =    0.5713D-08             -V/T =  2.0005
 ExpMin= 1.42D-01 ExpMax= 1.38D+03 ExpMxC= 1.38D+03 IAcc=3 IRadAn=         5 AccDes= 0.00D+00
 HarFok:  IExCor=  205 AccDes= 0.00D+00 IRadAn=         5 IDoV=-2
 ScaDFX=  1.000000  1.000000  1.000000  1.000000
 Range of M.O.s used for correlation:    16    39
 NBasis=    39 NAE=    25 NBE=    25 NFC=    15 NFV=     0
 NROrb=     24 NOA=    10 NOB=    10 NVA=    14 NVB=    14
 Fully direct method using O(ONN) memory.
 JobTyp=1 Pass  1:  I=  16 to  25 NPSUse=  1 ParTrn=F ParDer=F DoDerP=T.
 Spin components of T(2) and E(2):
     alpha-alpha T2 =       0.8422628967D-02 E2=     -0.1759812252D-01
     alpha-beta  T2 =       0.6334172668D-01 E2=     -0.1200207764D+00
     beta-beta   T2 =       0.8422628967D-02 E2=     -0.1759812252D-01
 ANorm=    0.1039320444D+01
 E2 =    -0.1552170214D+00 EUMP2 =    -0.13102532486920D+04
          IDoAtm=111
          Differentiating once with respect to electric field.
                with respect to dipole field.
          Differentiating once with respect to nuclear coordinates.
          Keep R1 ints in memory in canonical form, NReq=1105282.
          There are     1 degrees of freedom in the 1st order CPHF.  IDoFFX=0.
 LinEq1:  Iter=  0 NonCon=     1 RMS=7.60D-03 Max=6.60D-02
 AX will form     1 AO Fock derivatives at one time.
 LinEq1:  Iter=  1 NonCon=     1 RMS=2.45D-03 Max=2.89D-02
 LinEq1:  Iter=  2 NonCon=     1 RMS=6.11D-04 Max=4.53D-03
 LinEq1:  Iter=  3 NonCon=     1 RMS=7.77D-05 Max=6.57D-04
 LinEq1:  Iter=  4 NonCon=     1 RMS=9.37D-06 Max=6.35D-05
 LinEq1:  Iter=  5 NonCon=     1 RMS=1.79D-06 Max=1.23D-05
 LinEq1:  Iter=  6 NonCon=     1 RMS=2.69D-07 Max=1.74D-06
 LinEq1:  Iter=  7 NonCon=     1 RMS=4.40D-08 Max=3.33D-07
 LinEq1:  Iter=  8 NonCon=     1 RMS=4.29D-09 Max=2.60D-08
 LinEq1:  Iter=  9 NonCon=     1 RMS=6.10D-10 Max=6.19D-09
 LinEq1:  Iter= 10 NonCon=     1 RMS=1.00D-10 Max=7.06D-10
 LinEq1:  Iter= 11 NonCon=     0 RMS=1.01D-11 Max=5.48D-11
 Linear equations converged to 1.000D-10 1.000D-09 after    11 iterations.
 End of Minotr Frequency-dependent properties file   721 does not exist.
 End of Minotr Frequency-dependent properties file   722 does not exist.
 Calling FoFJK, ICntrl=      2127 FMM=F ISym2X=1 I1Cent= 0 IOpClX= 0 NMat=1 NMatS=1 NMatT=0.
 ***** Axes restored to original set *****
 -------------------------------------------------------------------
 Center     Atomic                   Forces (Hartrees/Bohr)
 Number     Number              X              Y              Z
 -------------------------------------------------------------------
      1       16           0.000000000    0.000000000   -0.066851140
      2       17          -0.000000000    0.039991547    0.033425570
      3       17          -0.000000000   -0.039991547    0.033425570
 -------------------------------------------------------------------
 Cartesian Forces:  Max     0.066851140 RMS     0.033170033

 GradGradGradGradGradGradGradGradGradGradGradGradGradGradGradGradGradGrad
 Berny optimization.
 Using GEDIIS/GDIIS optimizer.
 Internal  Forces:  Max     0.052026374 RMS     0.043090029
 Search for a local minimum.
 Step number   2 out of a maximum of   20
 All quantities printed in internal units (Hartrees-Bohrs-Radians)
 Mixed Optimization -- RFO/linear search
 Update second derivatives using D2CorX and points    1    2
 DE= -3.33D-02 DEPred=-3.02D-02 R= 1.10D+00
 SS=  1.41D+00  RLast= 3.00D-01 DXNew= 5.0454D-01 9.0000D-01
 Trust test= 1.10D+00 RLast= 3.00D-01 DXMaxT set to 5.05D-01
 The second derivative matrix:
                          R1        R2        A1
           R1           0.30539
           R2          -0.04051   0.30539
           A1           0.01604   0.01604   0.24711
 ITU=  1  0
 Use linear search instead of GDIIS.
 Linear search step of   0.514 exceeds DXMaxT=   0.505 but not scaled.
 Quartic linear search produced a step of  1.71325.
 Iteration  1 RMS(Cart)=  0.12516047 RMS(Int)=  0.13017191
 Iteration  2 RMS(Cart)=  0.10980182 RMS(Int)=  0.00008270
 Iteration  3 RMS(Cart)=  0.00019609 RMS(Int)=  0.00000001
 Iteration  4 RMS(Cart)=  0.00000001 RMS(Int)=  0.00000000
 ClnCor:  largest displacement from symmetrization is 8.95D-16 for atom     3.
 Variable       Old X    -DE/DX   Delta X   Delta X   Delta X     New X
                                 (Linear)    (Quad)   (Total)
    R1        3.98960   0.05203   0.36003   0.00000   0.36003   4.34963
    R2        3.98960   0.05203   0.36003   0.00000   0.36003   4.34963
    A1        1.86969  -0.01252  -0.07015   0.00000  -0.07015   1.79953
         Item               Value     Threshold  Converged?
 Maximum Force            0.052026     0.000450     NO 
 RMS     Force            0.043090     0.000300     NO 
 Maximum Displacement     0.223312     0.001800     NO 
 RMS     Displacement     0.225344     0.001200     NO 
 Predicted change in Energy=-4.208678D-03
 GradGradGradGradGradGradGradGradGradGradGradGradGradGradGradGradGradGrad

                          Input orientation:                          
 ---------------------------------------------------------------------
 Center     Atomic      Atomic             Coordinates (Angstroms)
 Number     Number       Type             X           Y           Z
 ---------------------------------------------------------------------
      1         16           0       -0.000000   -0.000000   -0.969527
      2         17           0       -0.000000    1.802671    0.461669
      3         17           0        0.000000   -1.802671    0.461669
 ---------------------------------------------------------------------
                    Distance matrix (angstroms):
                    1          2          3
     1  S    0.000000
     2  Cl   2.301727   0.000000
     3  Cl   2.301727   3.605341   0.000000
 Stoichiometry    Cl2S
 Framework group  C2V[C2(S),SGV(Cl2)]
 Deg. of freedom     2
 Full point group                 C2V     NOp   4
 Largest Abelian subgroup         C2V     NOp   4
 Largest concise Abelian subgroup C2      NOp   2
                         Standard orientation:                         
 ---------------------------------------------------------------------
 Center     Atomic      Atomic             Coordinates (Angstroms)
 Number     Number       Type             X           Y           Z
 ---------------------------------------------------------------------
      1         16           0        0.000000    0.000000    0.973214
      2         17           0       -0.000000    1.802671   -0.457983
      3         17           0       -0.000000   -1.802671   -0.457983
 ---------------------------------------------------------------------
 Rotational constants (GHZ):     11.2448168      2.2236837      1.8565478
 Standard basis: 3-21G (6D, 7F)
 There are    17 symmetry adapted basis functions of A1  symmetry.
 There are     3 symmetry adapted basis functions of A2  symmetry.
 There are     6 symmetry adapted basis functions of B1  symmetry.
 There are    13 symmetry adapted basis functions of B2  symmetry.
 Integral buffers will be    131072 words long.
 Raffenetti 1 integral format.
 Two-electron integral symmetry is turned on.
    39 basis functions,    81 primitive gaussians,    39 cartesian basis functions
    25 alpha electrons       25 beta electrons
       nuclear repulsion energy       167.4862623295 Hartrees.
 NAtoms=    3 NActive=    3 NUniq=    2 SFac= 2.25D+00 NAtFMM=   60 NAOKFM=F Big=F
 One-electron integrals computed using PRISM.
 NBasis=    39 RedAO= T  NBF=    17     3     6    13
 NBsUse=    39 1.00D-06 NBFU=    17     3     6    13
 Initial guess read from the read-write file.
 B after Tr=     0.000000    0.000000    0.000000
         Rot=    1.000000    0.000000    0.000000    0.000000 Ang=   0.00 deg.
 Initial guess orbital symmetries:
       Occupied  (B2) (A1) (A1) (B2) (A1) (A1) (B2) (A1) (B2) (A1)
                 (A2) (B1) (B2) (A1) (B1) (A1) (B2) (A1) (B2) (B1)
                 (A1) (A2) (B2) (A1) (B1)
       Virtual   (A1) (B2) (A1) (B2) (B1) (A1) (B2) (A1) (A2) (B1)
                 (A1) (B2) (A1) (B2)
 Harris functional with IExCor=  205 diagonalized for initial guess.
 ExpMin= 1.42D-01 ExpMax= 1.38D+03 ExpMxC= 1.38D+03 IAcc=1 IRadAn=         1 AccDes= 0.00D+00
 HarFok:  IExCor=  205 AccDes= 0.00D+00 IRadAn=         1 IDoV= 1
 ScaDFX=  1.000000  1.000000  1.000000  1.000000
 FoFCou: FMM=F IPFlag=           0 FMFlag=      100000 FMFlg1=           0
         NFxFlg=           0 DoJE=T BraDBF=F KetDBF=T FulRan=T
         Omega=  0.000000  0.000000  1.000000  0.000000  0.000000 ICntrl=     500 IOpCl=  0
         NMat0=    1 NMatS0=    1 NMatT0=    0 NMatD0=    1 NMtDS0=    0 NMtDT0=    0
         I1Cent=           4 NGrid=           0.
 Petite list used in FoFCou.
 Requested convergence on RMS density matrix=1.00D-08 within 128 cycles.
 Requested convergence on MAX density matrix=1.00D-06.
 Requested convergence on             energy=1.00D-06.
 No special actions if energy rises.
 Keep R1 ints in memory in canonical form, NReq=1127913.
 SCF Done:  E(RHF) =  -1310.10279742     A.U. after   13 cycles
             Convg  =    0.2200D-08             -V/T =  2.0011
 ExpMin= 1.42D-01 ExpMax= 1.38D+03 ExpMxC= 1.38D+03 IAcc=3 IRadAn=         5 AccDes= 0.00D+00
 HarFok:  IExCor=  205 AccDes= 0.00D+00 IRadAn=         5 IDoV=-2
 ScaDFX=  1.000000  1.000000  1.000000  1.000000
 Range of M.O.s used for correlation:    16    39
 NBasis=    39 NAE=    25 NBE=    25 NFC=    15 NFV=     0
 NROrb=     24 NOA=    10 NOB=    10 NVA=    14 NVB=    14
 Fully direct method using O(ONN) memory.
 JobTyp=1 Pass  1:  I=  16 to  25 NPSUse=  1 ParTrn=F ParDer=F DoDerP=T.
 Spin components of T(2) and E(2):
     alpha-alpha T2 =       0.9332812126D-02 E2=     -0.1834718639D-01
     alpha-beta  T2 =       0.7744397475D-01 E2=     -0.1292284908D+00
     beta-beta   T2 =       0.9332812126D-02 E2=     -0.1834718639D-01
 ANorm=    0.1046952529D+01
 E2 =    -0.1659228636D+00 EUMP2 =    -0.13102687202824D+04
          IDoAtm=111
          Differentiating once with respect to electric field.
                with respect to dipole field.
          Differentiating once with respect to nuclear coordinates.
          Keep R1 ints in memory in canonical form, NReq=1105282.
          There are     1 degrees of freedom in the 1st order CPHF.  IDoFFX=0.
 LinEq1:  Iter=  0 NonCon=     1 RMS=8.92D-03 Max=8.57D-02
 AX will form     1 AO Fock derivatives at one time.
 LinEq1:  Iter=  1 NonCon=     1 RMS=3.36D-03 Max=4.08D-02
 LinEq1:  Iter=  2 NonCon=     1 RMS=8.41D-04 Max=6.23D-03
 LinEq1:  Iter=  3 NonCon=     1 RMS=1.36D-04 Max=1.09D-03
 LinEq1:  Iter=  4 NonCon=     1 RMS=2.76D-05 Max=2.58D-04
 LinEq1:  Iter=  5 NonCon=     1 RMS=5.96D-06 Max=6.13D-05
 LinEq1:  Iter=  6 NonCon=     1 RMS=1.03D-06 Max=8.93D-06
 LinEq1:  Iter=  7 NonCon=     1 RMS=1.91D-07 Max=1.86D-06
 LinEq1:  Iter=  8 NonCon=     1 RMS=3.07D-08 Max=2.12D-07
 LinEq1:  Iter=  9 NonCon=     1 RMS=3.49D-09 Max=2.31D-08
 LinEq1:  Iter= 10 NonCon=     1 RMS=2.56D-10 Max=1.50D-09
 LinEq1:  Iter= 11 NonCon=     0 RMS=2.18D-11 Max=1.43D-10
 Linear equations converged to 1.000D-10 1.000D-09 after    11 iterations.
 End of Minotr Frequency-dependent properties file   721 does not exist.
 End of Minotr Frequency-dependent properties file   722 does not exist.
 Calling FoFJK, ICntrl=      2127 FMM=F ISym2X=1 I1Cent= 0 IOpClX= 0 NMat=1 NMatS=1 NMatT=0.
 ***** Axes restored to original set *****
 -------------------------------------------------------------------
 Center     Atomic                   Forces (Hartrees/Bohr)
 Number     Number              X              Y              Z
 -------------------------------------------------------------------
      1       16           0.000000000   -0.000000000    0.003187347
      2       17          -0.000000000   -0.004563591   -0.001593673
      3       17          -0.000000000    0.004563591   -0.001593673
 -------------------------------------------------------------------
 Cartesian Forces:  Max     0.004563591 RMS     0.002514215

 GradGradGradGradGradGradGradGradGradGradGradGradGradGradGradGradGradGrad
 Berny optimization.
 Using GEDIIS/GDIIS optimizer.
 Internal  Forces:  Max     0.006913614 RMS     0.005461304
 Search for a local minimum.
 Step number   3 out of a maximum of   20
 All quantities printed in internal units (Hartrees-Bohrs-Radians)
 Mixed Optimization -- RFO/linear search
 Update second derivatives using D2CorX and points    2    3
 The second derivative matrix:
                          R1        R2        A1
           R1           0.25313
           R2          -0.09277   0.25313
           A1           0.01631   0.01631   0.24738
 ITU=  0  1  0
 Use linear search instead of GDIIS.
     Eigenvalues ---    0.15462   0.25312   0.34590
 RFO step:  Lambda=-2.07015026D-04 EMin= 1.54623724D-01
 Quartic linear search produced a step of -0.09581.
 Iteration  1 RMS(Cart)=  0.04774969 RMS(Int)=  0.00024010
 Iteration  2 RMS(Cart)=  0.00022486 RMS(Int)=  0.00000002
 Iteration  3 RMS(Cart)=  0.00000002 RMS(Int)=  0.00000000
 ClnCor:  largest displacement from symmetrization is 4.95D-15 for atom     3.
 Variable       Old X    -DE/DX   Delta X   Delta X   Delta X     New X
                                 (Linear)    (Quad)   (Total)
    R1        4.34963  -0.00457  -0.03450  -0.00142  -0.03592   4.31371
    R2        4.34963  -0.00457  -0.03450  -0.00142  -0.03592   4.31371
    A1        1.79953  -0.00691   0.00672  -0.02868  -0.02196   1.77757
         Item               Value     Threshold  Converged?
 Maximum Force            0.006914     0.000450     NO 
 RMS     Force            0.005461     0.000300     NO 
 Maximum Displacement     0.057788     0.001800     NO 
 RMS     Displacement     0.047683     0.001200     NO 
 Predicted change in Energy=-1.874864D-04
 GradGradGradGradGradGradGradGradGradGradGradGradGradGradGradGradGradGrad

                          Input orientation:                          
 ---------------------------------------------------------------------
 Center     Atomic      Atomic             Coordinates (Angstroms)
 Number     Number       Type             X           Y           Z
 ---------------------------------------------------------------------
      1         16           0       -0.000000   -0.000000   -0.974678
      2         17           0       -0.000000    1.772091    0.464245
      3         17           0        0.000000   -1.772091    0.464245
 ---------------------------------------------------------------------
                    Distance matrix (angstroms):
                    1          2          3
     1  S    0.000000
     2  Cl   2.282719   0.000000
     3  Cl   2.282719   3.544181   0.000000
 Stoichiometry    Cl2S
 Framework group  C2V[C2(S),SGV(Cl2)]
 Deg. of freedom     2
 Full point group                 C2V     NOp   4
 Largest Abelian subgroup         C2V     NOp   4
 Largest concise Abelian subgroup C2      NOp   2
                         Standard orientation:                         
 ---------------------------------------------------------------------
 Center     Atomic      Atomic             Coordinates (Angstroms)
 Number     Number       Type             X           Y           Z
 ---------------------------------------------------------------------
      1         16           0        0.000000    0.000000    0.978468
      2         17           0       -0.000000    1.772091   -0.460455
      3         17           0       -0.000000   -1.772091   -0.460455
 ---------------------------------------------------------------------
 Rotational constants (GHZ):     11.1243743      2.3010918      1.9066903
 Standard basis: 3-21G (6D, 7F)
 There are    17 symmetry adapted basis functions of A1  symmetry.
 There are     3 symmetry adapted basis functions of A2  symmetry.
 There are     6 symmetry adapted basis functions of B1  symmetry.
 There are    13 symmetry adapted basis functions of B2  symmetry.
 Integral buffers will be    131072 words long.
 Raffenetti 1 integral format.
 Two-electron integral symmetry is turned on.
    39 basis functions,    81 primitive gaussians,    39 cartesian basis functions
    25 alpha electrons       25 beta electrons
       nuclear repulsion energy       169.2596610454 Hartrees.
 NAtoms=    3 NActive=    3 NUniq=    2 SFac= 2.25D+00 NAtFMM=   60 NAOKFM=F Big=F
 One-electron integrals computed using PRISM.
 NBasis=    39 RedAO= T  NBF=    17     3     6    13
 NBsUse=    39 1.00D-06 NBFU=    17     3     6    13
 Initial guess read from the read-write file.
 B after Tr=     0.000000    0.000000    0.000000
         Rot=    1.000000    0.000000    0.000000    0.000000 Ang=   0.00 deg.
 Initial guess orbital symmetries:
       Occupied  (B2) (A1) (A1) (B2) (A1) (A1) (B2) (A1) (B2) (A1)
                 (A2) (B1) (B2) (A1) (B1) (A1) (B2) (A1) (B2) (B1)
                 (A1) (A2) (B2) (A1) (B1)
       Virtual   (A1) (B2) (A1) (B1) (B2) (A1) (B2) (A1) (A2) (B1)
                 (A1) (B2) (A1) (B2)
 Harris functional with IExCor=  205 diagonalized for initial guess.
 ExpMin= 1.42D-01 ExpMax= 1.38D+03 ExpMxC= 1.38D+03 IAcc=1 IRadAn=         1 AccDes= 0.00D+00
 HarFok:  IExCor=  205 AccDes= 0.00D+00 IRadAn=         1 IDoV= 1
 ScaDFX=  1.000000  1.000000  1.000000  1.000000
 FoFCou: FMM=F IPFlag=           0 FMFlag=      100000 FMFlg1=           0
         NFxFlg=           0 DoJE=T BraDBF=F KetDBF=T FulRan=T
         Omega=  0.000000  0.000000  1.000000  0.000000  0.000000 ICntrl=     500 IOpCl=  0
         NMat0=    1 NMatS0=    1 NMatT0=    0 NMatD0=    1 NMtDS0=    0 NMtDT0=    0
         I1Cent=           4 NGrid=           0.
 Petite list used in FoFCou.
 Requested convergence on RMS density matrix=1.00D-08 within 128 cycles.
 Requested convergence on MAX density matrix=1.00D-06.
 Requested convergence on             energy=1.00D-06.
 No special actions if energy rises.
 Keep R1 ints in memory in canonical form, NReq=1127913.
 SCF Done:  E(RHF) =  -1310.10434670     A.U. after   11 cycles
             Convg  =    0.1431D-08             -V/T =  2.0010
 ExpMin= 1.42D-01 ExpMax= 1.38D+03 ExpMxC= 1.38D+03 IAcc=3 IRadAn=         5 AccDes= 0.00D+00
 HarFok:  IExCor=  205 AccDes= 0.00D+00 IRadAn=         5 IDoV=-2
 ScaDFX=  1.000000  1.000000  1.000000  1.000000
 Range of M.O.s used for correlation:    16    39
 NBasis=    39 NAE=    25 NBE=    25 NFC=    15 NFV=     0
 NROrb=     24 NOA=    10 NOB=    10 NVA=    14 NVB=    14
 Fully direct method using O(ONN) memory.
 JobTyp=1 Pass  1:  I=  16 to  25 NPSUse=  1 ParTrn=F ParDer=F DoDerP=T.
 Spin components of T(2) and E(2):
     alpha-alpha T2 =       0.9211805274D-02 E2=     -0.1824435931D-01
     alpha-beta  T2 =       0.7574635068D-01 E2=     -0.1281754296D+00
     beta-beta   T2 =       0.9211805274D-02 E2=     -0.1824435931D-01
 ANorm=    0.1046025794D+01
 E2 =    -0.1646641482D+00 EUMP2 =    -0.13102690108488D+04
          IDoAtm=111
          Differentiating once with respect to electric field.
                with respect to dipole field.
          Differentiating once with respect to nuclear coordinates.
          Keep R1 ints in memory in canonical form, NReq=1105282.
          There are     1 degrees of freedom in the 1st order CPHF.  IDoFFX=0.
 LinEq1:  Iter=  0 NonCon=     1 RMS=8.71D-03 Max=8.37D-02
 AX will form     1 AO Fock derivatives at one time.
 LinEq1:  Iter=  1 NonCon=     1 RMS=3.22D-03 Max=3.88D-02
 LinEq1:  Iter=  2 NonCon=     1 RMS=8.11D-04 Max=5.82D-03
 LinEq1:  Iter=  3 NonCon=     1 RMS=1.28D-04 Max=1.02D-03
 LinEq1:  Iter=  4 NonCon=     1 RMS=2.61D-05 Max=2.60D-04
 LinEq1:  Iter=  5 NonCon=     1 RMS=5.96D-06 Max=5.97D-05
 LinEq1:  Iter=  6 NonCon=     1 RMS=1.07D-06 Max=1.05D-05
 LinEq1:  Iter=  7 NonCon=     1 RMS=1.82D-07 Max=1.69D-06
 LinEq1:  Iter=  8 NonCon=     1 RMS=2.76D-08 Max=1.92D-07
 LinEq1:  Iter=  9 NonCon=     1 RMS=3.22D-09 Max=2.06D-08
 LinEq1:  Iter= 10 NonCon=     1 RMS=2.35D-10 Max=1.43D-09
 LinEq1:  Iter= 11 NonCon=     0 RMS=2.01D-11 Max=1.30D-10
 Linear equations converged to 1.000D-10 1.000D-09 after    11 iterations.
 End of Minotr Frequency-dependent properties file   721 does not exist.
 End of Minotr Frequency-dependent properties file   722 does not exist.
 Calling FoFJK, ICntrl=      2127 FMM=F ISym2X=1 I1Cent= 0 IOpClX= 0 NMat=1 NMatS=1 NMatT=0.
 ***** Axes restored to original set *****
 -------------------------------------------------------------------
 Center     Atomic                   Forces (Hartrees/Bohr)
 Number     Number              X              Y              Z
 -------------------------------------------------------------------
      1       16           0.000000000    0.000000000   -0.000819453
      2       17          -0.000000000   -0.000722339    0.000409726
      3       17          -0.000000000    0.000722339    0.000409726
 -------------------------------------------------------------------
 Cartesian Forces:  Max     0.000819453 RMS     0.000477354

 GradGradGradGradGradGradGradGradGradGradGradGradGradGradGradGradGradGrad
 Berny optimization.
 Using GEDIIS/GDIIS optimizer.
 Internal  Forces:  Max     0.003336241 RMS     0.001941949
 Search for a local minimum.
 Step number   4 out of a maximum of   20
 All quantities printed in internal units (Hartrees-Bohrs-Radians)
 Mixed Optimization -- RFO/linear search
 Update second derivatives using D2CorX and points    2    3    4
 DE= -2.91D-04 DEPred=-1.87D-04 R= 1.55D+00
 SS=  1.41D+00  RLast= 5.53D-02 DXNew= 8.4853D-01 1.6603D-01
 Trust test= 1.55D+00 RLast= 5.53D-02 DXMaxT set to 5.05D-01
 The second derivative matrix:
                          R1        R2        A1
           R1           0.23593
           R2          -0.10998   0.23593
           A1          -0.01190  -0.01190   0.20183
 ITU=  1  0  1  0
 Use linear search instead of GDIIS.
     Eigenvalues ---    0.12238   0.20539   0.34590
 RFO step:  Lambda=-3.60395594D-05 EMin= 1.22382139D-01
 Quartic linear search produced a step of  0.23253.
 Iteration  1 RMS(Cart)=  0.02409174 RMS(Int)=  0.00012372
 Iteration  2 RMS(Cart)=  0.00009790 RMS(Int)=  0.00000000
 Iteration  3 RMS(Cart)=  0.00000000 RMS(Int)=  0.00000000
 ClnCor:  largest displacement from symmetrization is 4.65D-15 for atom     3.
 Variable       Old X    -DE/DX   Delta X   Delta X   Delta X     New X
                                 (Linear)    (Quad)   (Total)
    R1        4.31371  -0.00030  -0.00835   0.00488  -0.00347   4.31024
    R2        4.31371  -0.00030  -0.00835   0.00488  -0.00347   4.31024
    A1        1.77757  -0.00334  -0.00511  -0.01163  -0.01674   1.76083
         Item               Value     Threshold  Converged?
 Maximum Force            0.003336     0.000450     NO 
 RMS     Force            0.001942     0.000300     NO 
 Maximum Displacement     0.025554     0.001800     NO 
 RMS     Displacement     0.024133     0.001200     NO 
 Predicted change in Energy=-2.953587D-05
 GradGradGradGradGradGradGradGradGradGradGradGradGradGradGradGradGradGrad

                          Input orientation:                          
 ---------------------------------------------------------------------
 Center     Atomic      Atomic             Coordinates (Angstroms)
 Number     Number       Type             X           Y           Z
 ---------------------------------------------------------------------
      1         16           0       -0.000000   -0.000000   -0.983754
      2         17           0       -0.000000    1.758568    0.468783
      3         17           0        0.000000   -1.758568    0.468783
 ---------------------------------------------------------------------
                    Distance matrix (angstroms):
                    1          2          3
     1  S    0.000000
     2  Cl   2.280882   0.000000
     3  Cl   2.280882   3.517136   0.000000
 Stoichiometry    Cl2S
 Framework group  C2V[C2(S),SGV(Cl2)]
 Deg. of freedom     2
 Full point group                 C2V     NOp   4
 Largest Abelian subgroup         C2V     NOp   4
 Largest concise Abelian subgroup C2      NOp   2
                         Standard orientation:                         
 ---------------------------------------------------------------------
 Center     Atomic      Atomic             Coordinates (Angstroms)
 Number     Number       Type             X           Y           Z
 ---------------------------------------------------------------------
      1         16           0        0.000000    0.000000    0.987725
      2         17           0       -0.000000    1.758568   -0.464812
      3         17           0       -0.000000   -1.758568   -0.464812
 ---------------------------------------------------------------------
 Rotational constants (GHZ):     10.9168329      2.3366169      1.9246654
 Standard basis: 3-21G (6D, 7F)
 There are    17 symmetry adapted basis functions of A1  symmetry.
 There are     3 symmetry adapted basis functions of A2  symmetry.
 There are     6 symmetry adapted basis functions of B1  symmetry.
 There are    13 symmetry adapted basis functions of B2  symmetry.
 Integral buffers will be    131072 words long.
 Raffenetti 1 integral format.
 Two-electron integral symmetry is turned on.
    39 basis functions,    81 primitive gaussians,    39 cartesian basis functions
    25 alpha electrons       25 beta electrons
       nuclear repulsion energy       169.6930154642 Hartrees.
 NAtoms=    3 NActive=    3 NUniq=    2 SFac= 2.25D+00 NAtFMM=   60 NAOKFM=F Big=F
 One-electron integrals computed using PRISM.
 NBasis=    39 RedAO= T  NBF=    17     3     6    13
 NBsUse=    39 1.00D-06 NBFU=    17     3     6    13
 Initial guess read from the read-write file.
 B after Tr=     0.000000    0.000000   -0.000000
         Rot=    1.000000    0.000000   -0.000000    0.000000 Ang=   0.00 deg.
 Initial guess orbital symmetries:
       Occupied  (B2) (A1) (A1) (B2) (A1) (A1) (B2) (A1) (B2) (A1)
                 (A2) (B1) (B2) (A1) (B1) (A1) (B2) (A1) (B2) (B1)
                 (A1) (A2) (B2) (A1) (B1)
       Virtual   (A1) (B2) (A1) (B1) (B2) (A1) (B2) (A1) (A2) (B1)
                 (A1) (B2) (A1) (B2)
 Harris functional with IExCor=  205 diagonalized for initial guess.
 ExpMin= 1.42D-01 ExpMax= 1.38D+03 ExpMxC= 1.38D+03 IAcc=1 IRadAn=         1 AccDes= 0.00D+00
 HarFok:  IExCor=  205 AccDes= 0.00D+00 IRadAn=         1 IDoV= 1
 ScaDFX=  1.000000  1.000000  1.000000  1.000000
 FoFCou: FMM=F IPFlag=           0 FMFlag=      100000 FMFlg1=           0
         NFxFlg=           0 DoJE=T BraDBF=F KetDBF=T FulRan=T
         Omega=  0.000000  0.000000  1.000000  0.000000  0.000000 ICntrl=     500 IOpCl=  0
         NMat0=    1 NMatS0=    1 NMatT0=    0 NMatD0=    1 NMtDS0=    0 NMtDT0=    0
         I1Cent=           4 NGrid=           0.
 Petite list used in FoFCou.
 Requested convergence on RMS density matrix=1.00D-08 within 128 cycles.
 Requested convergence on MAX density matrix=1.00D-06.
 Requested convergence on             energy=1.00D-06.
 No special actions if energy rises.
 Keep R1 ints in memory in canonical form, NReq=1127913.
 SCF Done:  E(RHF) =  -1310.10457961     A.U. after    9 cycles
             Convg  =    0.6000D-08             -V/T =  2.0010
 ExpMin= 1.42D-01 ExpMax= 1.38D+03 ExpMxC= 1.38D+03 IAcc=3 IRadAn=         5 AccDes= 0.00D+00
 HarFok:  IExCor=  205 AccDes= 0.00D+00 IRadAn=         5 IDoV=-2
 ScaDFX=  1.000000  1.000000  1.000000  1.000000
 Range of M.O.s used for correlation:    16    39
 NBasis=    39 NAE=    25 NBE=    25 NFC=    15 NFV=     0
 NROrb=     24 NOA=    10 NOB=    10 NVA=    14 NVB=    14
 Fully direct method using O(ONN) memory.
 JobTyp=1 Pass  1:  I=  16 to  25 NPSUse=  1 ParTrn=F ParDer=F DoDerP=T.
 Spin components of T(2) and E(2):
     alpha-alpha T2 =       0.9185196983D-02 E2=     -0.1821868156D-01
     alpha-beta  T2 =       0.7552465510D-01 E2=     -0.1280286954D+00
     beta-beta   T2 =       0.9185196983D-02 E2=     -0.1821868156D-01
 ANorm=    0.1045894378D+01
 E2 =    -0.1644660585D+00 EUMP2 =    -0.13102690456669D+04
          IDoAtm=111
          Differentiating once with respect to electric field.
                with respect to dipole field.
          Differentiating once with respect to nuclear coordinates.
          Keep R1 ints in memory in canonical form, NReq=1105282.
          There are     1 degrees of freedom in the 1st order CPHF.  IDoFFX=0.
 LinEq1:  Iter=  0 NonCon=     1 RMS=8.65D-03 Max=8.35D-02
 AX will form     1 AO Fock derivatives at one time.
 LinEq1:  Iter=  1 NonCon=     1 RMS=3.19D-03 Max=3.83D-02
 LinEq1:  Iter=  2 NonCon=     1 RMS=8.06D-04 Max=5.69D-03
 LinEq1:  Iter=  3 NonCon=     1 RMS=1.27D-04 Max=9.96D-04
 LinEq1:  Iter=  4 NonCon=     1 RMS=2.63D-05 Max=2.72D-04
 LinEq1:  Iter=  5 NonCon=     1 RMS=6.21D-06 Max=5.91D-05
 LinEq1:  Iter=  6 NonCon=     1 RMS=1.12D-06 Max=1.14D-05
 LinEq1:  Iter=  7 NonCon=     1 RMS=1.82D-07 Max=1.64D-06
 LinEq1:  Iter=  8 NonCon=     1 RMS=2.72D-08 Max=1.92D-07
 LinEq1:  Iter=  9 NonCon=     1 RMS=3.19D-09 Max=2.03D-08
 LinEq1:  Iter= 10 NonCon=     1 RMS=2.32D-10 Max=1.43D-09
 LinEq1:  Iter= 11 NonCon=     0 RMS=1.98D-11 Max=1.28D-10
 Linear equations converged to 1.000D-10 1.000D-09 after    11 iterations.
 End of Minotr Frequency-dependent properties file   721 does not exist.
 End of Minotr Frequency-dependent properties file   722 does not exist.
 Calling FoFJK, ICntrl=      2127 FMM=F ISym2X=1 I1Cent= 0 IOpClX= 0 NMat=1 NMatS=1 NMatT=0.
 ***** Axes restored to original set *****
 -------------------------------------------------------------------
 Center     Atomic                   Forces (Hartrees/Bohr)
 Number     Number              X              Y              Z
 -------------------------------------------------------------------
      1       16           0.000000000   -0.000000000   -0.000630227
      2       17          -0.000000000    0.000093690    0.000315113
      3       17          -0.000000000   -0.000093690    0.000315113
 -------------------------------------------------------------------
 Cartesian Forces:  Max     0.000630227 RMS     0.000261052

 GradGradGradGradGradGradGradGradGradGradGradGradGradGradGradGradGradGrad
 Berny optimization.
 Using GEDIIS/GDIIS optimizer.
 Internal  Forces:  Max     0.000790018 RMS     0.000507637
 Search for a local minimum.
 Step number   5 out of a maximum of   20
 All quantities printed in internal units (Hartrees-Bohrs-Radians)
 Mixed Optimization -- En-DIIS/RFO-DIIS
 Update second derivatives using D2CorX and points    2    3    4    5
 DE= -3.48D-05 DEPred=-2.95D-05 R= 1.18D+00
 SS=  1.41D+00  RLast= 1.74D-02 DXNew= 8.4853D-01 5.2338D-02
 Trust test= 1.18D+00 RLast= 1.74D-02 DXMaxT set to 5.05D-01
 The second derivative matrix:
                          R1        R2        A1
           R1           0.24059
           R2          -0.10531   0.24059
           A1           0.00632   0.00632   0.14947
 ITU=  1  1  0  1
 Use linear search instead of GDIIS.
     Eigenvalues ---    0.13096   0.15379   0.34590
 RFO step:  Lambda=-2.81034277D-06 EMin= 1.30957454D-01
 Quartic linear search produced a step of  0.23640.
 Iteration  1 RMS(Cart)=  0.00668329 RMS(Int)=  0.00001165
 Iteration  2 RMS(Cart)=  0.00002000 RMS(Int)=  0.00000000
 Iteration  3 RMS(Cart)=  0.00000000 RMS(Int)=  0.00000000
 ClnCor:  largest displacement from symmetrization is 4.44D-15 for atom     3.
 Variable       Old X    -DE/DX   Delta X   Delta X   Delta X     New X
                                 (Linear)    (Quad)   (Total)
    R1        4.31024   0.00027  -0.00082   0.00311   0.00229   4.31254
    R2        4.31024   0.00027  -0.00082   0.00311   0.00229   4.31254
    A1        1.76083  -0.00079  -0.00396  -0.00141  -0.00537   1.75547
         Item               Value     Threshold  Converged?
 Maximum Force            0.000790     0.000450     NO 
 RMS     Force            0.000508     0.000300     NO 
 Maximum Displacement     0.006914     0.001800     NO 
 RMS     Displacement     0.006700     0.001200     NO 
 Predicted change in Energy=-2.783229D-06
 GradGradGradGradGradGradGradGradGradGradGradGradGradGradGradGradGradGrad

                          Input orientation:                          
 ---------------------------------------------------------------------
 Center     Atomic      Atomic             Coordinates (Angstroms)
 Number     Number       Type             X           Y           Z
 ---------------------------------------------------------------------
      1         16           0       -0.000000   -0.000000   -0.987413
      2         17           0       -0.000000    1.755599    0.470612
      3         17           0        0.000000   -1.755599    0.470612
 ---------------------------------------------------------------------
                    Distance matrix (angstroms):
                    1          2          3
     1  S    0.000000
     2  Cl   2.282096   0.000000
     3  Cl   2.282096   3.511198   0.000000
 Stoichiometry    Cl2S
 Framework group  C2V[C2(S),SGV(Cl2)]
 Deg. of freedom     2
 Full point group                 C2V     NOp   4
 Largest Abelian subgroup         C2V     NOp   4
 Largest concise Abelian subgroup C2      NOp   2
                         Standard orientation:                         
 ---------------------------------------------------------------------
 Center     Atomic      Atomic             Coordinates (Angstroms)
 Number     Number       Type             X           Y           Z
 ---------------------------------------------------------------------
      1         16           0        0.000000    0.000000    0.991457
      2         17           0       -0.000000    1.755599   -0.466568
      3         17           0       -0.000000   -1.755599   -0.466568
 ---------------------------------------------------------------------
 Rotational constants (GHZ):     10.8348032      2.3445269      1.9274490
 Standard basis: 3-21G (6D, 7F)
 There are    17 symmetry adapted basis functions of A1  symmetry.
 There are     3 symmetry adapted basis functions of A2  symmetry.
 There are     6 symmetry adapted basis functions of B1  symmetry.
 There are    13 symmetry adapted basis functions of B2  symmetry.
 Integral buffers will be    131072 words long.
 Raffenetti 1 integral format.
 Two-electron integral symmetry is turned on.
    39 basis functions,    81 primitive gaussians,    39 cartesian basis functions
    25 alpha electrons       25 beta electrons
       nuclear repulsion energy       169.6994059705 Hartrees.
 NAtoms=    3 NActive=    3 NUniq=    2 SFac= 2.25D+00 NAtFMM=   60 NAOKFM=F Big=F
 One-electron integrals computed using PRISM.
 NBasis=    39 RedAO= T  NBF=    17     3     6    13
 NBsUse=    39 1.00D-06 NBFU=    17     3     6    13
 Initial guess read from the read-write file.
 B after Tr=    -0.000000    0.000000    0.000000
         Rot=    1.000000    0.000000    0.000000    0.000000 Ang=   0.00 deg.
 Initial guess orbital symmetries:
       Occupied  (B2) (A1) (A1) (B2) (A1) (A1) (B2) (A1) (B2) (A1)
                 (A2) (B1) (B2) (A1) (B1) (A1) (B2) (A1) (B2) (B1)
                 (A1) (A2) (B2) (A1) (B1)
       Virtual   (A1) (B2) (A1) (B1) (B2) (A1) (B2) (A1) (A2) (B1)
                 (A1) (B2) (A1) (B2)
 Requested convergence on RMS density matrix=1.00D-08 within 128 cycles.
 Requested convergence on MAX density matrix=1.00D-06.
 Requested convergence on             energy=1.00D-06.
 No special actions if energy rises.
 Keep R1 ints in memory in canonical form, NReq=1127913.
 SCF Done:  E(RHF) =  -1310.10453699     A.U. after    9 cycles
             Convg  =    0.5149D-08             -V/T =  2.0010
 ExpMin= 1.42D-01 ExpMax= 1.38D+03 ExpMxC= 1.38D+03 IAcc=3 IRadAn=         5 AccDes= 0.00D+00
 HarFok:  IExCor=  205 AccDes= 0.00D+00 IRadAn=         5 IDoV=-2
 ScaDFX=  1.000000  1.000000  1.000000  1.000000
 Range of M.O.s used for correlation:    16    39
 NBasis=    39 NAE=    25 NBE=    25 NFC=    15 NFV=     0
 NROrb=     24 NOA=    10 NOB=    10 NVA=    14 NVB=    14
 Fully direct method using O(ONN) memory.
 JobTyp=1 Pass  1:  I=  16 to  25 NPSUse=  1 ParTrn=F ParDer=F DoDerP=T.
 Spin components of T(2) and E(2):
     alpha-alpha T2 =       0.9186219803D-02 E2=     -0.1821826156D-01
     alpha-beta  T2 =       0.7560437251D-01 E2=     -0.1280750881D+00
     beta-beta   T2 =       0.9186219803D-02 E2=     -0.1821826156D-01
 ANorm=    0.1045933464D+01
 E2 =    -0.1645116112D+00 EUMP2 =    -0.13102690486053D+04
          IDoAtm=111
          Differentiating once with respect to electric field.
                with respect to dipole field.
          Differentiating once with respect to nuclear coordinates.
          Keep R1 ints in memory in canonical form, NReq=1105282.
          There are     1 degrees of freedom in the 1st order CPHF.  IDoFFX=0.
 LinEq1:  Iter=  0 NonCon=     1 RMS=8.64D-03 Max=8.36D-02
 AX will form     1 AO Fock derivatives at one time.
 LinEq1:  Iter=  1 NonCon=     1 RMS=3.19D-03 Max=3.82D-02
 LinEq1:  Iter=  2 NonCon=     1 RMS=8.07D-04 Max=5.67D-03
 LinEq1:  Iter=  3 NonCon=     1 RMS=1.27D-04 Max=9.94D-04
 LinEq1:  Iter=  4 NonCon=     1 RMS=2.66D-05 Max=2.77D-04
 LinEq1:  Iter=  5 NonCon=     1 RMS=6.32D-06 Max=5.91D-05
 LinEq1:  Iter=  6 NonCon=     1 RMS=1.13D-06 Max=1.16D-05
 LinEq1:  Iter=  7 NonCon=     1 RMS=1.83D-07 Max=1.64D-06
 LinEq1:  Iter=  8 NonCon=     1 RMS=2.73D-08 Max=1.94D-07
 LinEq1:  Iter=  9 NonCon=     1 RMS=3.20D-09 Max=2.04D-08
 LinEq1:  Iter= 10 NonCon=     1 RMS=2.33D-10 Max=1.44D-09
 LinEq1:  Iter= 11 NonCon=     0 RMS=1.99D-11 Max=1.28D-10
 Linear equations converged to 1.000D-10 1.000D-09 after    11 iterations.
 End of Minotr Frequency-dependent properties file   721 does not exist.
 End of Minotr Frequency-dependent properties file   722 does not exist.
 Calling FoFJK, ICntrl=      2127 FMM=F ISym2X=1 I1Cent= 0 IOpClX= 0 NMat=1 NMatS=1 NMatT=0.
 ***** Axes restored to original set *****
 -------------------------------------------------------------------
 Center     Atomic                   Forces (Hartrees/Bohr)
 Number     Number              X              Y              Z
 -------------------------------------------------------------------
      1       16           0.000000000   -0.000000000   -0.000079403
      2       17          -0.000000000    0.000038794    0.000039701
      3       17          -0.000000000   -0.000038794    0.000039701
 -------------------------------------------------------------------
 Cartesian Forces:  Max     0.000079403 RMS     0.000037219

 GradGradGradGradGradGradGradGradGradGradGradGradGradGradGradGradGradGrad
 Berny optimization.
 Using GEDIIS/GDIIS optimizer.
 Internal  Forces:  Max     0.000055209 RMS     0.000047302
 Search for a local minimum.
 Step number   6 out of a maximum of   20
 All quantities printed in internal units (Hartrees-Bohrs-Radians)
 Mixed Optimization -- En-DIIS/RFO-DIIS
 Swaping is turned off.
 Update second derivatives using D2CorX and points    3    4    5    6
 DE= -2.94D-06 DEPred=-2.78D-06 R= 1.06D+00
 SS=  1.41D+00  RLast= 6.27D-03 DXNew= 8.4853D-01 1.8811D-02
 Trust test= 1.06D+00 RLast= 6.27D-03 DXMaxT set to 5.05D-01
 The second derivative matrix:
                          R1        R2        A1
           R1           0.23363
           R2          -0.11228   0.23363
           A1           0.01132   0.01132   0.15229
 ITU=  1  1  1  0
     Eigenvalues ---    0.11456   0.15908   0.34590
 En-DIIS/RFO-DIIS IScMMF=        0 using points:     6    5
 RFO step:  Lambda=-1.98055333D-08.
 DidBck=F Rises=F RFO-DIIS coefs:    1.07572   -0.07572
 Iteration  1 RMS(Cart)=  0.00032847 RMS(Int)=  0.00000002
 Iteration  2 RMS(Cart)=  0.00000005 RMS(Int)=  0.00000000
 ClnCor:  largest displacement from symmetrization is 4.38D-15 for atom     3.
 Variable       Old X    -DE/DX   Delta X   Delta X   Delta X     New X
                                  (DIIS)     (GDIIS)  (Total)
    R1        4.31254   0.00006   0.00017   0.00030   0.00048   4.31301
    R2        4.31254   0.00006   0.00017   0.00030   0.00048   4.31301
    A1        1.75547  -0.00002  -0.00041   0.00017  -0.00023   1.75523
         Item               Value     Threshold  Converged?
 Maximum Force            0.000055     0.000450     YES
 RMS     Force            0.000047     0.000300     YES
 Maximum Displacement     0.000462     0.001800     YES
 RMS     Displacement     0.000328     0.001200     YES
 Predicted change in Energy=-2.922482D-08
 Optimization completed.
    -- Stationary point found.
                           ----------------------------
                           !   Optimized Parameters   !
                           ! (Angstroms and Degrees)  !
 --------------------------                            --------------------------
 ! Name  Definition              Value          Derivative Info.                !
 --------------------------------------------------------------------------------
 ! R1    R(1,2)                  2.2821         -DE/DX =    0.0001              !
 ! R2    R(1,3)                  2.2821         -DE/DX =    0.0001              !
 ! A1    A(2,1,3)              100.5807         -DE/DX =    0.0                 !
 --------------------------------------------------------------------------------
 GradGradGradGradGradGradGradGradGradGradGradGradGradGradGradGradGradGrad

                          Input orientation:                          
 ---------------------------------------------------------------------
 Center     Atomic      Atomic             Coordinates (Angstroms)
 Number     Number       Type             X           Y           Z
 ---------------------------------------------------------------------
      1         16           0       -0.000000   -0.000000   -0.987413
      2         17           0       -0.000000    1.755599    0.470612
      3         17           0        0.000000   -1.755599    0.470612
 ---------------------------------------------------------------------
                    Distance matrix (angstroms):
                    1          2          3
     1  S    0.000000
     2  Cl   2.282096   0.000000
     3  Cl   2.282096   3.511198   0.000000
 Stoichiometry    Cl2S
 Framework group  C2V[C2(S),SGV(Cl2)]
 Deg. of freedom     2
 Full point group                 C2V     NOp   4
 Largest Abelian subgroup         C2V     NOp   4
 Largest concise Abelian subgroup C2      NOp   2
                         Standard orientation:                         
 ---------------------------------------------------------------------
 Center     Atomic      Atomic             Coordinates (Angstroms)
 Number     Number       Type             X           Y           Z
 ---------------------------------------------------------------------
      1         16           0        0.000000    0.000000    0.991457
      2         17           0       -0.000000    1.755599   -0.466568
      3         17           0       -0.000000   -1.755599   -0.466568
 ---------------------------------------------------------------------
 Rotational constants (GHZ):     10.8348032      2.3445269      1.9274490

 **********************************************************************

            Population analysis using the SCF density.

 **********************************************************************

 Orbital symmetries:
       Occupied  (B2) (A1) (A1) (B2) (A1) (A1) (B2) (A1) (B2) (A1)
                 (A2) (B1) (B2) (A1) (B1) (A1) (B2) (A1) (B2) (B1)
                 (A1) (A2) (B2) (A1) (B1)
       Virtual   (A1) (B2) (A1) (B1) (B2) (A1) (A1) (B2) (A2) (B1)
                 (A1) (B2) (A1) (B2)
 The electronic state is 1-A1.
 Alpha  occ. eigenvalues -- -104.16071-104.16060 -91.47426 -10.55068 -10.55030
 Alpha  occ. eigenvalues --   -9.06167  -8.01415  -8.01393  -8.00969  -8.00943
 Alpha  occ. eigenvalues --   -8.00930  -8.00928  -6.73472  -6.73322  -6.72915
 Alpha  occ. eigenvalues --   -1.15437  -1.10590  -0.94232  -0.55454  -0.54659
 Alpha  occ. eigenvalues --   -0.54382  -0.50058  -0.48197  -0.47923  -0.43113
 Alpha virt. eigenvalues --   -0.05051  -0.02723   0.55681   0.64152   0.64767
 Alpha virt. eigenvalues --    0.64996   0.72769   0.72804   0.78506   0.79889
 Alpha virt. eigenvalues --    0.82717   0.83738   0.86390   0.96754
          Condensed to atoms (all electrons):
              1          2          3
     1  S   15.527259   0.096632   0.096632
     2  Cl   0.096632  17.067692  -0.024584
     3  Cl   0.096632  -0.024584  17.067692
 Mulliken atomic charges:
              1
     1  S    0.279478
     2  Cl  -0.139739
     3  Cl  -0.139739
 Sum of Mulliken atomic charges =  -0.00000
 Mulliken charges with hydrogens summed into heavy atoms:
              1
     1  S    0.279478
     2  Cl  -0.139739
     3  Cl  -0.139739
 Sum of Mulliken charges with hydrogens summed into heavy atoms =  -0.00000
 Electronic spatial extent (au):  <R**2>=            545.6066
 Charge=             -0.0000 electrons
 Dipole moment (field-independent basis, Debye):
    X=              0.0000    Y=              0.0000    Z=              1.5400  Tot=              1.5400
 Quadrupole moment (field-independent basis, Debye-Ang):
   XX=            -40.8055   YY=            -41.0946   ZZ=            -37.5266
   XY=             -0.0000   XZ=             -0.0000   YZ=              0.0000
 Traceless Quadrupole moment (field-independent basis, Debye-Ang):
   XX=             -0.9966   YY=             -1.2857   ZZ=              2.2823
   XY=             -0.0000   XZ=             -0.0000   YZ=              0.0000
 Octapole moment (field-independent basis, Debye-Ang**2):
  XXX=              0.0000  YYY=              0.0000  ZZZ=              0.5400  XYY=              0.0000
  XXY=             -0.0000  XXZ=             -1.6722  XZZ=              0.0000  YZZ=              0.0000
  YYZ=             -1.5721  XYZ=              0.0000
 Hexadecapole moment (field-independent basis, Debye-Ang**3):
 XXXX=            -48.6267 YYYY=           -515.3064 ZZZZ=           -145.3207 XXXY=             -0.0000
 XXXZ=             -0.0000 YYYX=             -0.0000 YYYZ=              0.0000 ZZZX=             -0.0000
 ZZZY=              0.0000 XXYY=            -97.3402 XXZZ=            -35.2409 YYZZ=           -103.8463
 XXYZ=              0.0000 YYXZ=             -0.0000 ZZXY=             -0.0000
 N-N= 1.696994059705D+02 E-N=-3.458445029857D+03  KE= 1.308760197500D+03
 Symmetry A1   KE= 7.315412921890D+02
 Symmetry A2   KE= 4.539057718355D+01
 Symmetry B1   KE= 8.401271407009D+01
 Symmetry B2   KE= 4.478156140571D+02
 1\1\GINC-SRU01\FOpt\RMP2-FC\3-21G\Cl2S1\JAMES\27-Aug-2023\0\\# opt fre
 q=hpmodes mp2/3-21g geom=connectivity\\Title Card Required\\0,1\S,0.,0
 .,-0.9874125864\Cl,0.,1.7555989095,0.4706122782\Cl,0.,-1.7555989095,0.
 4706122782\\Version=AM64L-G09RevC.01\State=1-A1\HF=-1310.104537\MP2=-1
 310.2690486\RMSD=5.149e-09\RMSF=3.722e-05\Dipole=0.,0.,-0.4868575\PG=C
 02V [C2(S1),SGV(Cl2)]\\@


 YOU CAN WIPE THE SLATE CLEAN, BUT YOU'LL STILL
 HAVE TO EAT A LITTLE CHALK DUST.
 Job cpu time:  0 days  0 hours  0 minutes  4.3 seconds.
 File lengths (MBytes):  RWF=      5 Int=      0 D2E=      0 Chk=      2 Scr=      1
 Normal termination of Gaussian 09 at Sun Aug 27 21:56:32 2023.
 Link1:  Proceeding to internal job step number  2.
 -------------------------------------------------------------------
 #N Geom=AllCheck Guess=TCheck SCRF=Check GenChk RMP2(FC)/3-21G Freq
 -------------------------------------------------------------------
 1/10=4,29=7,30=1,38=1,40=1/1,3;
 2/12=2,40=1/2;
 3/5=5,11=1,14=-4,16=1,25=1,30=1,70=2,71=2,116=1/1,2,3;
 4/5=101/1;
 5/5=2,98=1/2;
 8/6=3,8=1,10=1,19=11,30=-1/1;
 9/15=3,16=-3/6;
 11/6=1,8=1,15=11,17=12,24=-1,27=1,28=-2,29=300,32=6,42=3/1,2,10;
 10/6=2,21=1/2;
 8/6=4,8=1,10=1,19=11,30=-1/11,4;
 10/5=1,20=4/2;
 11/12=2,14=11,16=1,17=2,28=-2,42=3/2,10,12;
 6/7=2,8=2,9=2,10=2/1;
 7/8=11,10=1,12=2,25=1,44=2/1,2,3,16;
 1/10=4,30=1/3;
 99//99;
 Structure from the checkpoint file:  SCl2.chk
 -------------------
 Title Card Required
 -------------------
 Charge =  0 Multiplicity = 1
 Redundant internal coordinates found in file.
 S,0,0.,0.,-0.9874125864
 Cl,0,0.,1.7555989095,0.4706122782
 Cl,0,0.,-1.7555989095,0.4706122782
 Recover connectivity data from disk.

 GradGradGradGradGradGradGradGradGradGradGradGradGradGradGradGradGradGrad
 Berny optimization.
 Initialization pass.
                           ----------------------------
                           !    Initial Parameters    !
                           ! (Angstroms and Degrees)  !
 --------------------------                            --------------------------
 ! Name  Definition              Value          Derivative Info.                !
 --------------------------------------------------------------------------------
 ! R1    R(1,2)                  2.2821         calculate D2E/DX2 analytically  !
 ! R2    R(1,3)                  2.2821         calculate D2E/DX2 analytically  !
 ! A1    A(2,1,3)              100.5807         calculate D2E/DX2 analytically  !
 --------------------------------------------------------------------------------
 Trust Radius=3.00D-01 FncErr=1.00D-07 GrdErr=1.00D-07
 Number of steps in this run=      2 maximum allowed number of steps=      2.
 GradGradGradGradGradGradGradGradGradGradGradGradGradGradGradGradGradGrad

                          Input orientation:                          
 ---------------------------------------------------------------------
 Center     Atomic      Atomic             Coordinates (Angstroms)
 Number     Number       Type             X           Y           Z
 ---------------------------------------------------------------------
      1         16           0       -0.000000   -0.000000   -0.987413
      2         17           0       -0.000000    1.755599    0.470612
      3         17           0        0.000000   -1.755599    0.470612
 ---------------------------------------------------------------------
                    Distance matrix (angstroms):
                    1          2          3
     1  S    0.000000
     2  Cl   2.282096   0.000000
     3  Cl   2.282096   3.511198   0.000000
 Stoichiometry    Cl2S
 Framework group  C2V[C2(S),SGV(Cl2)]
 Deg. of freedom     2
 Full point group                 C2V     NOp   4
 Largest Abelian subgroup         C2V     NOp   4
 Largest concise Abelian subgroup C2      NOp   2
                         Standard orientation:                         
 ---------------------------------------------------------------------
 Center     Atomic      Atomic             Coordinates (Angstroms)
 Number     Number       Type             X           Y           Z
 ---------------------------------------------------------------------
      1         16           0       -0.000000    0.000000    0.991457
      2         17           0       -0.000000    1.755599   -0.466568
      3         17           0       -0.000000   -1.755599   -0.466568
 ---------------------------------------------------------------------
 Rotational constants (GHZ):     10.8348032      2.3445269      1.9274490
 Standard basis: 3-21G (6D, 7F)
 There are    17 symmetry adapted basis functions of A1  symmetry.
 There are     3 symmetry adapted basis functions of A2  symmetry.
 There are     6 symmetry adapted basis functions of B1  symmetry.
 There are    13 symmetry adapted basis functions of B2  symmetry.
 Integral buffers will be    131072 words long.
 Raffenetti 1 integral format.
 Two-electron integral symmetry is turned on.
    39 basis functions,    81 primitive gaussians,    39 cartesian basis functions
    25 alpha electrons       25 beta electrons
       nuclear repulsion energy       169.6994059705 Hartrees.
 NAtoms=    3 NActive=    3 NUniq=    2 SFac= 2.25D+00 NAtFMM=   60 NAOKFM=F Big=F
 One-electron integrals computed using PRISM.
 NBasis=    39 RedAO= T  NBF=    17     3     6    13
 NBsUse=    39 1.00D-06 NBFU=    17     3     6    13
 Initial guess read from the checkpoint file:  SCl2.chk
 B after Tr=    -0.000000    0.000000    0.000000
         Rot=    1.000000    0.000000    0.000000    0.000000 Ang=   0.00 deg.
 Initial guess orbital symmetries:
       Occupied  (B2) (A1) (A1) (B2) (A1) (A1) (B2) (A1) (B2) (A1)
                 (A2) (B1) (B2) (A1) (B1) (A1) (B2) (A1) (B2) (B1)
                 (A1) (A2) (B2) (A1) (B1)
       Virtual   (A1) (B2) (A1) (B1) (B2) (A1) (A1) (B2) (A2) (B1)
                 (A1) (B2) (A1) (B2)
 Requested convergence on RMS density matrix=1.00D-08 within 128 cycles.
 Requested convergence on MAX density matrix=1.00D-06.
 Requested convergence on             energy=1.00D-06.
 No special actions if energy rises.
 Keep R1 ints in memory in canonical form, NReq=1127913.
 SCF Done:  E(RHF) =  -1310.10453699     A.U. after    1 cycles
             Convg  =    0.7854D-09             -V/T =  2.0010
 ExpMin= 1.42D-01 ExpMax= 1.38D+03 ExpMxC= 1.38D+03 IAcc=3 IRadAn=         5 AccDes= 0.00D+00
 HarFok:  IExCor=  205 AccDes= 0.00D+00 IRadAn=         5 IDoV=-2
 ScaDFX=  1.000000  1.000000  1.000000  1.000000
 Range of M.O.s used for correlation:    16    39
 NBasis=    39 NAE=    25 NBE=    25 NFC=    15 NFV=     0
 NROrb=     24 NOA=    10 NOB=    10 NVA=    14 NVB=    14
 Disk-based method using ON**2 memory for 10 occupieds at a time.
 Permanent disk used for amplitudes=      149800 words.
 Estimated scratch disk usage=     1131226 words.
 Actual    scratch disk usage=     1131226 words.
 JobTyp=1 Pass  1:  I=  16 to  25 NPSUse=  1 ParTrn=F ParDer=F DoDerP=T.
 (rs|ai) integrals will be sorted in core.
 Spin components of T(2) and E(2):
     alpha-alpha T2 =       0.9186219650D-02 E2=     -0.1821826140D-01
     alpha-beta  T2 =       0.7560437240D-01 E2=     -0.1280750880D+00
     beta-beta   T2 =       0.9186219650D-02 E2=     -0.1821826140D-01
 ANorm=    0.1045933464D+01
 E2 =    -0.1645116108D+00 EUMP2 =    -0.13102690486048D+04
 G2DrvN: will do     4 centers at a time, making    1 passes doing MaxLOS=1.
 Calling FoFCou, ICntrl=  3107 FMM=F I1Cent=   0 AccDes= 0.00D+00.
 FoFDir/FoFCou used for L=0 through L=1.
 End of G2Drv Frequency-dependent properties file   721 does not exist.
 End of G2Drv Frequency-dependent properties file   722 does not exist.
          IDoAtm=111
          Differentiating once with respect to electric field.
                with respect to dipole field.
          Differentiating once with respect to nuclear coordinates.
          Keep R1 ints in memory in canonical form, NReq=1105282.
          There are    12 degrees of freedom in the 1st order CPHF.  IDoFFX=5.
      9 vectors produced by pass  0 Test12= 2.92D-15 8.33D-09 XBig12= 3.13D+01 3.46D+00.
 AX will form     9 AO Fock derivatives at one time.
      9 vectors produced by pass  1 Test12= 2.92D-15 8.33D-09 XBig12= 1.84D+00 6.86D-01.
      9 vectors produced by pass  2 Test12= 2.92D-15 8.33D-09 XBig12= 1.17D-01 1.17D-01.
      9 vectors produced by pass  3 Test12= 2.92D-15 8.33D-09 XBig12= 7.11D-04 8.79D-03.
      9 vectors produced by pass  4 Test12= 2.92D-15 8.33D-09 XBig12= 4.69D-06 6.85D-04.
      9 vectors produced by pass  5 Test12= 2.92D-15 8.33D-09 XBig12= 2.83D-08 7.43D-05.
      9 vectors produced by pass  6 Test12= 2.92D-15 8.33D-09 XBig12= 1.17D-10 3.51D-06.
      3 vectors produced by pass  7 Test12= 2.92D-15 8.33D-09 XBig12= 5.62D-13 1.91D-07.
      1 vectors produced by pass  8 Test12= 2.92D-15 8.33D-09 XBig12= 2.81D-15 2.12D-08.
 Inverted reduced A of dimension    67 with in-core refinement.
 End of Minotr Frequency-dependent properties file   721 does not exist.
 End of Minotr Frequency-dependent properties file   722 does not exist.
 MDV=    33554432.
 Form MO integral derivatives with frozen-active canonical formalism.
 Discarding MO integrals.
 Reordered first order wavefunction length =       245000
 In DefCFB: NBatch=  1 ICI= 25 ICA= 14 LFMax= 25
            Large arrays: LIAPS=     2129400 LIARS=     1242150 words.
 Semi-Direct transformation.
 ModeAB=           4 MOrb=            25 LenV=      33427601
 LASXX=       331800 LTotXX=      331800 LenRXX=      744550
 LTotAB=      412750 MaxLAS=      454350 LenRXY=           0
 NonZer=     1076350 LenScr=     2357760 LnRSAI=      454350
 LnScr1=     1362944 LExtra=           0 Total=      4919604
 MaxDsk=          -1 SrtSym=           T ITran=            4
 JobTyp=0 Pass  1:  I=   1 to  25.
 (rs|ai) integrals will be sorted in core.
 Spin components of T(2) and E(2):
     alpha-alpha T2 =       0.9186219650D-02 E2=     -0.1821826140D-01
     alpha-beta  T2 =       0.7560437240D-01 E2=     -0.1280750880D+00
     beta-beta   T2 =       0.9186219650D-02 E2=     -0.1821826140D-01
 ANorm=    0.1479173291D+01
 E2 =    -0.1645116108D+00 EUMP2 =    -0.13102690486048D+04
          IDoAtm=111
          Differentiating once with respect to electric field.
                with respect to dipole field.
          Differentiating once with respect to nuclear coordinates.
          There are     1 degrees of freedom in the 1st order CPHF.  IDoFFX=0.
 LinEq1:  Iter=  0 NonCon=     1 RMS=8.64D-03 Max=8.36D-02
 LinEq1:  Iter=  1 NonCon=     1 RMS=3.19D-03 Max=3.82D-02
 LinEq1:  Iter=  2 NonCon=     1 RMS=8.07D-04 Max=5.67D-03
 LinEq1:  Iter=  3 NonCon=     1 RMS=1.27D-04 Max=9.94D-04
 LinEq1:  Iter=  4 NonCon=     1 RMS=2.66D-05 Max=2.77D-04
 LinEq1:  Iter=  5 NonCon=     1 RMS=6.32D-06 Max=5.91D-05
 LinEq1:  Iter=  6 NonCon=     1 RMS=1.13D-06 Max=1.16D-05
 LinEq1:  Iter=  7 NonCon=     1 RMS=1.83D-07 Max=1.64D-06
 LinEq1:  Iter=  8 NonCon=     1 RMS=2.73D-08 Max=1.94D-07
 LinEq1:  Iter=  9 NonCon=     1 RMS=3.20D-09 Max=2.04D-08
 LinEq1:  Iter= 10 NonCon=     1 RMS=2.33D-10 Max=1.44D-09
 LinEq1:  Iter= 11 NonCon=     0 RMS=1.99D-11 Max=1.28D-10
 Linear equations converged to 1.000D-10 1.000D-09 after    11 iterations.
 End of Minotr Frequency-dependent properties file   721 does not exist.
 End of Minotr Frequency-dependent properties file   722 does not exist.
 Symmetrizing basis deriv contribution to polar:
 IMax=3 JMax=2 DiffMx= 0.00D+00
 G2DrvN: will do     4 centers at a time, making    1 passes doing MaxLOS=1.
 Calling FoFCou, ICntrl=  3107 FMM=F I1Cent=   0 AccDes= 0.00D+00.
 FoFDir/FoFCou used for L=0 through L=1.
 End of G2Drv Frequency-dependent properties file   721 does not exist.
 End of G2Drv Frequency-dependent properties file   722 does not exist.
 R2 and R3 integrals will be kept in memory, NReq=     1409180.
 DD1Dir will call FoFMem   1 times, MxPair=       650
 NAB=   325 NAA=     0 NBB=     0.
 Discarding MO integrals.

 **********************************************************************

            Population analysis using the SCF density.

 **********************************************************************

 Orbital symmetries:
       Occupied  (B2) (A1) (A1) (B2) (A1) (A1) (B2) (A1) (B2) (A1)
                 (A2) (B1) (B2) (A1) (B1) (A1) (B2) (A1) (B2) (B1)
                 (A1) (A2) (B2) (A1) (B1)
       Virtual   (A1) (B2) (A1) (B1) (B2) (A1) (A1) (B2) (A2) (B1)
                 (A1) (B2) (A1) (B2)
 The electronic state is 1-A1.
 Alpha  occ. eigenvalues -- -104.16071-104.16060 -91.47426 -10.55068 -10.55030
 Alpha  occ. eigenvalues --   -9.06167  -8.01415  -8.01393  -8.00969  -8.00943
 Alpha  occ. eigenvalues --   -8.00930  -8.00928  -6.73472  -6.73322  -6.72915
 Alpha  occ. eigenvalues --   -1.15437  -1.10590  -0.94232  -0.55454  -0.54659
 Alpha  occ. eigenvalues --   -0.54382  -0.50058  -0.48197  -0.47923  -0.43113
 Alpha virt. eigenvalues --   -0.05051  -0.02723   0.55681   0.64152   0.64767
 Alpha virt. eigenvalues --    0.64996   0.72769   0.72804   0.78506   0.79889
 Alpha virt. eigenvalues --    0.82717   0.83738   0.86390   0.96754
          Condensed to atoms (all electrons):
              1          2          3
     1  S   15.527259   0.096632   0.096632
     2  Cl   0.096632  17.067692  -0.024584
     3  Cl   0.096632  -0.024584  17.067692
 Mulliken atomic charges:
              1
     1  S    0.279478
     2  Cl  -0.139739
     3  Cl  -0.139739
 Sum of Mulliken atomic charges =  -0.00000
 Mulliken charges with hydrogens summed into heavy atoms:
              1
     1  S    0.279478
     2  Cl  -0.139739
     3  Cl  -0.139739
 Sum of Mulliken charges with hydrogens summed into heavy atoms =  -0.00000
 APT atomic charges:
              1
     1  S    0.378160
     2  Cl  -0.189080
     3  Cl  -0.189080
 Sum of APT charges=  -0.00000
 APT Atomic charges with hydrogens summed into heavy atoms:
              1
     1  S    0.378160
     2  Cl  -0.189080
     3  Cl  -0.189080
 Sum of APT charges=  -0.00000
 Electronic spatial extent (au):  <R**2>=            545.6066
 Charge=             -0.0000 electrons
 Dipole moment (field-independent basis, Debye):
    X=              0.0000    Y=              0.0000    Z=              1.5400  Tot=              1.5400
 Quadrupole moment (field-independent basis, Debye-Ang):
   XX=            -40.8055   YY=            -41.0946   ZZ=            -37.5266
   XY=             -0.0000   XZ=             -0.0000   YZ=              0.0000
 Traceless Quadrupole moment (field-independent basis, Debye-Ang):
   XX=             -0.9966   YY=             -1.2857   ZZ=              2.2823
   XY=             -0.0000   XZ=             -0.0000   YZ=              0.0000
 Octapole moment (field-independent basis, Debye-Ang**2):
  XXX=              0.0000  YYY=              0.0000  ZZZ=              0.5400  XYY=              0.0000
  XXY=             -0.0000  XXZ=             -1.6722  XZZ=              0.0000  YZZ=             -0.0000
  YYZ=             -1.5721  XYZ=              0.0000
 Hexadecapole moment (field-independent basis, Debye-Ang**3):
 XXXX=            -48.6267 YYYY=           -515.3064 ZZZZ=           -145.3207 XXXY=             -0.0000
 XXXZ=             -0.0000 YYYX=             -0.0000 YYYZ=              0.0000 ZZZX=             -0.0000
 ZZZY=              0.0000 XXYY=            -97.3402 XXZZ=            -35.2409 YYZZ=           -103.8463
 XXYZ=              0.0000 YYXZ=             -0.0000 ZZXY=             -0.0000
 N-N= 1.696994059705D+02 E-N=-3.458445029875D+03  KE= 1.308760197507D+03
 Symmetry A1   KE= 7.315412921935D+02
 Symmetry A2   KE= 4.539057717800D+01
 Symmetry B1   KE= 8.401271405139D+01
 Symmetry B2   KE= 4.478156140837D+02
  Exact polarizability:   8.098   0.000  64.131   0.000   0.000  36.044
 Approx polarizability:   6.138   0.000  60.289   0.000  -0.000  39.393
 Calling FoFJK, ICntrl=    100127 FMM=F ISym2X=1 I1Cent= 0 IOpClX= 0 NMat=1 NMatS=1 NMatT=0.
 Full mass-weighted force constant matrix:
 Low frequencies ---   -5.8919   -3.6662   -2.9733    0.0021    0.0028    0.0059
 Low frequencies ---  143.6198  413.2675  425.1794
 Harmonic frequencies (cm**-1), IR intensities (KM/Mole), Raman scattering
 activities (A**4/AMU), depolarization ratios for plane and unpolarized
 incident light, reduced masses (AMU), force constants (mDyne/A),
 and normal coordinates:
                           1         2         3
                          A1        A1        B2
       Frequencies ---   143.6198  413.2675  425.1794
    Reduced masses ---    34.3546   33.4168   33.2125
   Force constants ---     0.4175    3.3626    3.5375
    IR Intensities ---     0.6488    4.4934   18.9675
 Coord Atom Element:
   1     1    16         -0.00000   0.00000   0.00000
   2     1    16          0.00000   0.00000   0.76556
   3     1    16         -0.45273   0.71966  -0.00000
   1     2    17          0.00000  -0.00000  -0.00000
   2     2    17          0.59555   0.36443  -0.34997
   3     2    17          0.20697  -0.32899   0.29065
   1     3    17         -0.00000  -0.00000  -0.00000
   2     3    17         -0.59555  -0.36443  -0.34997
   3     3    17          0.20697  -0.32899  -0.29065
 Harmonic frequencies (cm**-1), IR intensities (KM/Mole), Raman scattering
 activities (A**4/AMU), depolarization ratios for plane and unpolarized
 incident light, reduced masses (AMU), force constants (mDyne/A),
 and normal coordinates:
                     1                      2                      3
                    A1                     A1                     B2
 Frequencies --   143.6198               413.2675               425.1794
 Red. masses --    34.3546                33.4168                33.2125
 Frc consts  --     0.4175                 3.3626                 3.5375
 IR Inten    --     0.6488                 4.4934                18.9675
  Atom  AN      X      Y      Z        X      Y      Z        X      Y      Z
     1  16    -0.00   0.00  -0.45     0.00   0.00   0.72     0.00   0.77  -0.00
     2  17     0.00   0.60   0.21    -0.00   0.36  -0.33    -0.00  -0.35   0.29
     3  17    -0.00  -0.60   0.21    -0.00  -0.36  -0.33    -0.00  -0.35  -0.29

 -------------------
 - Thermochemistry -
 -------------------
 Temperature   298.150 Kelvin.  Pressure   1.00000 Atm.
 Atom     1 has atomic number 16 and mass  31.97207
 Atom     2 has atomic number 17 and mass  34.96885
 Atom     3 has atomic number 17 and mass  34.96885
 Molecular mass:   101.90978 amu.
 Principal axes and moments of inertia in atomic units:
                           1         2         3
     Eigenvalues --   166.56890 769.76777 936.33666
           X            0.00000   0.00000   1.00000
           Y            1.00000   0.00000   0.00000
           Z            0.00000   1.00000   0.00000
 This molecule is an asymmetric top.
 Rotational symmetry number  2.
 Rotational temperatures (Kelvin)      0.51999     0.11252     0.09250
 Rotational constants (GHZ):          10.83480     2.34453     1.92745
 Zero-point vibrational energy       5874.1 (Joules/Mol)
                                    1.40393 (Kcal/Mol)
 Warning -- explicit consideration of   3 degrees of freedom as
           vibrations may cause significant error
 Vibrational temperatures:    206.64   594.60   611.74
          (Kelvin)
 
 Zero-point correction=                           0.002237 (Hartree/Particle)
 Thermal correction to Energy=                    0.006307
 Thermal correction to Enthalpy=                  0.007251
 Thermal correction to Gibbs Free Energy=        -0.025642
 Sum of electronic and zero-point Energies=          -1310.266811
 Sum of electronic and thermal Energies=             -1310.262742
 Sum of electronic and thermal Enthalpies=           -1310.261798
 Sum of electronic and thermal Free Energies=        -1310.294691
 
                     E (Thermal)             CV                S
                      KCal/Mol        Cal/Mol-Kelvin    Cal/Mol-Kelvin
 Total                    3.958             10.728             69.229
 Electronic               0.000              0.000              0.000
 Translational            0.889              2.981             39.774
 Rotational               0.889              2.981             24.910
 Vibrational              2.180              4.766              4.545
 Vibration     1          0.616              1.910              2.755
 Vibration     2          0.777              1.441              0.915
 Vibration     3          0.787              1.415              0.875
                       Q            Log10(Q)             Ln(Q)
 Total Bot       0.623077D+12         11.794542         27.157936
 Total V=0       0.666242D+13         12.823632         29.527504
 Vib (Bot)       0.248458D+00         -0.604746         -1.392480
 Vib (Bot)    1  0.141439D+01          0.150570          0.346700
 Vib (Bot)    2  0.427057D+00         -0.369514         -0.850838
 Vib (Bot)    3  0.411337D+00         -0.385802         -0.888342
 Vib (V=0)       0.265671D+01          0.424344          0.977088
 Vib (V=0)    1  0.200017D+01          0.301067          0.693232
 Vib (V=0)    2  0.115755D+01          0.063541          0.146309
 Vib (V=0)    3  0.114746D+01          0.059736          0.137547
 Electronic      0.100000D+01          0.000000          0.000000
 Translational   0.404370D+08          7.606779         17.515256
 Rotational      0.620168D+05          4.792509         11.035160
 ***** Axes restored to original set *****
 -------------------------------------------------------------------
 Center     Atomic                   Forces (Hartrees/Bohr)
 Number     Number              X              Y              Z
 -------------------------------------------------------------------
      1       16           0.000000000   -0.000000000   -0.000079404
      2       17           0.000000000    0.000038795    0.000039702
      3       17          -0.000000000   -0.000038795    0.000039702
 -------------------------------------------------------------------
 Cartesian Forces:  Max     0.000079404 RMS     0.000037219

 GradGradGradGradGradGradGradGradGradGradGradGradGradGradGradGradGradGrad
 Berny optimization.
 Internal  Forces:  Max     0.000055210 RMS     0.000047302
 Search for a local minimum.
 Step number   1 out of a maximum of    2
 All quantities printed in internal units (Hartrees-Bohrs-Radians)
 Second derivative matrix not updated -- analytic derivatives used.
 The second derivative matrix:
                          R1        R2        A1
           R1           0.11200
           R2           0.00773   0.11200
           A1           0.01094   0.01094   0.15244
 ITU=  0
     Eigenvalues ---    0.10426   0.11357   0.15860
 Angle between quadratic step and forces=   1.15 degrees.
 Linear search not attempted -- first point.
 Iteration  1 RMS(Cart)=  0.00032943 RMS(Int)=  0.00000002
 Iteration  2 RMS(Cart)=  0.00000005 RMS(Int)=  0.00000000
 ClnCor:  largest displacement from symmetrization is 1.93D-14 for atom     3.
 Variable       Old X    -DE/DX   Delta X   Delta X   Delta X     New X
                                 (Linear)    (Quad)   (Total)
    R1        4.31254   0.00006   0.00000   0.00048   0.00048   4.31302
    R2        4.31254   0.00006   0.00000   0.00048   0.00048   4.31302
    A1        1.75547  -0.00002   0.00000  -0.00023  -0.00023   1.75523
         Item               Value     Threshold  Converged?
 Maximum Force            0.000055     0.000450     YES
 RMS     Force            0.000047     0.000300     YES
 Maximum Displacement     0.000462     0.001800     YES
 RMS     Displacement     0.000329     0.001200     YES
 Predicted change in Energy=-2.951106D-08
 Optimization completed.
    -- Stationary point found.
                           ----------------------------
                           !   Optimized Parameters   !
                           ! (Angstroms and Degrees)  !
 --------------------------                            --------------------------
 ! Name  Definition              Value          Derivative Info.                !
 --------------------------------------------------------------------------------
 ! R1    R(1,2)                  2.2821         -DE/DX =    0.0001              !
 ! R2    R(1,3)                  2.2821         -DE/DX =    0.0001              !
 ! A1    A(2,1,3)              100.5807         -DE/DX =    0.0                 !
 --------------------------------------------------------------------------------
 GradGradGradGradGradGradGradGradGradGradGradGradGradGradGradGradGradGrad

 1\1\GINC-SRU01\Freq\RMP2-FC\3-21G\Cl2S1\JAMES\27-Aug-2023\0\\#N Geom=A
 llCheck Guess=TCheck SCRF=Check GenChk RMP2(FC)/3-21G Freq\\Title Card
  Required\\0,1\S,0.,0.,-0.9874125864\Cl,0.,1.7555989095,0.4706122782\C
 l,0.,-1.7555989095,0.4706122782\\Version=AM64L-G09RevC.01\State=1-A1\H
 F=-1310.104537\MP2=-1310.2690486\RMSD=7.854e-10\RMSF=3.722e-05\ZeroPoi
 nt=0.0022373\Thermal=0.0063067\Dipole=0.,0.,-0.4868575\DipoleDeriv=0.1
 767006,0.,0.,0.,0.6238489,0.,0.,0.,0.3339317,-0.0883503,0.,0.,0.,-0.31
 19245,-0.0580081,0.,-0.1856783,-0.1669658,-0.0883503,0.,0.,0.,-0.31192
 45,0.0580081,0.,0.1856783,-0.1669658\Polar=8.0976514,0.,64.13134,0.,0.
 ,36.0439888\PG=C02V [C2(S1),SGV(Cl2)]\NImag=0\\-0.00002883,0.,0.123395
 90,0.,0.,0.10715691,0.00001441,0.,0.,-0.00001306,0.,-0.06169795,-0.049
 86364,0.,0.07211442,0.,-0.05125211,-0.05357845,0.,0.05055788,0.0480658
 2,0.00001441,0.,0.,-0.00000136,0.,0.,-0.00001306,0.,-0.06169795,0.0498
 6364,0.,-0.01041647,0.00069424,0.,0.07211442,0.,0.05125211,-0.05357845
 ,0.,-0.00069424,0.00551264,0.,-0.05055788,0.04806582\\0.,0.,0.00007940
 ,0.,-0.00003879,-0.00003970,0.,0.00003879,-0.00003970\\\@


 O WAD SOME POWER THE GIFTIE GIE US       
 TO SEE OURSELS AS OTHERS SEE US.....     
 IT WOULD FRAE MONIE A BLUNDER FREE US,   
                     AND FOOLISH NOTION...
 WHAT AIRS IN DRESS AND GAIT WAD LEA'E US,
                     AND EV'N DEVOTION....
                                          
              (ROBERT BURNS 'TO A LOUSE') 
 Job cpu time:  0 days  0 hours  0 minutes  3.2 seconds.
 File lengths (MBytes):  RWF=     46 Int=      0 D2E=      0 Chk=      2 Scr=      1
 Normal termination of Gaussian 09 at Sun Aug 27 21:56:37 2023.
