 Entering Gaussian System, Link 0=g09
 Input=/home/nat/SnH4/SnH4.com
 Output=/home/nat/SnH4/SnH4.log
 Initial command:
 /usr/local/g09/l1.exe /scratch/nat/Gau-3923.inp -scrdir=/scratch/nat/
 Entering Link 1 = /usr/local/g09/l1.exe PID=      3925.
  
 Copyright (c) 1988,1990,1992,1993,1995,1998,2003,2009,2011,
            Gaussian, Inc.  All Rights Reserved.
  
 This is part of the Gaussian(R) 09 program.  It is based on
 the Gaussian(R) 03 system (copyright 2003, Gaussian, Inc.),
 the Gaussian(R) 98 system (copyright 1998, Gaussian, Inc.),
 the Gaussian(R) 94 system (copyright 1995, Gaussian, Inc.),
 the Gaussian 92(TM) system (copyright 1992, Gaussian, Inc.),
 the Gaussian 90(TM) system (copyright 1990, Gaussian, Inc.),
 the Gaussian 88(TM) system (copyright 1988, Gaussian, Inc.),
 the Gaussian 86(TM) system (copyright 1986, Carnegie Mellon
 University), and the Gaussian 82(TM) system (copyright 1983,
 Carnegie Mellon University). Gaussian is a federally registered
 trademark of Gaussian, Inc.
  
 This software contains proprietary and confidential information,
 including trade secrets, belonging to Gaussian, Inc.
  
 This software is provided under written license and may be
 used, copied, transmitted, or stored only in accord with that
 written license.
  
 The following legend is applicable only to US Government
 contracts under FAR:
  
                    RESTRICTED RIGHTS LEGEND
  
 Use, reproduction and disclosure by the US Government is
 subject to restrictions as set forth in subparagraphs (a)
 and (c) of the Commercial Computer Software - Restricted
 Rights clause in FAR 52.227-19.
  
 Gaussian, Inc.
 340 Quinnipiac St., Bldg. 40, Wallingford CT 06492
  
  
 ---------------------------------------------------------------
 Warning -- This program may not be used in any manner that
 competes with the business of Gaussian, Inc. or will provide
 assistance to any competitor of Gaussian, Inc.  The licensee
 of this program is prohibited from giving any competitor of
 Gaussian, Inc. access to this program.  By using this program,
 the user acknowledges that Gaussian, Inc. is engaged in the
 business of creating and licensing software in the field of
 computational chemistry and represents and warrants to the
 licensee that it is not a competitor of Gaussian, Inc. and that
 it will not use this program in any manner prohibited above.
 ---------------------------------------------------------------
  

 Cite this work as:
 Gaussian 09, Revision C.01,
 M. J. Frisch, G. W. Trucks, H. B. Schlegel, G. E. Scuseria, 
 M. A. Robb, J. R. Cheeseman, G. Scalmani, V. Barone, B. Mennucci, 
 G. A. Petersson, H. Nakatsuji, M. Caricato, X. Li, H. P. Hratchian, 
 A. F. Izmaylov, J. Bloino, G. Zheng, J. L. Sonnenberg, M. Hada, 
 M. Ehara, K. Toyota, R. Fukuda, J. Hasegawa, M. Ishida, T. Nakajima, 
 Y. Honda, O. Kitao, H. Nakai, T. Vreven, J. A. Montgomery, Jr., 
 J. E. Peralta, F. Ogliaro, M. Bearpark, J. J. Heyd, E. Brothers, 
 K. N. Kudin, V. N. Staroverov, T. Keith, R. Kobayashi, J. Normand, 
 K. Raghavachari, A. Rendell, J. C. Burant, S. S. Iyengar, J. Tomasi, 
 M. Cossi, N. Rega, J. M. Millam, M. Klene, J. E. Knox, J. B. Cross, 
 V. Bakken, C. Adamo, J. Jaramillo, R. Gomperts, R. E. Stratmann, 
 O. Yazyev, A. J. Austin, R. Cammi, C. Pomelli, J. W. Ochterski, 
 R. L. Martin, K. Morokuma, V. G. Zakrzewski, G. A. Voth, 
 P. Salvador, J. J. Dannenberg, S. Dapprich, A. D. Daniels, 
 O. Farkas, J. B. Foresman, J. V. Ortiz, J. Cioslowski, 
 and D. J. Fox, Gaussian, Inc., Wallingford CT, 2010.
 
 ******************************************
 Gaussian 09:  AM64L-G09RevC.01 23-Sep-2011
                21-Jun-2023 
 ******************************************
 %chk=SnH4.chk
 ----------------------------------------------
 # opt freq=hpmodes mp2/3-21g geom=connectivity
 ----------------------------------------------
 1/18=20,19=15,38=1,57=2/1,3;
 2/9=110,12=2,17=6,18=5,40=1/2;
 3/5=5,11=9,16=1,25=1,30=1,71=1/1,2,3;
 4//1;
 5/5=2,38=5/2;
 8/6=4,10=1/1;
 9/15=2,16=-3/6;
 10/5=1/2;
 6/7=2,8=2,9=2,10=2/1;
 7/12=2/1,2,3,16;
 1/18=20,19=15/3(2);
 2/9=110/2;
 99//99;
 2/9=110/2;
 3/5=5,11=9,16=1,25=1,30=1,71=1/1,2,3;
 4/5=5,16=3/1;
 5/5=2,38=5/2;
 8/6=4,10=1/1;
 9/15=2,16=-3/6;
 10/5=1/2;
 7/12=2/1,2,3,16;
 1/18=20,19=15/3(-8);
 2/9=110/2;
 6/7=2,8=2,9=2,10=2/1;
 99//99;
 -------------------
 Title Card Required
 -------------------
 Charge =  0 Multiplicity = 1
 Symbolic Z-Matrix:
 Sn                   -0.40441   0.55147   0. 
 H                     0.16224  -1.05131   0. 
 H                     0.16226   1.35285   1.38804 
 H                     0.16226   1.35285  -1.38804 
 H                    -2.10441   0.55149   0. 
 

 GradGradGradGradGradGradGradGradGradGradGradGradGradGradGradGradGradGrad
 Berny optimization.
 Initialization pass.
                           ----------------------------
                           !    Initial Parameters    !
                           ! (Angstroms and Degrees)  !
 --------------------------                            --------------------------
 ! Name  Definition              Value          Derivative Info.                !
 --------------------------------------------------------------------------------
 ! R1    R(1,2)                  1.7            estimate D2E/DX2                !
 ! R2    R(1,3)                  1.7            estimate D2E/DX2                !
 ! R3    R(1,4)                  1.7            estimate D2E/DX2                !
 ! R4    R(1,5)                  1.7            estimate D2E/DX2                !
 ! A1    A(2,1,3)              109.4712         estimate D2E/DX2                !
 ! A2    A(2,1,4)              109.4712         estimate D2E/DX2                !
 ! A3    A(2,1,5)              109.4712         estimate D2E/DX2                !
 ! A4    A(3,1,4)              109.4713         estimate D2E/DX2                !
 ! A5    A(3,1,5)              109.4712         estimate D2E/DX2                !
 ! A6    A(4,1,5)              109.4712         estimate D2E/DX2                !
 ! D1    D(2,1,4,3)           -120.0            estimate D2E/DX2                !
 ! D2    D(2,1,5,3)            120.0            estimate D2E/DX2                !
 ! D3    D(2,1,5,4)           -120.0            estimate D2E/DX2                !
 ! D4    D(3,1,5,4)            120.0            estimate D2E/DX2                !
 --------------------------------------------------------------------------------
 Trust Radius=3.00D-01 FncErr=1.00D-07 GrdErr=1.00D-07
 Number of steps in this run=     24 maximum allowed number of steps=    100.
 GradGradGradGradGradGradGradGradGradGradGradGradGradGradGradGradGradGrad

                          Input orientation:                          
 ---------------------------------------------------------------------
 Center     Atomic      Atomic             Coordinates (Angstroms)
 Number     Number       Type             X           Y           Z
 ---------------------------------------------------------------------
      1         50           0       -0.404412    0.551471    0.000000
      2          1           0        0.162235   -1.051312    0.000000
      3          1           0        0.162265    1.352851    1.388044
      4          1           0        0.162265    1.352851   -1.388044
      5          1           0       -2.104412    0.551492    0.000000
 ---------------------------------------------------------------------
                    Distance matrix (angstroms):
                    1          2          3          4          5
     1  Sn   0.000000
     2  H    1.700000   0.000000
     3  H    1.700000   2.776088   0.000000
     4  H    1.700000   2.776088   2.776089   0.000000
     5  H    1.700000   2.776089   2.776088   2.776088   0.000000
 Stoichiometry    H4Sn
 Framework group  T[O(Sn),4C3(H)]
 Deg. of freedom     1
 Full point group                 T       NOp  12
 Largest Abelian subgroup         D2      NOp   4
 Largest concise Abelian subgroup D2      NOp   4
                         Standard orientation:                         
 ---------------------------------------------------------------------
 Center     Atomic      Atomic             Coordinates (Angstroms)
 Number     Number       Type             X           Y           Z
 ---------------------------------------------------------------------
      1         50           0        0.000000    0.000000    0.000000
      2          1           0        0.981495    0.981495    0.981495
      3          1           0       -0.981495    0.981495   -0.981495
      4          1           0        0.981495   -0.981495   -0.981495
      5          1           0       -0.981495   -0.981495    0.981495
 ---------------------------------------------------------------------
 Rotational constants (GHZ):     65.0677041     65.0677041     65.0677041
 Standard basis: 3-21G (6D, 7F)
 There are    14 symmetry adapted basis functions of A   symmetry.
 There are     9 symmetry adapted basis functions of B1  symmetry.
 There are     9 symmetry adapted basis functions of B2  symmetry.
 There are     9 symmetry adapted basis functions of B3  symmetry.
 Integral buffers will be    131072 words long.
 Raffenetti 1 integral format.
 Two-electron integral symmetry is turned on.
    41 basis functions,    99 primitive gaussians,    41 cartesian basis functions
    27 alpha electrons       27 beta electrons
       nuclear repulsion energy        63.3998609062 Hartrees.
 NAtoms=    5 NActive=    5 NUniq=    2 SFac= 4.00D+00 NAtFMM=   60 NAOKFM=F Big=F
 One-electron integrals computed using PRISM.
 NBasis=    41 RedAO= T  NBF=    14     9     9     9
 NBsUse=    41 1.00D-06 NBFU=    14     9     9     9
 Harris functional with IExCor=  205 diagonalized for initial guess.
 ExpMin= 7.06D-02 ExpMax= 1.27D+04 ExpMxC= 1.27D+04 IAcc=2 IRadAn=         4 AccDes= 0.00D+00
 HarFok:  IExCor=  205 AccDes= 0.00D+00 IRadAn=         4 IDoV= 1
 ScaDFX=  1.000000  1.000000  1.000000  1.000000
 Defaulting to unpruned grid for atomic number  50.
 FoFCou: FMM=F IPFlag=           0 FMFlag=      100000 FMFlg1=           0
         NFxFlg=           0 DoJE=T BraDBF=F KetDBF=T FulRan=T
         Omega=  0.000000  0.000000  1.000000  0.000000  0.000000 ICntrl=     500 IOpCl=  0
         NMat0=    1 NMatS0=    1 NMatT0=    0 NMatD0=    1 NMtDS0=    0 NMtDT0=    0
         I1Cent=           4 NGrid=           0.
 Petite list used in FoFCou.
 Initial guess orbital symmetries:
       Occupied  (A) (A) (T) (T) (T) (A) (T) (T) (T) (T) (T) (T)
                 (E) (E) (A) (T) (T) (T) (T) (T) (T) (E) (E) (A)
                 (T) (T) (T)
       Virtual   (T) (T) (T) (A) (A) (T) (T) (T) (T) (T) (T) (A)
                 (A) (A)
 The electronic state of the initial guess is 1-A.
 Requested convergence on RMS density matrix=1.00D-08 within 128 cycles.
 Requested convergence on MAX density matrix=1.00D-06.
 Requested convergence on             energy=1.00D-06.
 No special actions if energy rises.
 Keep R1 ints in memory in canonical form, NReq=1215152.
 SCF Done:  E(RHF) =  -5998.95154365     A.U. after    8 cycles
             Convg  =    0.4703D-08             -V/T =  2.0030
 ExpMin= 7.06D-02 ExpMax= 1.27D+04 ExpMxC= 1.27D+04 IAcc=3 IRadAn=         5 AccDes= 0.00D+00
 HarFok:  IExCor=  205 AccDes= 0.00D+00 IRadAn=         5 IDoV=-2
 ScaDFX=  1.000000  1.000000  1.000000  1.000000
 Defaulting to unpruned grid for atomic number  50.
 Range of M.O.s used for correlation:    19    41
 NBasis=    41 NAE=    27 NBE=    27 NFC=    18 NFV=     0
 NROrb=     23 NOA=     9 NOB=     9 NVA=    14 NVB=    14

 **** Warning!!: The largest alpha MO coefficient is  0.21240108D+02

 Fully direct method using O(ONN) memory.
 JobTyp=1 Pass  1:  I=  19 to  27 NPSUse=  1 ParTrn=F ParDer=F DoDerP=T.
 Spin components of T(2) and E(2):
     alpha-alpha T2 =       0.1205808373D-02 E2=     -0.2298133260D-02
     alpha-beta  T2 =       0.2896543990D-01 E2=     -0.5609066102D-01
     beta-beta   T2 =       0.1205808373D-02 E2=     -0.2298133260D-02
 ANorm=    0.1015567357D+01
 E2 =    -0.6068692754D-01 EUMP2 =    -0.59990122305759D+04
          IDoAtm=11111
          Differentiating once with respect to electric field.
                with respect to dipole field.
          Differentiating once with respect to nuclear coordinates.
          Keep R1 ints in memory in canonical form, NReq=1192049.
          There are     1 degrees of freedom in the 1st order CPHF.  IDoFFX=0.
 LinEq1:  Iter=  0 NonCon=     1 RMS=3.14D-03 Max=2.79D-02
 AX will form     1 AO Fock derivatives at one time.
 LinEq1:  Iter=  1 NonCon=     1 RMS=2.79D-04 Max=2.18D-03
 LinEq1:  Iter=  2 NonCon=     1 RMS=2.44D-05 Max=2.15D-04
 LinEq1:  Iter=  3 NonCon=     1 RMS=3.38D-06 Max=4.59D-05
 LinEq1:  Iter=  4 NonCon=     1 RMS=1.17D-07 Max=1.75D-06
 LinEq1:  Iter=  5 NonCon=     1 RMS=5.55D-09 Max=5.64D-08
 LinEq1:  Iter=  6 NonCon=     1 RMS=1.71D-10 Max=1.19D-09
 LinEq1:  Iter=  7 NonCon=     0 RMS=1.55D-11 Max=1.17D-10
 Linear equations converged to 1.000D-10 1.000D-09 after     7 iterations.
 End of Minotr Frequency-dependent properties file   721 does not exist.
 End of Minotr Frequency-dependent properties file   722 does not exist.

 **********************************************************************

            Population analysis using the SCF density.

 **********************************************************************

 Orbital symmetries:
       Occupied  (A) (A) (T) (T) (T) (A) (T) (T) (T) (T) (T) (T)
                 (E) (E) (A) (T) (T) (T) (T) (T) (T) (E) (E) (A)
                 (T) (T) (T)
       Virtual   (T) (T) (T) (A) (A) (T) (T) (T) (T) (T) (T) (A)
                 (A) (A)
 The electronic state is 1-A.
 Alpha  occ. eigenvalues -- **********-156.23813-145.38683-145.38683-145.38683
 Alpha  occ. eigenvalues --  -31.53217 -26.90938 -26.90938 -26.90938 -19.07380
 Alpha  occ. eigenvalues --  -19.07380 -19.07380 -19.07355 -19.07355  -5.54065
 Alpha  occ. eigenvalues --   -3.92497  -3.92497  -3.92497  -1.41103  -1.41103
 Alpha  occ. eigenvalues --   -1.41103  -1.40614  -1.40614  -0.66814  -0.44682
 Alpha  occ. eigenvalues --   -0.44682  -0.44682
 Alpha virt. eigenvalues --    0.15349   0.15349   0.15349   0.24277   0.30379
 Alpha virt. eigenvalues --    0.37428   0.37428   0.37428   1.32353   1.32353
 Alpha virt. eigenvalues --    1.32353   1.35364   2.98444 210.85153
          Condensed to atoms (all electrons):
              1          2          3          4          5
     1  Sn  47.720084   0.344050   0.344050   0.344050   0.344050
     2  H    0.344050   0.907040  -0.008387  -0.008387  -0.008387
     3  H    0.344050  -0.008387   0.907040  -0.008387  -0.008387
     4  H    0.344050  -0.008387  -0.008387   0.907040  -0.008387
     5  H    0.344050  -0.008387  -0.008387  -0.008387   0.907040
 Mulliken atomic charges:
              1
     1  Sn   0.903714
     2  H   -0.225929
     3  H   -0.225929
     4  H   -0.225929
     5  H   -0.225929
 Sum of Mulliken atomic charges =   0.00000
 Mulliken charges with hydrogens summed into heavy atoms:
              1
     1  Sn   0.000000
 Sum of Mulliken charges with hydrogens summed into heavy atoms =   0.00000
 Electronic spatial extent (au):  <R**2>=            111.3615
 Charge=             -0.0000 electrons
 Dipole moment (field-independent basis, Debye):
    X=             -0.0000    Y=             -0.0000    Z=             -0.0000  Tot=              0.0000
 Quadrupole moment (field-independent basis, Debye-Ang):
   XX=            -31.4200   YY=            -31.4200   ZZ=            -31.4200
   XY=              0.0000   XZ=             -0.0000   YZ=             -0.0000
 Traceless Quadrupole moment (field-independent basis, Debye-Ang):
   XX=             -0.0000   YY=             -0.0000   ZZ=              0.0000
   XY=              0.0000   XZ=             -0.0000   YZ=             -0.0000
 Octapole moment (field-independent basis, Debye-Ang**2):
  XXX=              0.0000  YYY=              0.0000  ZZZ=             -0.0000  XYY=              0.0000
  XXY=             -0.0000  XXZ=             -0.0000  XZZ=              0.0000  YZZ=             -0.0000
  YYZ=             -0.0000  XYZ=             -4.2152
 Hexadecapole moment (field-independent basis, Debye-Ang**3):
 XXXX=            -68.8018 YYYY=            -68.8018 ZZZZ=            -68.8018 XXXY=              0.0000
 XXXZ=             -0.0000 YYYX=              0.0000 YYYZ=              0.0000 ZZZX=             -0.0000
 ZZZY=              0.0000 XXYY=            -24.8919 XXZZ=            -24.8919 YYZZ=            -24.8919
 XXYZ=              0.0000 YYXZ=              0.0000 ZZXY=              0.0000
 N-N= 6.339986090620D+01 E-N=-1.438282146132D+04  KE= 5.981260711002D+03
 Symmetry A    KE= 3.404648240997D+03
 Symmetry B1   KE= 8.588708233347D+02
 Symmetry B2   KE= 8.588708233347D+02
 Symmetry B3   KE= 8.588708233347D+02
 Calling FoFJK, ICntrl=      2127 FMM=F ISym2X=1 I1Cent= 0 IOpClX= 0 NMat=1 NMatS=1 NMatT=0.
 ***** Axes restored to original set *****
 -------------------------------------------------------------------
 Center     Atomic                   Forces (Hartrees/Bohr)
 Number     Number              X              Y              Z
 -------------------------------------------------------------------
      1       50          -0.000000000   -0.000000000    0.000000000
      2        1           0.004750673   -0.013437453    0.000000001
      3        1           0.004750918    0.006718640    0.011637125
      4        1           0.004750919    0.006718639   -0.011637126
      5        1          -0.014252510    0.000000173   -0.000000001
 -------------------------------------------------------------------
 Cartesian Forces:  Max     0.014252510 RMS     0.007359964

 GradGradGradGradGradGradGradGradGradGradGradGradGradGradGradGradGradGrad
 Berny optimization.
 Internal  Forces:  Max     0.014252510 RMS     0.007618287
 Search for a local minimum.
 Step number   1 out of a maximum of   24
 All quantities printed in internal units (Hartrees-Bohrs-Radians)
 Mixed Optimization -- RFO/linear search
 Second derivative matrix not updated -- first step.
 The second derivative matrix:
                          R1        R2        R3        R4        A1
           R1           0.12878
           R2           0.00000   0.12878
           R3           0.00000   0.00000   0.12878
           R4           0.00000   0.00000   0.00000   0.12878
           A1           0.00000   0.00000   0.00000   0.00000   0.16000
           A2           0.00000   0.00000   0.00000   0.00000   0.00000
           A3           0.00000   0.00000   0.00000   0.00000   0.00000
           A4           0.00000   0.00000   0.00000   0.00000   0.00000
           A5           0.00000   0.00000   0.00000   0.00000   0.00000
           A6           0.00000   0.00000   0.00000   0.00000   0.00000
           D1           0.00000   0.00000   0.00000   0.00000   0.00000
           D2           0.00000   0.00000   0.00000   0.00000   0.00000
           D3           0.00000   0.00000   0.00000   0.00000   0.00000
           D4           0.00000   0.00000   0.00000   0.00000   0.00000
                          A2        A3        A4        A5        A6
           A2           0.16000
           A3           0.00000   0.16000
           A4           0.00000   0.00000   0.16000
           A5           0.00000   0.00000   0.00000   0.16000
           A6           0.00000   0.00000   0.00000   0.00000   0.16000
           D1           0.00000   0.00000   0.00000   0.00000   0.00000
           D2           0.00000   0.00000   0.00000   0.00000   0.00000
           D3           0.00000   0.00000   0.00000   0.00000   0.00000
           D4           0.00000   0.00000   0.00000   0.00000   0.00000
                          D1        D2        D3        D4
           D1           0.00230
           D2           0.00000   0.00230
           D3           0.00000   0.00000   0.00230
           D4           0.00000   0.00000   0.00000   0.00230
 ITU=  0
     Eigenvalues ---    0.05082   0.05715   0.08641   0.12878   0.12878
     Eigenvalues ---    0.12878   0.12878   0.16000   0.16000
 RFO step:  Lambda=-6.02740609D-03 EMin= 5.08230769D-02
 Linear search not attempted -- first point.
 Iteration  1 RMS(Cart)=  0.05651256 RMS(Int)=  0.00000000
 Iteration  2 RMS(Cart)=  0.00000000 RMS(Int)=  0.00000000
 ClnCor:  largest displacement from symmetrization is 5.94D-13 for atom     3.
 Variable       Old X    -DE/DX   Delta X   Delta X   Delta X     New X
                                 (Linear)    (Quad)   (Total)
    R1        3.21253   0.01425   0.00000   0.10573   0.10573   3.31826
    R2        3.21253   0.01425   0.00000   0.10573   0.10573   3.31826
    R3        3.21253   0.01425   0.00000   0.10573   0.10573   3.31826
    R4        3.21253   0.01425   0.00000   0.10573   0.10573   3.31826
    A1        1.91063   0.00000   0.00000   0.00000   0.00000   1.91063
    A2        1.91063   0.00000   0.00000   0.00000   0.00000   1.91063
    A3        1.91063  -0.00000   0.00000  -0.00000   0.00000   1.91063
    A4        1.91063  -0.00000   0.00000  -0.00000   0.00000   1.91063
    A5        1.91063   0.00000   0.00000   0.00000   0.00000   1.91063
    A6        1.91063   0.00000   0.00000   0.00000   0.00000   1.91063
    D1       -2.09440  -0.00000   0.00000  -0.00000   0.00000  -2.09440
    D2        2.09440   0.00000   0.00000   0.00000   0.00000   2.09440
    D3       -2.09440  -0.00000   0.00000  -0.00000   0.00000  -2.09440
    D4        2.09440  -0.00000   0.00000  -0.00000   0.00000   2.09440
         Item               Value     Threshold  Converged?
 Maximum Force            0.014253     0.000450     NO 
 RMS     Force            0.007618     0.000300     NO 
 Maximum Displacement     0.105725     0.001800     NO 
 RMS     Displacement     0.056513     0.001200     NO 
 Predicted change in Energy=-3.148449D-03
 GradGradGradGradGradGradGradGradGradGradGradGradGradGradGradGradGradGrad

                          Input orientation:                          
 ---------------------------------------------------------------------
 Center     Atomic      Atomic             Coordinates (Angstroms)
 Number     Number       Type             X           Y           Z
 ---------------------------------------------------------------------
      1         50           0       -0.404412    0.551471   -0.000000
      2          1           0        0.180884   -1.104060    0.000000
      3          1           0        0.180914    1.379225    1.433725
      4          1           0        0.180914    1.379225   -1.433725
      5          1           0       -2.160359    0.551492   -0.000000
 ---------------------------------------------------------------------
                    Distance matrix (angstroms):
                    1          2          3          4          5
     1  Sn   0.000000
     2  H    1.755947   0.000000
     3  H    1.755947   2.867450   0.000000
     4  H    1.755947   2.867450   2.867450   0.000000
     5  H    1.755947   2.867450   2.867450   2.867450   0.000000
 Stoichiometry    H4Sn
 Framework group  TD[O(Sn),4C3(H)]
 Deg. of freedom     1
 Full point group                 TD      NOp  24
 Omega: Change in point group or standard orientation.

 Old FWG=T    [O(Sn1),4C3(H1)]
 New FWG=TD   [O(Sn1),4C3(H1)]
 Largest Abelian subgroup         D2      NOp   4
 Largest concise Abelian subgroup D2      NOp   4
                         Standard orientation:                         
 ---------------------------------------------------------------------
 Center     Atomic      Atomic             Coordinates (Angstroms)
 Number     Number       Type             X           Y           Z
 ---------------------------------------------------------------------
      1         50           0        0.000000    0.000000    0.000000
      2          1           0        1.013797    1.013797    1.013797
      3          1           0       -1.013797   -1.013797    1.013797
      4          1           0       -1.013797    1.013797   -1.013797
      5          1           0        1.013797   -1.013797   -1.013797
 ---------------------------------------------------------------------
 Rotational constants (GHZ):     60.9874261     60.9874261     60.9874261
 Standard basis: 3-21G (6D, 7F)
 There are    14 symmetry adapted basis functions of A   symmetry.
 There are     9 symmetry adapted basis functions of B1  symmetry.
 There are     9 symmetry adapted basis functions of B2  symmetry.
 There are     9 symmetry adapted basis functions of B3  symmetry.
 Integral buffers will be    131072 words long.
 Raffenetti 1 integral format.
 Two-electron integral symmetry is turned on.
    41 basis functions,    99 primitive gaussians,    41 cartesian basis functions
    27 alpha electrons       27 beta electrons
       nuclear repulsion energy        61.3798349237 Hartrees.
 NAtoms=    5 NActive=    5 NUniq=    2 SFac= 4.00D+00 NAtFMM=   60 NAOKFM=F Big=F
 One-electron integrals computed using PRISM.
 NBasis=    41 RedAO= T  NBF=    14     9     9     9
 NBsUse=    41 1.00D-06 NBFU=    14     9     9     9
 Initial guess read from the read-write file.
 B after Tr=     0.000000    0.000000    0.000000
         Rot=    1.000000    0.000000    0.000000    0.000000 Ang=   0.00 deg.
 Initial guess orbital symmetries:
       Occupied  (A1) (A1) (T2) (T2) (T2) (A1) (T2) (T2) (T2) (?A)
                 (?A) (?A) (E) (E) (A1) (T2) (T2) (T2) (?A) (?A)
                 (?A) (E) (E) (A1) (?A) (?A) (?A)
       Virtual   (?A) (?A) (?A) (A1) (A1) (?A) (?A) (?A) (?A) (?A)
                 (?A) (A1) (A1) (A1)
 Harris functional with IExCor=  205 diagonalized for initial guess.
 ExpMin= 7.06D-02 ExpMax= 1.27D+04 ExpMxC= 1.27D+04 IAcc=2 IRadAn=         4 AccDes= 0.00D+00
 HarFok:  IExCor=  205 AccDes= 0.00D+00 IRadAn=         4 IDoV= 1
 ScaDFX=  1.000000  1.000000  1.000000  1.000000
 Defaulting to unpruned grid for atomic number  50.
 FoFCou: FMM=F IPFlag=           0 FMFlag=      100000 FMFlg1=           0
         NFxFlg=           0 DoJE=T BraDBF=F KetDBF=T FulRan=T
         Omega=  0.000000  0.000000  1.000000  0.000000  0.000000 ICntrl=     500 IOpCl=  0
         NMat0=    1 NMatS0=    1 NMatT0=    0 NMatD0=    1 NMtDS0=    0 NMtDT0=    0
         I1Cent=           4 NGrid=           0.
 Petite list used in FoFCou.
 Requested convergence on RMS density matrix=1.00D-08 within 128 cycles.
 Requested convergence on MAX density matrix=1.00D-06.
 Requested convergence on             energy=1.00D-06.
 No special actions if energy rises.
 Keep R1 ints in memory in canonical form, NReq=1215344.
 An orbital has undefined symmetry, so N**3 symmetry is turned off.
 Density matrix breaks symmetry, PCut= 1.00D-04
 Density matrix has no symmetry -- integrals replicated.
 Density matrix breaks symmetry, PCut= 1.00D-07
 Density matrix has no symmetry -- integrals replicated.
 DSYEVD returned Info=          83 IAlg= 4 N=    41 NDim=    41 NE2=      809153 trying DSYEV.
 Density matrix breaks symmetry, PCut= 1.00D-07
 Density matrix has no symmetry -- integrals replicated.
 DSYEVD returned Info=          83 IAlg= 4 N=    41 NDim=    41 NE2=      809153 trying DSYEV.
 Density matrix breaks symmetry, PCut= 1.00D-07
 Density matrix has no symmetry -- integrals replicated.
 DSYEVD returned Info=          83 IAlg= 4 N=    41 NDim=    41 NE2=      809153 trying DSYEV.
 Density matrix breaks symmetry, PCut= 1.00D-07
 Density matrix has no symmetry -- integrals replicated.
 DSYEVD returned Info=          83 IAlg= 4 N=    41 NDim=    41 NE2=      809153 trying DSYEV.
 DSYEVD returned Info=          83 IAlg= 4 N=    41 NDim=    41 NE2=      809153 trying DSYEV.
 DSYEVD returned Info=          83 IAlg= 4 N=    41 NDim=    41 NE2=      809153 trying DSYEV.
 SCF Done:  E(RHF) =  -5998.95277644     A.U. after    9 cycles
             Convg  =    0.6902D-08             -V/T =  2.0030
 ExpMin= 7.06D-02 ExpMax= 1.27D+04 ExpMxC= 1.27D+04 IAcc=3 IRadAn=         5 AccDes= 0.00D+00
 HarFok:  IExCor=  205 AccDes= 0.00D+00 IRadAn=         5 IDoV=-2
 ScaDFX=  1.000000  1.000000  1.000000  1.000000
 Defaulting to unpruned grid for atomic number  50.
 DSYEVD returned Info=          67 IAlg= 4 N=    33 NDim=    33 NE2=     1016497 trying DSYEV.
 Range of M.O.s used for correlation:    19    41
 NBasis=    41 NAE=    27 NBE=    27 NFC=    18 NFV=     0
 NROrb=     23 NOA=     9 NOB=     9 NVA=    14 NVB=    14

 **** Warning!!: The largest alpha MO coefficient is  0.21240130D+02

 Fully direct method using O(ONN) memory.
 JobTyp=1 Pass  1:  I=  19 to  27 NPSUse=  1 ParTrn=F ParDer=F DoDerP=T.
 Spin components of T(2) and E(2):
     alpha-alpha T2 =       0.1202894627D-02 E2=     -0.2243916152D-02
     alpha-beta  T2 =       0.3086221389D-01 E2=     -0.5738696745D-01
     beta-beta   T2 =       0.1202894627D-02 E2=     -0.2243916152D-02
 ANorm=    0.1016497911D+01
 E2 =    -0.6187479975D-01 EUMP2 =    -0.59990146512367D+04
          IDoAtm=11111
          Differentiating once with respect to electric field.
                with respect to dipole field.
          Differentiating once with respect to nuclear coordinates.
          Keep R1 ints in memory in canonical form, NReq=1192301.
          There are     1 degrees of freedom in the 1st order CPHF.  IDoFFX=0.
 LinEq1:  Iter=  0 NonCon=     1 RMS=3.20D-03 Max=3.04D-02
 AX will form     1 AO Fock derivatives at one time.
 LinEq1:  Iter=  1 NonCon=     1 RMS=3.02D-04 Max=2.31D-03
 LinEq1:  Iter=  2 NonCon=     1 RMS=2.95D-05 Max=2.44D-04
 LinEq1:  Iter=  3 NonCon=     1 RMS=4.12D-06 Max=5.92D-05
 LinEq1:  Iter=  4 NonCon=     1 RMS=1.49D-07 Max=2.17D-06
 LinEq1:  Iter=  5 NonCon=     1 RMS=7.57D-09 Max=7.16D-08
 LinEq1:  Iter=  6 NonCon=     1 RMS=2.42D-10 Max=1.72D-09
 LinEq1:  Iter=  7 NonCon=     0 RMS=2.23D-11 Max=1.81D-10
 Linear equations converged to 1.000D-10 1.000D-09 after     7 iterations.
 End of Minotr Frequency-dependent properties file   721 does not exist.
 End of Minotr Frequency-dependent properties file   722 does not exist.
 Calling FoFJK, ICntrl=      2127 FMM=F ISym2X=1 I1Cent= 0 IOpClX= 0 NMat=1 NMatS=1 NMatT=0.
 ***** Axes restored to original set *****
 -------------------------------------------------------------------
 Center     Atomic                   Forces (Hartrees/Bohr)
 Number     Number              X              Y              Z
 -------------------------------------------------------------------
      1       50          -0.000000000    0.000000001    0.000000000
      2        1          -0.000741366    0.002096981   -0.000000000
      3        1          -0.000741406   -0.001048478   -0.001816030
      4        1          -0.000741403   -0.001048477    0.001816032
      5        1           0.002224175   -0.000000027   -0.000000002
 -------------------------------------------------------------------
 Cartesian Forces:  Max     0.002224175 RMS     0.001148559

 GradGradGradGradGradGradGradGradGradGradGradGradGradGradGradGradGradGrad
 Berny optimization.
 Using GEDIIS/GDIIS optimizer.
 Internal  Forces:  Max     0.002224175 RMS     0.001188871
 Search for a local minimum.
 Step number   2 out of a maximum of   24
 All quantities printed in internal units (Hartrees-Bohrs-Radians)
 Mixed Optimization -- RFO/linear search
 Update second derivatives using D2CorX and points    1    2
 DE= -2.42D-03 DEPred=-3.15D-03 R= 7.69D-01
 SS=  1.41D+00  RLast= 2.11D-01 DXNew= 5.0454D-01 6.3435D-01
 Trust test= 7.69D-01 RLast= 2.11D-01 DXMaxT set to 5.05D-01
 The second derivative matrix:
                          R1        R2        R3        R4        A1
           R1           0.13555
           R2           0.00677   0.13555
           R3           0.00677   0.00677   0.13555
           R4           0.00677   0.00677   0.00677   0.13555
           A1           0.00000   0.00000   0.00000   0.00000   0.16000
           A2           0.00000   0.00000   0.00000   0.00000   0.00000
           A3           0.00000   0.00000   0.00000   0.00000   0.00000
           A4          -0.00000  -0.00000  -0.00000  -0.00000  -0.00000
           A5          -0.00000  -0.00000  -0.00000  -0.00000  -0.00000
           A6          -0.00000  -0.00000  -0.00000  -0.00000  -0.00000
           D1          -0.00000  -0.00000  -0.00000  -0.00000  -0.00000
           D2           0.00000   0.00000   0.00000   0.00000   0.00000
           D3          -0.00000  -0.00000  -0.00000  -0.00000  -0.00000
           D4          -0.00000  -0.00000  -0.00000  -0.00000  -0.00000
                          A2        A3        A4        A5        A6
           A2           0.16000
           A3           0.00000   0.16000
           A4          -0.00000  -0.00000   0.16000
           A5          -0.00000  -0.00000   0.00000   0.16000
           A6          -0.00000  -0.00000   0.00000   0.00000   0.16000
           D1          -0.00000  -0.00000   0.00000   0.00000   0.00000
           D2           0.00000   0.00000  -0.00000  -0.00000  -0.00000
           D3          -0.00000  -0.00000   0.00000   0.00000   0.00000
           D4          -0.00000  -0.00000   0.00000   0.00000   0.00000
                          D1        D2        D3        D4
           D1           0.00230
           D2          -0.00000   0.00230
           D3           0.00000  -0.00000   0.00230
           D4           0.00000  -0.00000   0.00000   0.00230
 ITU=  1  0
 Use linear search instead of GDIIS.
     Eigenvalues ---    0.05082   0.05715   0.08641   0.12878   0.12878
     Eigenvalues ---    0.12878   0.15584   0.16000   0.16000
 RFO step:  Lambda= 0.00000000D+00 EMin= 5.08230769D-02
 Quartic linear search produced a step of -0.14816.
 Iteration  1 RMS(Cart)=  0.00837305 RMS(Int)=  0.00000000
 Iteration  2 RMS(Cart)=  0.00000000 RMS(Int)=  0.00000000
 ClnCor:  largest displacement from symmetrization is 3.08D-09 for atom     1.
 Variable       Old X    -DE/DX   Delta X   Delta X   Delta X     New X
                                 (Linear)    (Quad)   (Total)
    R1        3.31826  -0.00222  -0.01566   0.00000  -0.01566   3.30260
    R2        3.31826  -0.00222  -0.01566  -0.00000  -0.01566   3.30260
    R3        3.31826  -0.00222  -0.01566  -0.00000  -0.01566   3.30260
    R4        3.31826  -0.00222  -0.01566  -0.00000  -0.01566   3.30260
    A1        1.91063  -0.00000   0.00000  -0.00000   0.00000   1.91063
    A2        1.91063  -0.00000  -0.00000  -0.00000  -0.00000   1.91063
    A3        1.91063  -0.00000   0.00000  -0.00000   0.00000   1.91063
    A4        1.91063   0.00000   0.00000   0.00000   0.00000   1.91063
    A5        1.91063   0.00000   0.00000   0.00000   0.00000   1.91063
    A6        1.91063   0.00000   0.00000   0.00000   0.00000   1.91063
    D1       -2.09440   0.00000   0.00000   0.00000   0.00000  -2.09440
    D2        2.09440  -0.00000  -0.00000  -0.00000  -0.00000   2.09440
    D3       -2.09440   0.00000   0.00000   0.00000   0.00000  -2.09440
    D4        2.09440   0.00000   0.00000   0.00000   0.00000   2.09440
         Item               Value     Threshold  Converged?
 Maximum Force            0.002224     0.000450     NO 
 RMS     Force            0.001189     0.000300     NO 
 Maximum Displacement     0.015665     0.001800     NO 
 RMS     Displacement     0.008373     0.001200     NO 
 Predicted change in Energy=-6.288125D-05
 GradGradGradGradGradGradGradGradGradGradGradGradGradGradGradGradGradGrad

                          Input orientation:                          
 ---------------------------------------------------------------------
 Center     Atomic      Atomic             Coordinates (Angstroms)
 Number     Number       Type             X           Y           Z
 ---------------------------------------------------------------------
      1         50           0       -0.404412    0.551471    0.000000
      2          1           0        0.178121   -1.096244    0.000000
      3          1           0        0.178151    1.375317    1.426957
      4          1           0        0.178151    1.375317   -1.426957
      5          1           0       -2.152070    0.551492   -0.000000
 ---------------------------------------------------------------------
                    Distance matrix (angstroms):
                    1          2          3          4          5
     1  Sn   0.000000
     2  H    1.747658   0.000000
     3  H    1.747658   2.853914   0.000000
     4  H    1.747658   2.853914   2.853914   0.000000
     5  H    1.747658   2.853914   2.853914   2.853914   0.000000
 Stoichiometry    H4Sn
 Framework group  TD[O(Sn),4C3(H)]
 Deg. of freedom     1
 Full point group                 TD      NOp  24
 Largest Abelian subgroup         D2      NOp   4
 Largest concise Abelian subgroup D2      NOp   4
                         Standard orientation:                         
 ---------------------------------------------------------------------
 Center     Atomic      Atomic             Coordinates (Angstroms)
 Number     Number       Type             X           Y           Z
 ---------------------------------------------------------------------
      1         50           0        0.000000    0.000000    0.000000
      2          1           0        1.009011    1.009011    1.009011
      3          1           0       -1.009011   -1.009011    1.009011
      4          1           0       -1.009011    1.009011   -1.009011
      5          1           0        1.009011   -1.009011   -1.009011
 ---------------------------------------------------------------------
 Rotational constants (GHZ):     61.5673369     61.5673369     61.5673369
 Standard basis: 3-21G (6D, 7F)
 There are    14 symmetry adapted basis functions of A   symmetry.
 There are     9 symmetry adapted basis functions of B1  symmetry.
 There are     9 symmetry adapted basis functions of B2  symmetry.
 There are     9 symmetry adapted basis functions of B3  symmetry.
 Integral buffers will be    131072 words long.
 Raffenetti 1 integral format.
 Two-electron integral symmetry is turned on.
    41 basis functions,    99 primitive gaussians,    41 cartesian basis functions
    27 alpha electrons       27 beta electrons
       nuclear repulsion energy        61.6709655697 Hartrees.
 NAtoms=    5 NActive=    5 NUniq=    2 SFac= 4.00D+00 NAtFMM=   60 NAOKFM=F Big=F
 One-electron integrals computed using PRISM.
 NBasis=    41 RedAO= T  NBF=    14     9     9     9
 NBsUse=    41 1.00D-06 NBFU=    14     9     9     9
 Initial guess read from the read-write file.
 B after Tr=     0.000000    0.000000    0.000000
         Rot=    1.000000    0.000000    0.000000    0.000000 Ang=   0.00 deg.
 Initial guess orbital symmetries:
       Occupied  (A1) (A1) (T2) (T2) (T2) (A1) (T2) (T2) (T2) (T2)
                 (T2) (T2) (E) (E) (A1) (T2) (T2) (T2) (T2) (T2)
                 (T2) (E) (E) (A1) (T2) (T2) (T2)
       Virtual   (T2) (T2) (T2) (A1) (A1) (T2) (T2) (T2) (T2) (T2)
                 (T2) (A1) (A1) (A1)
 Requested convergence on RMS density matrix=1.00D-08 within 128 cycles.
 Requested convergence on MAX density matrix=1.00D-06.
 Requested convergence on             energy=1.00D-06.
 No special actions if energy rises.
 Keep R1 ints in memory in canonical form, NReq=1215344.
 An orbital has undefined symmetry, so N**3 symmetry is turned off.
 DSYEVD returned Info=          83 IAlg= 4 N=    41 NDim=    41 NE2=      809153 trying DSYEV.
 DSYEVD returned Info=          83 IAlg= 4 N=    41 NDim=    41 NE2=      809153 trying DSYEV.
 DSYEVD returned Info=          83 IAlg= 4 N=    41 NDim=    41 NE2=      809153 trying DSYEV.
 DSYEVD returned Info=          83 IAlg= 4 N=    41 NDim=    41 NE2=      809153 trying DSYEV.
 DSYEVD returned Info=          83 IAlg= 4 N=    41 NDim=    41 NE2=      809153 trying DSYEV.
 SCF Done:  E(RHF) =  -5998.95303747     A.U. after    7 cycles
             Convg  =    0.1044D-08             -V/T =  2.0030
 ExpMin= 7.06D-02 ExpMax= 1.27D+04 ExpMxC= 1.27D+04 IAcc=3 IRadAn=         5 AccDes= 0.00D+00
 HarFok:  IExCor=  205 AccDes= 0.00D+00 IRadAn=         5 IDoV=-2
 ScaDFX=  1.000000  1.000000  1.000000  1.000000
 Defaulting to unpruned grid for atomic number  50.
 Range of M.O.s used for correlation:    19    41
 NBasis=    41 NAE=    27 NBE=    27 NFC=    18 NFV=     0
 NROrb=     23 NOA=     9 NOB=     9 NVA=    14 NVB=    14

 **** Warning!!: The largest alpha MO coefficient is  0.21240126D+02

 Fully direct method using O(ONN) memory.
 JobTyp=1 Pass  1:  I=  19 to  27 NPSUse=  1 ParTrn=F ParDer=F DoDerP=T.
 Spin components of T(2) and E(2):
     alpha-alpha T2 =       0.1202754067D-02 E2=     -0.2250717776D-02
     alpha-beta  T2 =       0.3056409833D-01 E2=     -0.5718232361D-01
     beta-beta   T2 =       0.1202754067D-02 E2=     -0.2250717776D-02
 ANorm=    0.1016351124D+01
 E2 =    -0.6168375917D-01 EUMP2 =    -0.59990147212321D+04
          IDoAtm=11111
          Differentiating once with respect to electric field.
                with respect to dipole field.
          Differentiating once with respect to nuclear coordinates.
          Keep R1 ints in memory in canonical form, NReq=1192301.
          There are     1 degrees of freedom in the 1st order CPHF.  IDoFFX=0.
 LinEq1:  Iter=  0 NonCon=     1 RMS=3.19D-03 Max=3.01D-02
 AX will form     1 AO Fock derivatives at one time.
 LinEq1:  Iter=  1 NonCon=     1 RMS=2.98D-04 Max=2.29D-03
 LinEq1:  Iter=  2 NonCon=     1 RMS=2.87D-05 Max=2.38D-04
 LinEq1:  Iter=  3 NonCon=     1 RMS=4.03D-06 Max=5.75D-05
 LinEq1:  Iter=  4 NonCon=     1 RMS=1.44D-07 Max=2.10D-06
 LinEq1:  Iter=  5 NonCon=     1 RMS=7.26D-09 Max=6.92D-08
 LinEq1:  Iter=  6 NonCon=     1 RMS=2.30D-10 Max=1.46D-09
 LinEq1:  Iter=  7 NonCon=     0 RMS=2.12D-11 Max=1.70D-10
 Linear equations converged to 1.000D-10 1.000D-09 after     7 iterations.
 End of Minotr Frequency-dependent properties file   721 does not exist.
 End of Minotr Frequency-dependent properties file   722 does not exist.
 Calling FoFJK, ICntrl=      2127 FMM=F ISym2X=1 I1Cent= 0 IOpClX= 0 NMat=1 NMatS=1 NMatT=0.
 ***** Axes restored to original set *****
 -------------------------------------------------------------------
 Center     Atomic                   Forces (Hartrees/Bohr)
 Number     Number              X              Y              Z
 -------------------------------------------------------------------
      1       50           0.000000000   -0.000000000   -0.000000000
      2        1           0.000000595   -0.000001683    0.000000000
      3        1           0.000000595    0.000000842    0.000001458
      4        1           0.000000595    0.000000842   -0.000001458
      5        1          -0.000001786    0.000000000    0.000000000
 -------------------------------------------------------------------
 Cartesian Forces:  Max     0.000001786 RMS     0.000000922

 GradGradGradGradGradGradGradGradGradGradGradGradGradGradGradGradGradGrad
 Berny optimization.
 Using GEDIIS/GDIIS optimizer.
 Internal  Forces:  Max     0.000001786 RMS     0.000000954
 Search for a local minimum.
 Step number   3 out of a maximum of   24
 All quantities printed in internal units (Hartrees-Bohrs-Radians)
 Mixed Optimization -- En-DIIS/RFO-DIIS
 Update second derivatives using D2CorX and points    1    2    3
 DE= -7.00D-05 DEPred=-6.29D-05 R= 1.11D+00
 SS=  1.41D+00  RLast= 3.13D-02 DXNew= 8.4853D-01 9.3987D-02
 Trust test= 1.11D+00 RLast= 3.13D-02 DXMaxT set to 5.05D-01
 The second derivative matrix:
                          R1        R2        R3        R4        A1
           R1           0.13211
           R2           0.00333   0.13211
           R3           0.00333   0.00333   0.13211
           R4           0.00333   0.00333   0.00333   0.13211
           A1           0.00000   0.00000   0.00000   0.00000   0.16000
           A2           0.00000   0.00000   0.00000   0.00000   0.00000
           A3           0.00000   0.00000   0.00000   0.00000   0.00000
           A4          -0.00000  -0.00000  -0.00000  -0.00000  -0.00000
           A5          -0.00000  -0.00000  -0.00000  -0.00000  -0.00000
           A6          -0.00000  -0.00000  -0.00000  -0.00000  -0.00000
           D1          -0.00000  -0.00000  -0.00000  -0.00000  -0.00000
           D2           0.00000   0.00000   0.00000   0.00000   0.00000
           D3          -0.00000  -0.00000  -0.00000  -0.00000  -0.00000
           D4          -0.00000  -0.00000  -0.00000  -0.00000  -0.00000
                          A2        A3        A4        A5        A6
           A2           0.16000
           A3           0.00000   0.16000
           A4          -0.00000  -0.00000   0.16000
           A5          -0.00000  -0.00000   0.00000   0.16000
           A6          -0.00000  -0.00000   0.00000   0.00000   0.16000
           D1          -0.00000  -0.00000   0.00000   0.00000   0.00000
           D2           0.00000   0.00000  -0.00000  -0.00000  -0.00000
           D3          -0.00000  -0.00000   0.00000   0.00000   0.00000
           D4          -0.00000  -0.00000   0.00000   0.00000   0.00000
                          D1        D2        D3        D4
           D1           0.00230
           D2          -0.00000   0.00230
           D3           0.00000  -0.00000   0.00230
           D4           0.00000  -0.00000   0.00000   0.00230
 ITU=  1  1  0
 Use linear search instead of GDIIS.
     Eigenvalues ---    0.05082   0.05715   0.08641   0.12878   0.12878
     Eigenvalues ---    0.12878   0.14210   0.16000   0.16000
 RFO step:  Lambda= 0.00000000D+00 EMin= 5.08230769D-02
 Quartic linear search produced a step of -0.00079.
 Iteration  1 RMS(Cart)=  0.00000661 RMS(Int)=  0.00000000
 Iteration  2 RMS(Cart)=  0.00000000 RMS(Int)=  0.00000000
 ClnCor:  largest displacement from symmetrization is 3.24D-12 for atom     4.
 Variable       Old X    -DE/DX   Delta X   Delta X   Delta X     New X
                                 (Linear)    (Quad)   (Total)
    R1        3.30260   0.00000   0.00001   0.00000   0.00001   3.30261
    R2        3.30260   0.00000   0.00001  -0.00000   0.00001   3.30261
    R3        3.30260   0.00000   0.00001   0.00000   0.00001   3.30261
    R4        3.30260   0.00000   0.00001   0.00000   0.00001   3.30261
    A1        1.91063  -0.00000  -0.00000  -0.00000   0.00000   1.91063
    A2        1.91063   0.00000   0.00000   0.00000   0.00000   1.91063
    A3        1.91063  -0.00000   0.00000  -0.00000   0.00000   1.91063
    A4        1.91063   0.00000   0.00000   0.00000   0.00000   1.91063
    A5        1.91063  -0.00000   0.00000  -0.00000   0.00000   1.91063
    A6        1.91063  -0.00000  -0.00000   0.00000   0.00000   1.91063
    D1       -2.09440  -0.00000   0.00000  -0.00000   0.00000  -2.09440
    D2        2.09440  -0.00000   0.00000  -0.00000  -0.00000   2.09440
    D3       -2.09440  -0.00000   0.00000  -0.00000   0.00000  -2.09440
    D4        2.09440  -0.00000   0.00000   0.00000   0.00000   2.09440
         Item               Value     Threshold  Converged?
 Maximum Force            0.000002     0.000450     YES
 RMS     Force            0.000001     0.000300     YES
 Maximum Displacement     0.000012     0.001800     YES
 RMS     Displacement     0.000007     0.001200     YES
 Predicted change in Energy=-4.486320D-11
 Optimization completed.
    -- Stationary point found.
                           ----------------------------
                           !   Optimized Parameters   !
                           ! (Angstroms and Degrees)  !
 --------------------------                            --------------------------
 ! Name  Definition              Value          Derivative Info.                !
 --------------------------------------------------------------------------------
 ! R1    R(1,2)                  1.7477         -DE/DX =    0.0                 !
 ! R2    R(1,3)                  1.7477         -DE/DX =    0.0                 !
 ! R3    R(1,4)                  1.7477         -DE/DX =    0.0                 !
 ! R4    R(1,5)                  1.7477         -DE/DX =    0.0                 !
 ! A1    A(2,1,3)              109.4712         -DE/DX =    0.0                 !
 ! A2    A(2,1,4)              109.4712         -DE/DX =    0.0                 !
 ! A3    A(2,1,5)              109.4712         -DE/DX =    0.0                 !
 ! A4    A(3,1,4)              109.4712         -DE/DX =    0.0                 !
 ! A5    A(3,1,5)              109.4712         -DE/DX =    0.0                 !
 ! A6    A(4,1,5)              109.4712         -DE/DX =    0.0                 !
 ! D1    D(2,1,4,3)           -120.0            -DE/DX =    0.0                 !
 ! D2    D(2,1,5,3)            120.0            -DE/DX =    0.0                 !
 ! D3    D(2,1,5,4)           -120.0            -DE/DX =    0.0                 !
 ! D4    D(3,1,5,4)            120.0            -DE/DX =    0.0                 !
 --------------------------------------------------------------------------------
 GradGradGradGradGradGradGradGradGradGradGradGradGradGradGradGradGradGrad

                          Input orientation:                          
 ---------------------------------------------------------------------
 Center     Atomic      Atomic             Coordinates (Angstroms)
 Number     Number       Type             X           Y           Z
 ---------------------------------------------------------------------
      1         50           0       -0.404412    0.551471    0.000000
      2          1           0        0.178121   -1.096244    0.000000
      3          1           0        0.178151    1.375317    1.426957
      4          1           0        0.178151    1.375317   -1.426957
      5          1           0       -2.152070    0.551492   -0.000000
 ---------------------------------------------------------------------
                    Distance matrix (angstroms):
                    1          2          3          4          5
     1  Sn   0.000000
     2  H    1.747658   0.000000
     3  H    1.747658   2.853914   0.000000
     4  H    1.747658   2.853914   2.853914   0.000000
     5  H    1.747658   2.853914   2.853914   2.853914   0.000000
 Stoichiometry    H4Sn
 Framework group  TD[O(Sn),4C3(H)]
 Deg. of freedom     1
 Full point group                 TD      NOp  24
 Largest Abelian subgroup         D2      NOp   4
 Largest concise Abelian subgroup D2      NOp   4
                         Standard orientation:                         
 ---------------------------------------------------------------------
 Center     Atomic      Atomic             Coordinates (Angstroms)
 Number     Number       Type             X           Y           Z
 ---------------------------------------------------------------------
      1         50           0        0.000000    0.000000    0.000000
      2          1           0        1.009011    1.009011    1.009011
      3          1           0       -1.009011   -1.009011    1.009011
      4          1           0       -1.009011    1.009011   -1.009011
      5          1           0        1.009011   -1.009011   -1.009011
 ---------------------------------------------------------------------
 Rotational constants (GHZ):     61.5673369     61.5673369     61.5673369

 **********************************************************************

            Population analysis using the SCF density.

 **********************************************************************

 Orbital symmetries:
       Occupied  (A1) (A1) (T2) (T2) (T2) (A1) (T2) (T2) (T2) (T2)
                 (T2) (T2) (E) (E) (A1) (T2) (T2) (T2) (T2) (T2)
                 (T2) (E) (E) (A1) (T2) (T2) (T2)
       Virtual   (T2) (T2) (T2) (A1) (A1) (T2) (T2) (T2) (T2) (T2)
                 (T2) (A1) (A1) (A1)
 The electronic state is 1-A1.
 Alpha  occ. eigenvalues -- **********-156.24725-145.39604-145.39604-145.39604
 Alpha  occ. eigenvalues --  -31.54046 -26.91770 -26.91770 -26.91770 -19.08227
 Alpha  occ. eigenvalues --  -19.08227 -19.08227 -19.08204 -19.08204  -5.54700
 Alpha  occ. eigenvalues --   -3.93115  -3.93115  -3.93115  -1.41602  -1.41602
 Alpha  occ. eigenvalues --   -1.41602  -1.41200  -1.41200  -0.65916  -0.44283
 Alpha  occ. eigenvalues --   -0.44283  -0.44283
 Alpha virt. eigenvalues --    0.14910   0.14910   0.14910   0.21725   0.31206
 Alpha virt. eigenvalues --    0.37010   0.37010   0.37010   1.31472   1.31472
 Alpha virt. eigenvalues --    1.31472   1.34958   2.97773 210.84266
          Condensed to atoms (all electrons):
              1          2          3          4          5
     1  Sn  47.757716   0.339580   0.339580   0.339580   0.339580
     2  H    0.339580   0.903473  -0.007354  -0.007354  -0.007354
     3  H    0.339580  -0.007354   0.903473  -0.007354  -0.007354
     4  H    0.339580  -0.007354  -0.007354   0.903473  -0.007354
     5  H    0.339580  -0.007354  -0.007354  -0.007354   0.903473
 Mulliken atomic charges:
              1
     1  Sn   0.883962
     2  H   -0.220991
     3  H   -0.220991
     4  H   -0.220991
     5  H   -0.220991
 Sum of Mulliken atomic charges =  -0.00000
 Mulliken charges with hydrogens summed into heavy atoms:
              1
     1  Sn  -0.000000
 Sum of Mulliken charges with hydrogens summed into heavy atoms =  -0.00000
 Electronic spatial extent (au):  <R**2>=            114.4339
 Charge=              0.0000 electrons
 Dipole moment (field-independent basis, Debye):
    X=              0.0000    Y=              0.0000    Z=              0.0000  Tot=              0.0000
 Quadrupole moment (field-independent basis, Debye-Ang):
   XX=            -31.7452   YY=            -31.7452   ZZ=            -31.7452
   XY=             -0.0000   XZ=              0.0000   YZ=              0.0000
 Traceless Quadrupole moment (field-independent basis, Debye-Ang):
   XX=             -0.0000   YY=              0.0000   ZZ=             -0.0000
   XY=             -0.0000   XZ=              0.0000   YZ=              0.0000
 Octapole moment (field-independent basis, Debye-Ang**2):
  XXX=              0.0000  YYY=              0.0000  ZZZ=              0.0000  XYY=              0.0000
  XXY=              0.0000  XXZ=             -0.0000  XZZ=              0.0000  YZZ=              0.0000
  YYZ=             -0.0000  XYZ=             -4.3467
 Hexadecapole moment (field-independent basis, Debye-Ang**3):
 XXXX=            -72.0788 YYYY=            -72.0788 ZZZZ=            -72.0788 XXXY=             -0.0000
 XXXZ=              0.0000 YYYX=             -0.0000 YYYZ=              0.0000 ZZZX=              0.0000
 ZZZY=              0.0000 XXYY=            -26.0713 XXZZ=            -26.0713 YYZZ=            -26.0713
 XXYZ=              0.0000 YYXZ=              0.0000 ZZXY=             -0.0000
 N-N= 6.167096556973D+01 E-N=-1.437884295200D+04  KE= 5.981042594744D+03
 Symmetry A    KE= 3.404600820972D+03
 Symmetry B1   KE= 8.588139245906D+02
 Symmetry B2   KE= 8.588139245906D+02
 Symmetry B3   KE= 8.588139245906D+02
 1\1\GINC-SRU01\FOpt\RMP2-FC\3-21G\H4Sn1\NAT\21-Jun-2023\0\\# opt freq=
 hpmodes mp2/3-21g geom=connectivity\\Title Card Required\\0,1\Sn,-0.40
 44117967,0.551470567,0.\H,0.1781208586,-1.0962443853,0.0000001035\H,0.
 1781508711,1.3753174808,1.4269568526\H,0.178150987,1.3753173425,-1.426
 9568851\H,-2.1520699034,0.5514918301,-0.000000071\\Version=AM64L-G09Re
 vC.01\State=1-A1\HF=-5998.9530375\MP2=-5999.0147212\RMSD=1.044e-09\RMS
 F=9.221e-07\Dipole=0.,0.,0.\PG=TD [O(Sn1),4C3(H1)]\\@


 THE DIFFERENCE BETWEEN A NOOSE AND A HALO IS ONLY 12 INCHES.
 Job cpu time:  0 days  0 hours  0 minutes  6.1 seconds.
 File lengths (MBytes):  RWF=      5 Int=      0 D2E=      0 Chk=      2 Scr=      1
 Normal termination of Gaussian 09 at Wed Jun 21 01:47:12 2023.
 Link1:  Proceeding to internal job step number  2.
 -------------------------------------------------------------------
 #N Geom=AllCheck Guess=TCheck SCRF=Check GenChk RMP2(FC)/3-21G Freq
 -------------------------------------------------------------------
 1/10=4,29=7,30=1,38=1,40=1/1,3;
 2/12=2,40=1/2;
 3/5=5,11=1,14=-4,16=1,25=1,30=1,70=2,71=2,116=1/1,2,3;
 4/5=101/1;
 5/5=2,98=1/2;
 8/6=3,8=1,10=1,19=11,30=-1/1;
 9/15=3,16=-3/6;
 11/6=1,8=1,15=11,17=12,24=-1,27=1,28=-2,29=300,32=6,42=3/1,2,10;
 10/6=2,21=1/2;
 8/6=4,8=1,10=1,19=11,30=-1/11,4;
 10/5=1,20=4/2;
 11/12=2,14=11,16=1,17=2,28=-2,42=3/2,10,12;
 6/7=2,8=2,9=2,10=2/1;
 7/8=11,10=1,12=2,25=1,44=2/1,2,3,16;
 1/10=4,30=1/3;
 99//99;
 Structure from the checkpoint file:  SnH4.chk
 -------------------
 Title Card Required
 -------------------
 Charge =  0 Multiplicity = 1
 Redundant internal coordinates found in file.
 Sn,0,-0.4044117967,0.551470567,0.
 H,0,0.1781208586,-1.0962443853,0.0000001035
 H,0,0.1781508711,1.3753174808,1.4269568526
 H,0,0.178150987,1.3753173425,-1.4269568851
 H,0,-2.1520699034,0.5514918301,-0.000000071
 Recover connectivity data from disk.

 GradGradGradGradGradGradGradGradGradGradGradGradGradGradGradGradGradGrad
 Berny optimization.
 Initialization pass.
                           ----------------------------
                           !    Initial Parameters    !
                           ! (Angstroms and Degrees)  !
 --------------------------                            --------------------------
 ! Name  Definition              Value          Derivative Info.                !
 --------------------------------------------------------------------------------
 ! R1    R(1,2)                  1.7477         calculate D2E/DX2 analytically  !
 ! R2    R(1,3)                  1.7477         calculate D2E/DX2 analytically  !
 ! R3    R(1,4)                  1.7477         calculate D2E/DX2 analytically  !
 ! R4    R(1,5)                  1.7477         calculate D2E/DX2 analytically  !
 ! A1    A(2,1,3)              109.4712         calculate D2E/DX2 analytically  !
 ! A2    A(2,1,4)              109.4712         calculate D2E/DX2 analytically  !
 ! A3    A(2,1,5)              109.4712         calculate D2E/DX2 analytically  !
 ! A4    A(3,1,4)              109.4712         calculate D2E/DX2 analytically  !
 ! A5    A(3,1,5)              109.4712         calculate D2E/DX2 analytically  !
 ! A6    A(4,1,5)              109.4712         calculate D2E/DX2 analytically  !
 ! D1    D(2,1,4,3)           -120.0            calculate D2E/DX2 analytically  !
 ! D2    D(2,1,5,3)            120.0            calculate D2E/DX2 analytically  !
 ! D3    D(2,1,5,4)           -120.0            calculate D2E/DX2 analytically  !
 ! D4    D(3,1,5,4)            120.0            calculate D2E/DX2 analytically  !
 --------------------------------------------------------------------------------
 Trust Radius=3.00D-01 FncErr=1.00D-07 GrdErr=1.00D-07
 Number of steps in this run=      2 maximum allowed number of steps=      2.
 GradGradGradGradGradGradGradGradGradGradGradGradGradGradGradGradGradGrad

                          Input orientation:                          
 ---------------------------------------------------------------------
 Center     Atomic      Atomic             Coordinates (Angstroms)
 Number     Number       Type             X           Y           Z
 ---------------------------------------------------------------------
      1         50           0       -0.404412    0.551471    0.000000
      2          1           0        0.178121   -1.096244    0.000000
      3          1           0        0.178151    1.375317    1.426957
      4          1           0        0.178151    1.375317   -1.426957
      5          1           0       -2.152070    0.551492   -0.000000
 ---------------------------------------------------------------------
                    Distance matrix (angstroms):
                    1          2          3          4          5
     1  Sn   0.000000
     2  H    1.747658   0.000000
     3  H    1.747658   2.853914   0.000000
     4  H    1.747658   2.853914   2.853914   0.000000
     5  H    1.747658   2.853914   2.853914   2.853914   0.000000
 Stoichiometry    H4Sn
 Framework group  TD[O(Sn),4C3(H)]
 Deg. of freedom     1
 Full point group                 TD      NOp  24
 Largest Abelian subgroup         D2      NOp   4
 Largest concise Abelian subgroup D2      NOp   4
                         Standard orientation:                         
 ---------------------------------------------------------------------
 Center     Atomic      Atomic             Coordinates (Angstroms)
 Number     Number       Type             X           Y           Z
 ---------------------------------------------------------------------
      1         50           0        0.000000    0.000000    0.000000
      2          1           0        1.009011    1.009011    1.009011
      3          1           0       -1.009011   -1.009011    1.009011
      4          1           0       -1.009011    1.009011   -1.009011
      5          1           0        1.009011   -1.009011   -1.009011
 ---------------------------------------------------------------------
 Rotational constants (GHZ):     61.5673369     61.5673369     61.5673369
 Standard basis: 3-21G (6D, 7F)
 There are    14 symmetry adapted basis functions of A   symmetry.
 There are     9 symmetry adapted basis functions of B1  symmetry.
 There are     9 symmetry adapted basis functions of B2  symmetry.
 There are     9 symmetry adapted basis functions of B3  symmetry.
 Integral buffers will be    131072 words long.
 Raffenetti 1 integral format.
 Two-electron integral symmetry is turned on.
    41 basis functions,    99 primitive gaussians,    41 cartesian basis functions
    27 alpha electrons       27 beta electrons
       nuclear repulsion energy        61.6709655697 Hartrees.
 NAtoms=    5 NActive=    5 NUniq=    2 SFac= 4.00D+00 NAtFMM=   60 NAOKFM=F Big=F
 One-electron integrals computed using PRISM.
 NBasis=    41 RedAO= T  NBF=    14     9     9     9
 NBsUse=    41 1.00D-06 NBFU=    14     9     9     9
 Initial guess read from the checkpoint file:  SnH4.chk
 B after Tr=     0.000000   -0.000000   -0.000000
         Rot=    1.000000    0.000000    0.000000    0.000000 Ang=   0.00 deg.
 Initial guess orbital symmetries:
       Occupied  (A1) (A1) (T2) (T2) (T2) (A1) (T2) (T2) (T2) (T2)
                 (T2) (T2) (E) (E) (A1) (T2) (T2) (T2) (T2) (T2)
                 (T2) (E) (E) (A1) (T2) (T2) (T2)
       Virtual   (T2) (T2) (T2) (A1) (A1) (T2) (T2) (T2) (T2) (T2)
                 (T2) (A1) (A1) (A1)
 Requested convergence on RMS density matrix=1.00D-08 within 128 cycles.
 Requested convergence on MAX density matrix=1.00D-06.
 Requested convergence on             energy=1.00D-06.
 No special actions if energy rises.
 Keep R1 ints in memory in canonical form, NReq=1215344.
 An orbital has undefined symmetry, so N**3 symmetry is turned off.
 SCF Done:  E(RHF) =  -5998.95303747     A.U. after    1 cycles
             Convg  =    0.1063D-09             -V/T =  2.0030
 ExpMin= 7.06D-02 ExpMax= 1.27D+04 ExpMxC= 1.27D+04 IAcc=3 IRadAn=         5 AccDes= 0.00D+00
 HarFok:  IExCor=  205 AccDes= 0.00D+00 IRadAn=         5 IDoV=-2
 ScaDFX=  1.000000  1.000000  1.000000  1.000000
 Defaulting to unpruned grid for atomic number  50.
 Range of M.O.s used for correlation:    19    41
 NBasis=    41 NAE=    27 NBE=    27 NFC=    18 NFV=     0
 NROrb=     23 NOA=     9 NOB=     9 NVA=    14 NVB=    14

 **** Warning!!: The largest alpha MO coefficient is  0.21240126D+02

 Disk-based method using ON**2 memory for  9 occupieds at a time.
 Permanent disk used for amplitudes=      174825 words.
 Estimated scratch disk usage=     1660817 words.
 Actual    scratch disk usage=     1660817 words.
 JobTyp=1 Pass  1:  I=  19 to  27 NPSUse=  1 ParTrn=F ParDer=F DoDerP=T.
 (rs|ai) integrals will be sorted in core.
 Spin components of T(2) and E(2):
     alpha-alpha T2 =       0.1202754072D-02 E2=     -0.2250717786D-02
     alpha-beta  T2 =       0.3056409838D-01 E2=     -0.5718232366D-01
     beta-beta   T2 =       0.1202754072D-02 E2=     -0.2250717786D-02
 ANorm=    0.1016351124D+01
 E2 =    -0.6168375923D-01 EUMP2 =    -0.59990147212322D+04
 G2DrvN: will do     6 centers at a time, making    1 passes doing MaxLOS=2.
 Calling FoFCou, ICntrl=  3107 FMM=F I1Cent=   0 AccDes= 0.00D+00.
 FoFDir/FoFCou used for L=0 through L=2.
 End of G2Drv Frequency-dependent properties file   721 does not exist.
 End of G2Drv Frequency-dependent properties file   722 does not exist.
          IDoAtm=11111
          Differentiating once with respect to electric field.
                with respect to dipole field.
          Differentiating once with respect to nuclear coordinates.
          Keep R1 ints in memory in canonical form, NReq=1192301.
          There are    18 degrees of freedom in the 1st order CPHF.  IDoFFX=5.
     15 vectors produced by pass  0 Test12= 2.10D-15 5.56D-09 XBig12= 9.13D+00 1.58D+00.
 AX will form    15 AO Fock derivatives at one time.
     15 vectors produced by pass  1 Test12= 2.10D-15 5.56D-09 XBig12= 2.36D-02 9.70D-02.
     15 vectors produced by pass  2 Test12= 2.10D-15 5.56D-09 XBig12= 2.68D-05 1.83D-03.
     15 vectors produced by pass  3 Test12= 2.10D-15 5.56D-09 XBig12= 6.74D-08 9.47D-05.
     15 vectors produced by pass  4 Test12= 2.10D-15 5.56D-09 XBig12= 2.65D-10 6.92D-06.
     12 vectors produced by pass  5 Test12= 2.10D-15 5.56D-09 XBig12= 4.85D-13 2.39D-07.
      3 vectors produced by pass  6 Test12= 2.10D-15 5.56D-09 XBig12= 2.98D-15 1.92D-08.
 Inverted reduced A of dimension    90 with in-core refinement.
 End of Minotr Frequency-dependent properties file   721 does not exist.
 End of Minotr Frequency-dependent properties file   722 does not exist.
 MDV=    33554432.
 Form MO integral derivatives with frozen-active canonical formalism.
 Discarding MO integrals.
 Reordered first order wavefunction length =       285768
 In DefCFB: NBatch=  1 ICI= 27 ICA= 14 LFMax= 14
            Large arrays: LIAPS=     2541672 LIARS=     3580038 words.
 Semi-Direct transformation.
 ModeAB=           2 MOrb=            27 LenV=      33369266
 LASXX=       403677 LTotXX=      403677 LenRXX=      403677
 LTotAB=      508032 MaxLAS=      953127 LenRXY=      953127
 NonZer=     1019547 LenScr=     2293248 LnRSAI=           0
 LnScr1=           0 LExtra=           0 Total=      3650052
 MaxDsk=          -1 SrtSym=           F ITran=            4
 JobTyp=0 Pass  1:  I=   1 to  27.
 (rs|ai) integrals will be sorted in core.
 SymMOI:  orbitals are not symmetric.
 Spin components of T(2) and E(2):
     alpha-alpha T2 =       0.1202754072D-02 E2=     -0.2250717786D-02
     alpha-beta  T2 =       0.3056409838D-01 E2=     -0.5718232366D-01
     beta-beta   T2 =       0.1202754072D-02 E2=     -0.2250717786D-02
 ANorm=    0.1437337543D+01
 E2 =    -0.6168375923D-01 EUMP2 =    -0.59990147212322D+04
          IDoAtm=11111
          Differentiating once with respect to electric field.
                with respect to dipole field.
          Differentiating once with respect to nuclear coordinates.
          There are     1 degrees of freedom in the 1st order CPHF.  IDoFFX=0.
 LinEq1:  Iter=  0 NonCon=     1 RMS=3.19D-03 Max=3.01D-02
 LinEq1:  Iter=  1 NonCon=     1 RMS=2.98D-04 Max=2.29D-03
 LinEq1:  Iter=  2 NonCon=     1 RMS=2.87D-05 Max=2.40D-04
 LinEq1:  Iter=  3 NonCon=     1 RMS=4.03D-06 Max=5.75D-05
 LinEq1:  Iter=  4 NonCon=     1 RMS=1.44D-07 Max=2.10D-06
 LinEq1:  Iter=  5 NonCon=     1 RMS=7.26D-09 Max=6.92D-08
 LinEq1:  Iter=  6 NonCon=     1 RMS=2.30D-10 Max=1.57D-09
 LinEq1:  Iter=  7 NonCon=     0 RMS=2.12D-11 Max=1.70D-10
 Linear equations converged to 1.000D-10 1.000D-09 after     7 iterations.
 End of Minotr Frequency-dependent properties file   721 does not exist.
 End of Minotr Frequency-dependent properties file   722 does not exist.
 Symmetrizing basis deriv contribution to polar:
 IMax=3 JMax=2 DiffMx= 0.00D+00
 G2DrvN: will do     6 centers at a time, making    1 passes doing MaxLOS=2.
 Calling FoFCou, ICntrl=  3107 FMM=F I1Cent=   0 AccDes= 0.00D+00.
 FoFDir/FoFCou used for L=0 through L=2.
 End of G2Drv Frequency-dependent properties file   721 does not exist.
 End of G2Drv Frequency-dependent properties file   722 does not exist.
 R2 and R3 integrals will be kept in memory, NReq=     1562182.
 DD1Dir will call FoFMem   1 times, MxPair=       756
 NAB=   378 NAA=     0 NBB=     0.
 Discarding MO integrals.

 **********************************************************************

            Population analysis using the SCF density.

 **********************************************************************

 Orbital symmetries:
       Occupied  (A1) (A1) (T2) (T2) (T2) (A1) (T2) (T2) (T2) (T2)
                 (T2) (T2) (E) (E) (A1) (T2) (T2) (T2) (T2) (T2)
                 (T2) (E) (E) (A1) (T2) (T2) (T2)
       Virtual   (T2) (T2) (T2) (A1) (A1) (T2) (T2) (T2) (T2) (T2)
                 (T2) (A1) (A1) (A1)
 The electronic state is 1-A1.
 Alpha  occ. eigenvalues -- **********-156.24725-145.39604-145.39604-145.39604
 Alpha  occ. eigenvalues --  -31.54046 -26.91770 -26.91770 -26.91770 -19.08227
 Alpha  occ. eigenvalues --  -19.08227 -19.08227 -19.08204 -19.08204  -5.54700
 Alpha  occ. eigenvalues --   -3.93115  -3.93115  -3.93115  -1.41602  -1.41602
 Alpha  occ. eigenvalues --   -1.41602  -1.41200  -1.41200  -0.65916  -0.44283
 Alpha  occ. eigenvalues --   -0.44283  -0.44283
 Alpha virt. eigenvalues --    0.14910   0.14910   0.14910   0.21725   0.31206
 Alpha virt. eigenvalues --    0.37010   0.37010   0.37010   1.31472   1.31472
 Alpha virt. eigenvalues --    1.31472   1.34958   2.97773 210.84266
          Condensed to atoms (all electrons):
              1          2          3          4          5
     1  Sn  47.757716   0.339580   0.339580   0.339580   0.339580
     2  H    0.339580   0.903473  -0.007354  -0.007354  -0.007354
     3  H    0.339580  -0.007354   0.903473  -0.007354  -0.007354
     4  H    0.339580  -0.007354  -0.007354   0.903473  -0.007354
     5  H    0.339580  -0.007354  -0.007354  -0.007354   0.903473
 Mulliken atomic charges:
              1
     1  Sn   0.883962
     2  H   -0.220991
     3  H   -0.220991
     4  H   -0.220991
     5  H   -0.220991
 Sum of Mulliken atomic charges =   0.00000
 Mulliken charges with hydrogens summed into heavy atoms:
              1
     1  Sn   0.000000
 Sum of Mulliken charges with hydrogens summed into heavy atoms =   0.00000
 APT atomic charges:
              1
     1  Sn   1.336991
     2  H   -0.334248
     3  H   -0.334248
     4  H   -0.334248
     5  H   -0.334248
 Sum of APT charges=  -0.00000
 APT Atomic charges with hydrogens summed into heavy atoms:
              1
     1  Sn  -0.000000
     2  H    0.000000
     3  H    0.000000
     4  H    0.000000
     5  H    0.000000
 Sum of APT charges=  -0.00000
 Electronic spatial extent (au):  <R**2>=            114.4339
 Charge=              0.0000 electrons
 Dipole moment (field-independent basis, Debye):
    X=             -0.0000    Y=              0.0000    Z=              0.0000  Tot=              0.0000
 Quadrupole moment (field-independent basis, Debye-Ang):
   XX=            -31.7452   YY=            -31.7452   ZZ=            -31.7452
   XY=             -0.0000   XZ=             -0.0000   YZ=              0.0000
 Traceless Quadrupole moment (field-independent basis, Debye-Ang):
   XX=              0.0000   YY=             -0.0000   ZZ=              0.0000
   XY=             -0.0000   XZ=             -0.0000   YZ=              0.0000
 Octapole moment (field-independent basis, Debye-Ang**2):
  XXX=             -0.0000  YYY=              0.0000  ZZZ=             -0.0000  XYY=             -0.0000
  XXY=              0.0000  XXZ=             -0.0000  XZZ=             -0.0000  YZZ=              0.0000
  YYZ=              0.0000  XYZ=             -4.3467
 Hexadecapole moment (field-independent basis, Debye-Ang**3):
 XXXX=            -72.0788 YYYY=            -72.0788 ZZZZ=            -72.0788 XXXY=             -0.0000
 XXXZ=             -0.0000 YYYX=             -0.0000 YYYZ=              0.0000 ZZZX=             -0.0000
 ZZZY=              0.0000 XXYY=            -26.0713 XXZZ=            -26.0713 YYZZ=            -26.0713
 XXYZ=              0.0000 YYXZ=             -0.0000 ZZXY=             -0.0000
 N-N= 6.167096556973D+01 E-N=-1.437884295202D+04  KE= 5.981042594748D+03
 Symmetry A    KE= 3.404600820987D+03
 Symmetry B1   KE= 8.588139245869D+02
 Symmetry B2   KE= 8.588139245869D+02
 Symmetry B3   KE= 8.588139245869D+02
  Exact polarizability:  29.244  -0.000  29.244   0.000   0.000  29.244
 Approx polarizability:  23.728   0.000  23.728  -0.000   0.000  23.728
 Calling FoFJK, ICntrl=    100127 FMM=F ISym2X=1 I1Cent= 0 IOpClX= 0 NMat=1 NMatS=1 NMatT=0.
 Full mass-weighted force constant matrix:
 Low frequencies ---   -3.7649   -3.7649   -3.7649   -0.0172   -0.0172   -0.0172
 Low frequencies ---  719.7996  719.7996  719.7996
 Harmonic frequencies (cm**-1), IR intensities (KM/Mole), Raman scattering
 activities (A**4/AMU), depolarization ratios for plane and unpolarized
 incident light, reduced masses (AMU), force constants (mDyne/A),
 and normal coordinates:
                           1         2         3         4         5
                          T2        T2        T2         E         E
       Frequencies ---   719.7996  719.7996  719.7996  746.8861  746.8862
    Reduced masses ---     1.0315    1.0315    1.0315    1.0078    1.0078
   Force constants ---     0.3149    0.3149    0.3149    0.3312    0.3312
    IR Intensities ---   269.7104  269.7104  269.7104    0.0000    0.0000
 Coord Atom Element:
   1     1    50          0.01009   0.00488   0.00877   0.00000  -0.00000
   2     1    50         -0.01004   0.00501   0.00876   0.00000  -0.00000
   3     1    50          0.00009   0.01239  -0.00700  -0.00000  -0.00000
   1     2     1         -0.43199   0.09656  -0.23241  -0.08098   0.40014
   2     2     1          0.43358   0.09103  -0.23167  -0.30604  -0.27020
   3     2     1         -0.00182  -0.22635   0.44577   0.38702  -0.12993
   1     3     1         -0.43433  -0.24437  -0.03988   0.08098  -0.40014
   2     3     1          0.43124  -0.24990  -0.03915   0.30604   0.27020
   3     3     1         -0.00315  -0.49861  -0.03639   0.38702  -0.12993
   1     4     1         -0.15580  -0.04134  -0.47325   0.08098  -0.40014
   2     4     1          0.15372  -0.38426  -0.28047  -0.30604  -0.27020
   3     4     1          0.27437  -0.36425   0.20493  -0.38702   0.12993
   1     5     1         -0.15814  -0.38227  -0.28073  -0.08098   0.40014
   2     5     1          0.15606  -0.04333  -0.47299   0.30604   0.27020
   3     5     1         -0.27934  -0.36071   0.20446  -0.38702   0.12993
                           6         7         8         9
                          T2        T2        T2        A1
       Frequencies ---  1928.0926 1928.0926 1928.0926 1945.6114
    Reduced masses ---     1.0178    1.0178    1.0178    1.0078
   Force constants ---     2.2293    2.2293    2.2293    2.2477
    IR Intensities ---   182.7550  182.7550  182.7550    0.0000
 Coord Atom Element:
   1     1    50          0.00653  -0.00325  -0.00569   0.00000
   2     1    50         -0.00655  -0.00320  -0.00569   0.00000
   3     1    50         -0.00003  -0.00804   0.00456   0.00000
   1     2     1          0.02040   0.45663   0.20261  -0.28868
   2     2     1         -0.01767   0.45675   0.20260  -0.28868
   3     2     1          0.00131   0.44266   0.23245  -0.28868
   1     3     1          0.01867  -0.06072   0.49593   0.28868
   2     3     1         -0.01941  -0.06060   0.49591   0.28868
   3     3     1          0.00027   0.02785  -0.49920  -0.28868
   1     4     1         -0.40064   0.25055  -0.16336   0.28868
   2     4     1          0.40060  -0.26933   0.13024  -0.28868
   3     4     1         -0.41974   0.23658  -0.13353   0.28868
   1     5     1         -0.40238  -0.26680   0.12995  -0.28868
   2     5     1          0.40233   0.24802  -0.16307   0.28868
   3     5     1          0.42132   0.23393  -0.13323   0.28868
 Harmonic frequencies (cm**-1), IR intensities (KM/Mole), Raman scattering
 activities (A**4/AMU), depolarization ratios for plane and unpolarized
 incident light, reduced masses (AMU), force constants (mDyne/A),
 and normal coordinates:
                     1                      2                      3
                    T2                     T2                     T2
 Frequencies --   719.7996               719.7996               719.7996
 Red. masses --     1.0315                 1.0315                 1.0315
 Frc consts  --     0.3149                 0.3149                 0.3149
 IR Inten    --   269.7104               269.7104               269.7104
  Atom  AN      X      Y      Z        X      Y      Z        X      Y      Z
     1  50     0.01  -0.01   0.00     0.00   0.01   0.01     0.01   0.01  -0.01
     2   1    -0.43   0.43  -0.00     0.10   0.09  -0.23    -0.23  -0.23   0.45
     3   1    -0.43   0.43  -0.00    -0.24  -0.25  -0.50    -0.04  -0.04  -0.04
     4   1    -0.16   0.15   0.27    -0.04  -0.38  -0.36    -0.47  -0.28   0.20
     5   1    -0.16   0.16  -0.28    -0.38  -0.04  -0.36    -0.28  -0.47   0.20
                     4                      5                      6
                     E                      E                     T2
 Frequencies --   746.8861               746.8862              1928.0926
 Red. masses --     1.0078                 1.0078                 1.0178
 Frc consts  --     0.3312                 0.3312                 2.2293
 IR Inten    --     0.0000                 0.0000               182.7550
  Atom  AN      X      Y      Z        X      Y      Z        X      Y      Z
     1  50     0.00   0.00  -0.00    -0.00  -0.00  -0.00     0.01  -0.01  -0.00
     2   1    -0.08  -0.31   0.39     0.40  -0.27  -0.13     0.02  -0.02   0.00
     3   1     0.08   0.31   0.39    -0.40   0.27  -0.13     0.02  -0.02   0.00
     4   1     0.08  -0.31  -0.39    -0.40  -0.27   0.13    -0.40   0.40  -0.42
     5   1    -0.08   0.31  -0.39     0.40   0.27   0.13    -0.40   0.40   0.42
                     7                      8                      9
                    T2                     T2                     A1
 Frequencies --  1928.0926              1928.0926              1945.6114
 Red. masses --     1.0178                 1.0178                 1.0078
 Frc consts  --     2.2293                 2.2293                 2.2477
 IR Inten    --   182.7550               182.7550                 0.0000
  Atom  AN      X      Y      Z        X      Y      Z        X      Y      Z
     1  50    -0.00  -0.00  -0.01    -0.01  -0.01   0.00     0.00   0.00   0.00
     2   1     0.46   0.46   0.44     0.20   0.20   0.23    -0.29  -0.29  -0.29
     3   1    -0.06  -0.06   0.03     0.50   0.50  -0.50     0.29   0.29  -0.29
     4   1     0.25  -0.27   0.24    -0.16   0.13  -0.13     0.29  -0.29   0.29
     5   1    -0.27   0.25   0.23     0.13  -0.16  -0.13    -0.29   0.29   0.29

 -------------------
 - Thermochemistry -
 -------------------
 Temperature   298.150 Kelvin.  Pressure   1.00000 Atm.
 Atom     1 has atomic number 50 and mass 117.90180
 Atom     2 has atomic number  1 and mass   1.00783
 Atom     3 has atomic number  1 and mass   1.00783
 Atom     4 has atomic number  1 and mass   1.00783
 Atom     5 has atomic number  1 and mass   1.00783
 Molecular mass:   121.93310 amu.
 Principal axes and moments of inertia in atomic units:
                           1         2         3
     Eigenvalues --    29.31329  29.31329  29.31329
           X            0.11047   0.13779   0.98428
           Y            0.98501   0.11685  -0.12691
           Z           -0.13250   0.98354  -0.12282
 This molecule is a spherical top.
 Rotational symmetry number 12.
 Rotational temperatures (Kelvin)      2.95476     2.95476     2.95476
 Rotational constants (GHZ):          61.56734    61.56734    61.56734
 Zero-point vibrational energy      68085.8 (Joules/Mol)
                                   16.27290 (Kcal/Mol)
 Vibrational temperatures:   1035.63  1035.63  1035.63  1074.60  1074.60
          (Kelvin)           2774.09  2774.09  2774.09  2799.30
 
 Zero-point correction=                           0.025933 (Hartree/Particle)
 Thermal correction to Energy=                    0.029273
 Thermal correction to Enthalpy=                  0.030218
 Thermal correction to Gibbs Free Energy=         0.004270
 Sum of electronic and zero-point Energies=          -5998.988789
 Sum of electronic and thermal Energies=             -5998.985448
 Sum of electronic and thermal Enthalpies=           -5998.984504
 Sum of electronic and thermal Free Energies=        -5999.010451
 
                     E (Thermal)             CV                S
                      KCal/Mol        Cal/Mol-Kelvin    Cal/Mol-Kelvin
 Total                   18.369              9.883             54.611
 Electronic               0.000              0.000              0.000
 Translational            0.889              2.981             40.309
 Rotational               0.889              2.981             12.934
 Vibrational             16.592              3.921              1.368
                       Q            Log10(Q)             Ln(Q)
 Total Bot       0.108630D-01         -1.964051         -4.522395
 Total V=0       0.920564D+10          9.964054         22.943082
 Vib (Bot)       0.137104D-11        -11.862951        -27.315454
 Vib (V=0)       0.116186D+01          0.065154          0.150023
 Electronic      0.100000D+01          0.000000          0.000000
 Translational   0.529222D+08          7.723638         17.784333
 Rotational      0.149714D+03          2.175262          5.008726
 ***** Axes restored to original set *****
 -------------------------------------------------------------------
 Center     Atomic                   Forces (Hartrees/Bohr)
 Number     Number              X              Y              Z
 -------------------------------------------------------------------
      1       50           0.000000000   -0.000000000   -0.000000000
      2        1           0.000000595   -0.000001684    0.000000000
      3        1           0.000000595    0.000000842    0.000001458
      4        1           0.000000595    0.000000842   -0.000001458
      5        1          -0.000001786    0.000000000   -0.000000000
 -------------------------------------------------------------------
 Cartesian Forces:  Max     0.000001786 RMS     0.000000922

 GradGradGradGradGradGradGradGradGradGradGradGradGradGradGradGradGradGrad
 Berny optimization.
 Internal  Forces:  Max     0.000001786 RMS     0.000000954
 Search for a local minimum.
 Step number   1 out of a maximum of    2
 All quantities printed in internal units (Hartrees-Bohrs-Radians)
 Second derivative matrix not updated -- analytic derivatives used.
 The second derivative matrix:
                          R1        R2        R3        R4        A1
           R1           0.14119
           R2           0.00106   0.14119
           R3           0.00106   0.00106   0.14119
           R4           0.00106   0.00106   0.00106   0.14119
           A1           0.00102   0.00102  -0.00064  -0.00140   0.01238
           A2           0.00160  -0.00041   0.00178  -0.00297  -0.00423
           A3           0.00313  -0.00251  -0.00278   0.00216  -0.00773
           A4          -0.00041   0.00160   0.00178  -0.00297  -0.00423
           A5          -0.00251   0.00313  -0.00278   0.00216  -0.00773
           A6          -0.00283  -0.00283   0.00264   0.00302   0.01153
           D1          -0.00198  -0.00198  -0.00140   0.00536  -0.00998
           D2           0.00163   0.00163  -0.00419   0.00093   0.00569
           D3          -0.00215   0.00378  -0.00210   0.00047   0.00285
           D4          -0.00378   0.00215   0.00210  -0.00047  -0.00285
                          A2        A3        A4        A5        A6
           A2           0.02461
           A3          -0.01422   0.04803
           A4           0.00096   0.01104   0.02461
           A5           0.01104  -0.02116  -0.01422   0.04803
           A6          -0.01816  -0.01596  -0.01816  -0.01596   0.05672
           D1          -0.01048   0.01141  -0.01048   0.01141   0.00812
           D2          -0.00713   0.00700  -0.00713   0.00700  -0.00542
           D3          -0.01031  -0.00222   0.00318   0.00921  -0.00271
           D4          -0.00318  -0.00921   0.01031   0.00222   0.00271
                          D1        D2        D3        D4
           D1           0.02506
           D2           0.00176   0.01554
           D3           0.00088   0.00777   0.01565
           D4          -0.00088  -0.00777   0.00788   0.01565
 ITU=  0
     Eigenvalues ---    0.03062   0.03504   0.05564   0.08048   0.08169
     Eigenvalues ---    0.14097   0.14098   0.14126   0.14437
 Angle between quadratic step and forces=   0.00 degrees.
 Linear search not attempted -- first point.
 Iteration  1 RMS(Cart)=  0.00000661 RMS(Int)=  0.00000000
 Iteration  2 RMS(Cart)=  0.00000000 RMS(Int)=  0.00000000
 ClnCor:  largest displacement from symmetrization is 9.94D-13 for atom     5.
 Variable       Old X    -DE/DX   Delta X   Delta X   Delta X     New X
                                 (Linear)    (Quad)   (Total)
    R1        3.30260   0.00000   0.00000   0.00001   0.00001   3.30261
    R2        3.30260   0.00000   0.00000   0.00001   0.00001   3.30261
    R3        3.30260   0.00000   0.00000   0.00001   0.00001   3.30261
    R4        3.30260   0.00000   0.00000   0.00001   0.00001   3.30261
    A1        1.91063   0.00000   0.00000  -0.00000   0.00000   1.91063
    A2        1.91063   0.00000   0.00000   0.00000   0.00000   1.91063
    A3        1.91063  -0.00000   0.00000  -0.00000   0.00000   1.91063
    A4        1.91063  -0.00000   0.00000  -0.00000   0.00000   1.91063
    A5        1.91063   0.00000   0.00000   0.00000   0.00000   1.91063
    A6        1.91063   0.00000   0.00000   0.00000  -0.00000   1.91063
    D1       -2.09440  -0.00000   0.00000   0.00000   0.00000  -2.09440
    D2        2.09440  -0.00000   0.00000  -0.00000   0.00000   2.09440
    D3       -2.09440  -0.00000   0.00000  -0.00000   0.00000  -2.09440
    D4        2.09440  -0.00000   0.00000   0.00000  -0.00000   2.09440
         Item               Value     Threshold  Converged?
 Maximum Force            0.000002     0.000450     YES
 RMS     Force            0.000001     0.000300     YES
 Maximum Displacement     0.000012     0.001800     YES
 RMS     Displacement     0.000007     0.001200     YES
 Predicted change in Energy=-4.417180D-11
 Optimization completed.
    -- Stationary point found.
                           ----------------------------
                           !   Optimized Parameters   !
                           ! (Angstroms and Degrees)  !
 --------------------------                            --------------------------
 ! Name  Definition              Value          Derivative Info.                !
 --------------------------------------------------------------------------------
 ! R1    R(1,2)                  1.7477         -DE/DX =    0.0                 !
 ! R2    R(1,3)                  1.7477         -DE/DX =    0.0                 !
 ! R3    R(1,4)                  1.7477         -DE/DX =    0.0                 !
 ! R4    R(1,5)                  1.7477         -DE/DX =    0.0                 !
 ! A1    A(2,1,3)              109.4712         -DE/DX =    0.0                 !
 ! A2    A(2,1,4)              109.4712         -DE/DX =    0.0                 !
 ! A3    A(2,1,5)              109.4712         -DE/DX =    0.0                 !
 ! A4    A(3,1,4)              109.4712         -DE/DX =    0.0                 !
 ! A5    A(3,1,5)              109.4712         -DE/DX =    0.0                 !
 ! A6    A(4,1,5)              109.4712         -DE/DX =    0.0                 !
 ! D1    D(2,1,4,3)           -120.0            -DE/DX =    0.0                 !
 ! D2    D(2,1,5,3)            120.0            -DE/DX =    0.0                 !
 ! D3    D(2,1,5,4)           -120.0            -DE/DX =    0.0                 !
 ! D4    D(3,1,5,4)            120.0            -DE/DX =    0.0                 !
 --------------------------------------------------------------------------------
 GradGradGradGradGradGradGradGradGradGradGradGradGradGradGradGradGradGrad

 1\1\GINC-SRU01\Freq\RMP2-FC\3-21G\H4Sn1\NAT\21-Jun-2023\0\\#N Geom=All
 Check Guess=TCheck SCRF=Check GenChk RMP2(FC)/3-21G Freq\\Title Card R
 equired\\0,1\Sn,-0.4044117967,0.551470567,0.\H,0.1781208586,-1.0962443
 853,0.0000001035\H,0.1781508711,1.3753174808,1.4269568526\H,0.17815098
 7,1.3753173425,-1.4269568851\H,-2.1520699034,0.5514918301,-0.000000071
 \\Version=AM64L-G09RevC.01\State=1-A1\HF=-5998.9530375\MP2=-5999.01472
 12\RMSD=1.063e-10\RMSF=9.221e-07\ZeroPoint=0.0259325\Thermal=0.0292734
 \Dipole=0.,0.,0.\DipoleDeriv=1.336991,0.,0.,0.,1.336991,0.,0.,0.,1.336
 991,-0.316625,0.0249208,0.,0.0249208,-0.3783038,0.,0.,0.,-0.3078145,-0
 .3166259,-0.0124609,-0.021583,-0.0124609,-0.3254364,-0.0305222,-0.0215
 83,-0.0305222,-0.360681,-0.3166259,-0.0124609,0.021583,-0.0124609,-0.3
 254364,0.0305222,0.021583,0.0305222,-0.360681,-0.3871143,0.000001,0.,0
 .000001,-0.3078145,0.,0.,0.,-0.3078145\Polar=29.2443061,0.,29.2443061,
 0.,0.,29.2443061\PG=TD [O(Sn1),4C3(H1)]\NImag=0\\0.21781503,0.,0.21781
 503,0.,0.,0.21781503,-0.02854248,0.03664171,0.,0.02693386,0.03664171,-
 0.11923061,0.,-0.04039331,0.12690717,0.,0.,-0.01558818,0.,0.,0.0126532
 2,-0.02854382,-0.01832157,-0.03173415,0.00230474,0.00184305,0.00153622
 ,0.02693533,-0.01832157,-0.04149812,-0.04487772,-0.00225211,-0.0038087
 5,-0.00704028,0.02019744,0.04121598,-0.03173415,-0.04487772,-0.0933193
 3,-0.00082804,-0.00035288,0.00045968,0.03498328,0.04947256,0.09834294,
 -0.02854382,-0.01832157,0.03173416,0.00230474,0.00184305,-0.00153622,0
 .00230476,0.00040892,-0.00236438,0.02693534,-0.01832157,-0.04149811,0.
 04487771,-0.00225211,-0.00380875,0.00704028,0.00040892,0.00259389,-0.0
 0334366,0.02019744,0.04121597,0.03173416,0.04487771,-0.09331933,0.0008
 2804,0.00035288,0.00045968,0.00236438,0.00334365,-0.00594297,-0.034983
 29,-0.04947256,0.09834295,-0.13218491,0.00000142,0.,-0.00300087,0.0000
 6550,0.,-0.00300102,-0.00003268,-0.00005670,-0.00300102,-0.00003268,0.
 00005670,0.14118781,0.00000142,-0.01558818,0.,0.00825582,-0.00005906,0
 .,-0.00412784,0.00149701,-0.00089831,-0.00412784,0.00149701,0.00089831
 ,-0.00000156,0.01265322,0.,0.,-0.01558818,0.,0.,0.00201560,-0.00714973
 ,-0.00089823,0.00045968,0.00714973,0.00089823,0.00045968,0.,0.,0.01265
 322\\0.,0.,0.,-0.00000060,0.00000168,0.,-0.00000060,-0.00000084,-0.000
 00146,-0.00000060,-0.00000084,0.00000146,0.00000179,0.,0.\\\@


 TIME GOES, YOU SAY?  AH NO!
 ALAS, TIME STAYS, WE GO.
    -- A. DOBSON (1840-1921)
 Job cpu time:  0 days  0 hours  0 minutes  9.1 seconds.
 File lengths (MBytes):  RWF=     59 Int=      0 D2E=      0 Chk=      2 Scr=      1
 Normal termination of Gaussian 09 at Wed Jun 21 01:47:23 2023.
