 Entering Gaussian System, Link 0=g09
 Input=XeH4_B3LYP_3-21G.com
 Output=XeH4_B3LYP_3-21G.log
 Initial command:
 /usr/local/g09/l1.exe /scratch/james/Gau-14527.inp -scrdir=/scratch/james/
 Entering Link 1 = /usr/local/g09/l1.exe PID=     14531.
  
 Copyright (c) 1988,1990,1992,1993,1995,1998,2003,2009,2011,
            Gaussian, Inc.  All Rights Reserved.
  
 This is part of the Gaussian(R) 09 program.  It is based on
 the Gaussian(R) 03 system (copyright 2003, Gaussian, Inc.),
 the Gaussian(R) 98 system (copyright 1998, Gaussian, Inc.),
 the Gaussian(R) 94 system (copyright 1995, Gaussian, Inc.),
 the Gaussian 92(TM) system (copyright 1992, Gaussian, Inc.),
 the Gaussian 90(TM) system (copyright 1990, Gaussian, Inc.),
 the Gaussian 88(TM) system (copyright 1988, Gaussian, Inc.),
 the Gaussian 86(TM) system (copyright 1986, Carnegie Mellon
 University), and the Gaussian 82(TM) system (copyright 1983,
 Carnegie Mellon University). Gaussian is a federally registered
 trademark of Gaussian, Inc.
  
 This software contains proprietary and confidential information,
 including trade secrets, belonging to Gaussian, Inc.
  
 This software is provided under written license and may be
 used, copied, transmitted, or stored only in accord with that
 written license.
  
 The following legend is applicable only to US Government
 contracts under FAR:
  
                    RESTRICTED RIGHTS LEGEND
  
 Use, reproduction and disclosure by the US Government is
 subject to restrictions as set forth in subparagraphs (a)
 and (c) of the Commercial Computer Software - Restricted
 Rights clause in FAR 52.227-19.
  
 Gaussian, Inc.
 340 Quinnipiac St., Bldg. 40, Wallingford CT 06492
  
  
 ---------------------------------------------------------------
 Warning -- This program may not be used in any manner that
 competes with the business of Gaussian, Inc. or will provide
 assistance to any competitor of Gaussian, Inc.  The licensee
 of this program is prohibited from giving any competitor of
 Gaussian, Inc. access to this program.  By using this program,
 the user acknowledges that Gaussian, Inc. is engaged in the
 business of creating and licensing software in the field of
 computational chemistry and represents and warrants to the
 licensee that it is not a competitor of Gaussian, Inc. and that
 it will not use this program in any manner prohibited above.
 ---------------------------------------------------------------
  

 Cite this work as:
 Gaussian 09, Revision C.01,
 M. J. Frisch, G. W. Trucks, H. B. Schlegel, G. E. Scuseria, 
 M. A. Robb, J. R. Cheeseman, G. Scalmani, V. Barone, B. Mennucci, 
 G. A. Petersson, H. Nakatsuji, M. Caricato, X. Li, H. P. Hratchian, 
 A. F. Izmaylov, J. Bloino, G. Zheng, J. L. Sonnenberg, M. Hada, 
 M. Ehara, K. Toyota, R. Fukuda, J. Hasegawa, M. Ishida, T. Nakajima, 
 Y. Honda, O. Kitao, H. Nakai, T. Vreven, J. A. Montgomery, Jr., 
 J. E. Peralta, F. Ogliaro, M. Bearpark, J. J. Heyd, E. Brothers, 
 K. N. Kudin, V. N. Staroverov, T. Keith, R. Kobayashi, J. Normand, 
 K. Raghavachari, A. Rendell, J. C. Burant, S. S. Iyengar, J. Tomasi, 
 M. Cossi, N. Rega, J. M. Millam, M. Klene, J. E. Knox, J. B. Cross, 
 V. Bakken, C. Adamo, J. Jaramillo, R. Gomperts, R. E. Stratmann, 
 O. Yazyev, A. J. Austin, R. Cammi, C. Pomelli, J. W. Ochterski, 
 R. L. Martin, K. Morokuma, V. G. Zakrzewski, G. A. Voth, 
 P. Salvador, J. J. Dannenberg, S. Dapprich, A. D. Daniels, 
 O. Farkas, J. B. Foresman, J. V. Ortiz, J. Cioslowski, 
 and D. J. Fox, Gaussian, Inc., Wallingford CT, 2010.
 
 ******************************************
 Gaussian 09:  AM64L-G09RevC.01 23-Sep-2011
                 1-Jul-2026 
 ******************************************
 %chk=XeH4_B3LYP_3-21G.chk
 ------------------------------------------------
 # opt freq=hpmodes b3lyp/3-21g geom=connectivity
 ------------------------------------------------
 1/14=-1,18=20,19=15,26=3,38=1,57=2/1,3;
 2/9=110,12=2,17=6,18=5,40=1/2;
 3/5=5,11=2,16=1,25=1,30=1,71=1,74=-5/1,2,3;
 4//1;
 5/5=2,38=5/2;
 6/7=2,8=2,9=2,10=2,28=1/1;
 7//1,2,3,16;
 1/14=-1,18=20,19=15/3(2);
 2/9=110/2;
 99//99;
 2/9=110/2;
 3/5=5,11=2,16=1,25=1,30=1,71=1,74=-5/1,2,3;
 4/5=5,16=3/1;
 5/5=2,38=5/2;
 7//1,2,3,16;
 1/14=-1,18=20,19=15/3(-5);
 2/9=110/2;
 6/7=2,8=2,9=2,10=2,19=2,28=1/1;
 99/9=1/99;
 -------------------
 Title Card Required
 -------------------
 Charge =  0 Multiplicity = 1
 Symbolic Z-Matrix:
 Xe                    0.        0.        0. 
 H                     0.        1.94019   0. 
 H                     1.94019   0.        0. 
 H                     0.       -1.94019   0. 
 H                    -1.94019   0.        0. 
 

 GradGradGradGradGradGradGradGradGradGradGradGradGradGradGradGradGradGrad
 Berny optimization.
 Initialization pass.
                           ----------------------------
                           !    Initial Parameters    !
                           ! (Angstroms and Degrees)  !
 --------------------------                            --------------------------
 ! Name  Definition              Value          Derivative Info.                !
 --------------------------------------------------------------------------------
 ! R1    R(1,2)                  1.9402         estimate D2E/DX2                !
 ! R2    R(1,3)                  1.9402         estimate D2E/DX2                !
 ! R3    R(1,4)                  1.9402         estimate D2E/DX2                !
 ! R4    R(1,5)                  1.9402         estimate D2E/DX2                !
 ! A1    A(2,1,3)               90.0            estimate D2E/DX2                !
 ! A2    A(2,1,5)               90.0            estimate D2E/DX2                !
 ! A3    A(3,1,4)               90.0            estimate D2E/DX2                !
 ! A4    A(4,1,5)               90.0            estimate D2E/DX2                !
 ! A5    L(2,1,4,5,-1)         180.0            estimate D2E/DX2                !
 ! A6    L(3,1,5,4,-1)         180.0            estimate D2E/DX2                !
 ! A7    L(2,1,4,5,-2)         180.0            estimate D2E/DX2                !
 ! A8    L(3,1,5,4,-2)         180.0            estimate D2E/DX2                !
 ! D1    D(2,1,3,4)            180.0            estimate D2E/DX2                !
 ! D2    D(1,2,5,3)              0.0            estimate D2E/DX2                !
 ! D3    D(1,2,5,4)              0.0            estimate D2E/DX2                !
 --------------------------------------------------------------------------------
 Trust Radius=3.00D-01 FncErr=1.00D-07 GrdErr=1.00D-06
 Number of steps in this run=     25 maximum allowed number of steps=    100.
 GradGradGradGradGradGradGradGradGradGradGradGradGradGradGradGradGradGrad

                          Input orientation:                          
 ---------------------------------------------------------------------
 Center     Atomic      Atomic             Coordinates (Angstroms)
 Number     Number       Type             X           Y           Z
 ---------------------------------------------------------------------
      1         54           0        0.000000    0.000000    0.000000
      2          1           0        0.000000    1.940185    0.000000
      3          1           0        1.940185    0.000000    0.000000
      4          1           0        0.000000   -1.940185    0.000000
      5          1           0       -1.940185    0.000000    0.000000
 ---------------------------------------------------------------------
                    Distance matrix (angstroms):
                    1          2          3          4          5
     1  Xe   0.000000
     2  H    1.940185   0.000000
     3  H    1.940185   2.743836   0.000000
     4  H    1.940185   3.880370   2.743836   0.000000
     5  H    1.940185   2.743836   3.880370   2.743836   0.000000
 Stoichiometry    H4Xe
 Framework group  D4H[O(Xe),2C2'(H.H)]
 Deg. of freedom     1
 Full point group                 D4H     NOp  16
 Largest Abelian subgroup         D2H     NOp   8
 Largest concise Abelian subgroup D2      NOp   4
                         Standard orientation:                         
 ---------------------------------------------------------------------
 Center     Atomic      Atomic             Coordinates (Angstroms)
 Number     Number       Type             X           Y           Z
 ---------------------------------------------------------------------
      1         54           0        0.000000    0.000000    0.000000
      2          1           0        0.000000    1.940185    0.000000
      3          1           0        1.940185   -0.000000    0.000000
      4          1           0       -0.000000   -1.940185    0.000000
      5          1           0       -1.940185    0.000000    0.000000
 ---------------------------------------------------------------------
 Rotational constants (GHZ):     66.6063710     66.6063710     33.3031855
 Standard basis: 3-21G (6D, 7F)
 There are    16 symmetry adapted basis functions of AG  symmetry.
 There are     2 symmetry adapted basis functions of B1G symmetry.
 There are     2 symmetry adapted basis functions of B2G symmetry.
 There are     2 symmetry adapted basis functions of B3G symmetry.
 There are     0 symmetry adapted basis functions of AU  symmetry.
 There are     5 symmetry adapted basis functions of B1U symmetry.
 There are     7 symmetry adapted basis functions of B2U symmetry.
 There are     7 symmetry adapted basis functions of B3U symmetry.
 Integral buffers will be    131072 words long.
 Raffenetti 2 integral format.
 Two-electron integral symmetry is turned on.
    41 basis functions,    99 primitive gaussians,    41 cartesian basis functions
    29 alpha electrons       29 beta electrons
       nuclear repulsion energy        59.9572687319 Hartrees.
 NAtoms=    5 NActive=    5 NUniq=    2 SFac= 4.00D+00 NAtFMM=   60 NAOKFM=F Big=F
 One-electron integrals computed using PRISM.
 NBasis=    41 RedAO= T  NBF=    16     2     2     2     0     5     7     7
 NBsUse=    41 1.00D-06 NBFU=    16     2     2     2     0     5     7     7
 Defaulting to unpruned grid for atomic number  54.
 Harris functional with IExCor=  402 diagonalized for initial guess.
 ExpMin= 1.33D-01 ExpMax= 1.49D+04 ExpMxC= 1.49D+04 IAcc=1 IRadAn=         1 AccDes= 0.00D+00
 HarFok:  IExCor=  402 AccDes= 0.00D+00 IRadAn=         1 IDoV= 1
 ScaDFX=  1.000000  1.000000  1.000000  1.000000
 Defaulting to unpruned grid for atomic number  54.
 FoFCou: FMM=F IPFlag=           0 FMFlag=      100000 FMFlg1=           0
         NFxFlg=           0 DoJE=T BraDBF=F KetDBF=T FulRan=T
         Omega=  0.000000  0.000000  1.000000  0.000000  0.000000 ICntrl=     500 IOpCl=  0
         NMat0=    1 NMatS0=    1 NMatT0=    0 NMatD0=    1 NMtDS0=    0 NMtDT0=    0
         I1Cent=           4 NGrid=           0.
 Petite list used in FoFCou.
 Initial guess orbital symmetries:
       Occupied  (A1G) (A1G) (EU) (EU) (A2U) (A1G) (EU) (EU) (A2U)
                 (B1G) (A1G) (B2G) (EG) (EG) (A1G) (EU) (EU) (A2U)
                 (B1G) (B2G) (A1G) (EG) (EG) (A1G) (EU) (EU) (A2U)
                 (B1G) (A1G)
       Virtual   (EU) (EU) (A2U) (A1G) (EU) (EU) (A1G) (EU) (EU)
                 (B1G) (A1G) (A1G)
 The electronic state of the initial guess is 1-A1G.
 Requested convergence on RMS density matrix=1.00D-08 within 128 cycles.
 Requested convergence on MAX density matrix=1.00D-06.
 Requested convergence on             energy=1.00D-06.
 No special actions if energy rises.
 Keep R1 ints in memory in canonical form, NReq=1305134.
 Integral accuracy reduced to 1.0D-05 until final iterations.
 Defaulting to unpruned grid for atomic number  54.
 Initial convergence to 1.0D-05 achieved.  Increase integral accuracy.
 SCF Done:  E(RB3LYP) =  -7205.44372437     A.U. after   11 cycles
             Convg  =    0.9857D-09             -V/T =  2.0035

 **********************************************************************

            Population analysis using the SCF density.

 **********************************************************************

 Orbital symmetries:
       Occupied  (A1G) (A1G) (EU) (EU) (A2U) (A1G) (EU) (EU) (A2U)
                 (B1G) (B2G) (EG) (EG) (A1G) (A1G) (EU) (EU) (A2U)
                 (B1G) (B2G) (EG) (EG) (A1G) (A1G) (EU) (EU) (A2U)
                 (B1G) (A1G)
       Virtual   (EU) (EU) (A2U) (A1G) (EU) (EU) (A1G) (EU) (EU)
                 (B1G) (A1G) (A1G)
 The electronic state is 1-A1G.
 Alpha  occ. eigenvalues -- **********-183.99716-172.46982-172.46982-172.46766
 Alpha  occ. eigenvalues --  -38.08886 -33.09488 -33.09488 -33.08914 -24.78308
 Alpha  occ. eigenvalues --  -24.78282 -24.77883 -24.77883 -24.77762  -7.10787
 Alpha  occ. eigenvalues --   -5.32928  -5.32928  -5.31646  -2.57283  -2.57235
 Alpha  occ. eigenvalues --   -2.56197  -2.56197  -2.55866  -0.86747  -0.50606
 Alpha  occ. eigenvalues --   -0.50606  -0.42774  -0.25289  -0.21359
 Alpha virt. eigenvalues --   -0.05844  -0.05844   0.37764   0.45391   0.50589
 Alpha virt. eigenvalues --    0.50589   0.88043   0.95358   0.95358   1.01214
 Alpha virt. eigenvalues --    4.81660 229.78769
          Condensed to atoms (all electrons):
              1          2          3          4          5
     1  Xe  53.220629  -0.036111  -0.036111  -0.036111  -0.036111
     2  H   -0.036111   1.256638   0.002765   0.004896   0.002765
     3  H   -0.036111   0.002765   1.256638   0.002765   0.004896
     4  H   -0.036111   0.004896   0.002765   1.256638   0.002765
     5  H   -0.036111   0.002765   0.004896   0.002765   1.256638
 Mulliken atomic charges:
              1
     1  Xe   0.923815
     2  H   -0.230954
     3  H   -0.230954
     4  H   -0.230954
     5  H   -0.230954
 Sum of Mulliken atomic charges =  -0.00000
 Mulliken charges with hydrogens summed into heavy atoms:
              1
     1  Xe  -0.000000
 Sum of Mulliken charges with hydrogens summed into heavy atoms =  -0.00000
 Electronic spatial extent (au):  <R**2>=            136.0693
 Charge=              0.0000 electrons
 Dipole moment (field-independent basis, Debye):
    X=              0.0000    Y=             -0.0000    Z=             -0.0000  Tot=              0.0000
 Quadrupole moment (field-independent basis, Debye-Ang):
   XX=            -39.6851   YY=            -39.6851   ZZ=            -31.3246
   XY=              0.0000   XZ=             -0.0000   YZ=             -0.0000
 Traceless Quadrupole moment (field-independent basis, Debye-Ang):
   XX=             -2.7868   YY=             -2.7868   ZZ=              5.5737
   XY=              0.0000   XZ=             -0.0000   YZ=             -0.0000
 Octapole moment (field-independent basis, Debye-Ang**2):
  XXX=             -0.0000  YYY=              0.0000  ZZZ=              0.0000  XYY=              0.0000
  XXY=              0.0000  XXZ=              0.0000  XZZ=              0.0000  YZZ=              0.0000
  YYZ=              0.0000  XYZ=             -0.0000
 Hexadecapole moment (field-independent basis, Debye-Ang**3):
 XXXX=           -143.1450 YYYY=           -143.1450 ZZZZ=            -33.6203 XXXY=              0.0000
 XXXZ=             -0.0000 YYYX=             -0.0000 YYYZ=             -0.0000 ZZZX=             -0.0000
 ZZZY=             -0.0000 XXYY=            -34.4110 XXZZ=            -22.7611 YYZZ=            -22.7611
 XXYZ=             -0.0000 YYXZ=             -0.0000 ZZXY=              0.0000
 N-N= 5.995726873190D+01 E-N=-1.719423915563D+04  KE= 7.180615108541D+03
 Symmetry AG   KE= 4.035309645050D+03
 Symmetry B1G  KE= 2.034506730259D+02
 Symmetry B2G  KE= 2.034506730259D+02
 Symmetry B3G  KE= 2.034506730259D+02
 Symmetry AU   KE= 0.000000000000D+00
 Symmetry B1U  KE= 8.460789178675D+02
 Symmetry B2U  KE= 8.444372632730D+02
 Symmetry B3U  KE= 8.444372632730D+02
 Calling FoFJK, ICntrl=      2127 FMM=F ISym2X=1 I1Cent= 0 IOpClX= 0 NMat=1 NMatS=1 NMatT=0.
 Defaulting to unpruned grid for atomic number  54.
 ***** Axes restored to original set *****
 -------------------------------------------------------------------
 Center     Atomic                   Forces (Hartrees/Bohr)
 Number     Number              X              Y              Z
 -------------------------------------------------------------------
      1       54           0.000000000    0.000000000   -0.000000000
      2        1           0.000000000    0.009984256    0.000000000
      3        1           0.009984256    0.000000000    0.000000000
      4        1           0.000000000   -0.009984256   -0.000000000
      5        1          -0.009984256   -0.000000000    0.000000000
 -------------------------------------------------------------------
 Cartesian Forces:  Max     0.009984256 RMS     0.005155848

 GradGradGradGradGradGradGradGradGradGradGradGradGradGradGradGradGradGrad
 Berny optimization.
 Internal  Forces:  Max     0.009984256 RMS     0.005155848
 Search for a local minimum.
 Step number   1 out of a maximum of   25
 All quantities printed in internal units (Hartrees-Bohrs-Radians)
 Mixed Optimization -- RFO/linear search
 Second derivative matrix not updated -- first step.
 The second derivative matrix:
                          R1        R2        R3        R4        A1
           R1           0.07627
           R2           0.00000   0.07627
           R3           0.00000   0.00000   0.07627
           R4           0.00000   0.00000   0.00000   0.07627
           A1           0.00000   0.00000   0.00000   0.00000   0.16000
           A2           0.00000   0.00000   0.00000   0.00000   0.00000
           A3           0.00000   0.00000   0.00000   0.00000   0.00000
           A4           0.00000   0.00000   0.00000   0.00000   0.00000
           A5           0.00000   0.00000   0.00000   0.00000   0.00000
           A6           0.00000   0.00000   0.00000   0.00000   0.00000
           A7           0.00000   0.00000   0.00000   0.00000   0.00000
           A8           0.00000   0.00000   0.00000   0.00000   0.00000
           D1           0.00000   0.00000   0.00000   0.00000   0.00000
           D2           0.00000   0.00000   0.00000   0.00000   0.00000
           D3           0.00000   0.00000   0.00000   0.00000   0.00000
                          A2        A3        A4        A5        A6
           A2           0.16000
           A3           0.00000   0.16000
           A4           0.00000   0.00000   0.16000
           A5           0.00000   0.00000   0.00000   0.00230
           A6           0.00000   0.00000   0.00000   0.00000   0.00230
           A7           0.00000   0.00000   0.00000   0.00000   0.00000
           A8           0.00000   0.00000   0.00000   0.00000   0.00000
           D1           0.00000   0.00000   0.00000   0.00000   0.00000
           D2           0.00000   0.00000   0.00000   0.00000   0.00000
           D3           0.00000   0.00000   0.00000   0.00000   0.00000
                          A7        A8        D1        D2        D3
           A7           0.00230
           A8           0.00000   0.00230
           D1           0.00000   0.00000   0.00230
           D2           0.00000   0.00000   0.00000   0.00230
           D3           0.00000   0.00000   0.00000   0.00000   0.00230
 ITU=  0
     Eigenvalues ---    0.00230   0.00230   0.07627   0.07627   0.07627
     Eigenvalues ---    0.07627   0.08115   0.08115   0.16000
 RFO step:  Lambda=-4.91178742D-03 EMin= 2.30000000D-03
 Linear search not attempted -- first point.
 Iteration  1 RMS(Cart)=  0.06351084 RMS(Int)=  0.00000000
 Iteration  2 RMS(Cart)=  0.00000000 RMS(Int)=  0.00000000
 ClnCor:  largest displacement from symmetrization is 1.23D-13 for atom     5.
 Variable       Old X    -DE/DX   Delta X   Delta X   Delta X     New X
                                 (Linear)    (Quad)   (Total)
    R1        3.66642   0.00998   0.00000   0.12299   0.12299   3.78941
    R2        3.66642   0.00998   0.00000   0.12299   0.12299   3.78941
    R3        3.66642   0.00998   0.00000   0.12299   0.12299   3.78941
    R4        3.66642   0.00998   0.00000   0.12299   0.12299   3.78941
    A1        1.57080   0.00000   0.00000   0.00000   0.00000   1.57080
    A2        1.57080   0.00000   0.00000   0.00000   0.00000   1.57080
    A3        1.57080  -0.00000   0.00000  -0.00000   0.00000   1.57080
    A4        1.57080  -0.00000   0.00000  -0.00000   0.00000   1.57080
    A5        3.14159  -0.00000   0.00000  -0.00000   0.00000   3.14159
    A6        3.14159  -0.00000   0.00000  -0.00000   0.00000   3.14159
    A7        3.14159  -0.00000   0.00000  -0.00000   0.00000   3.14159
    A8        3.14159  -0.00000   0.00000  -0.00000   0.00000   3.14159
    D1        3.14159   0.00000   0.00000   0.00000   0.00000   3.14159
    D2        0.00000   0.00000   0.00000   0.00000   0.00000   0.00000
    D3        0.00000  -0.00000   0.00000  -0.00000   0.00000   0.00000
         Item               Value     Threshold  Converged?
 Maximum Force            0.009984     0.000450     NO 
 RMS     Force            0.005156     0.000300     NO 
 Maximum Displacement     0.122988     0.001800     NO 
 RMS     Displacement     0.063511     0.001200     NO 
 Predicted change in Energy=-2.604484D-03
 GradGradGradGradGradGradGradGradGradGradGradGradGradGradGradGradGradGrad

                          Input orientation:                          
 ---------------------------------------------------------------------
 Center     Atomic      Atomic             Coordinates (Angstroms)
 Number     Number       Type             X           Y           Z
 ---------------------------------------------------------------------
      1         54           0       -0.000000   -0.000000    0.000000
      2          1           0       -0.000000    2.005268    0.000000
      3          1           0        2.005268   -0.000000    0.000000
      4          1           0       -0.000000   -2.005268    0.000000
      5          1           0       -2.005268    0.000000    0.000000
 ---------------------------------------------------------------------
                    Distance matrix (angstroms):
                    1          2          3          4          5
     1  Xe   0.000000
     2  H    2.005268   0.000000
     3  H    2.005268   2.835877   0.000000
     4  H    2.005268   4.010535   2.835877   0.000000
     5  H    2.005268   2.835877   4.010535   2.835877   0.000000
 Stoichiometry    H4Xe
 Framework group  D4H[O(Xe),2C2'(H.H)]
 Deg. of freedom     1
 Full point group                 D4H     NOp  16
 Largest Abelian subgroup         D2H     NOp   8
 Largest concise Abelian subgroup D2      NOp   4
                         Standard orientation:                         
 ---------------------------------------------------------------------
 Center     Atomic      Atomic             Coordinates (Angstroms)
 Number     Number       Type             X           Y           Z
 ---------------------------------------------------------------------
      1         54           0        0.000000    0.000000    0.000000
      2          1           0        0.000000    2.005268    0.000000
      3          1           0        2.005268   -0.000000    0.000000
      4          1           0       -0.000000   -2.005268    0.000000
      5          1           0       -2.005268    0.000000    0.000000
 ---------------------------------------------------------------------
 Rotational constants (GHZ):     62.3530070     62.3530070     31.1765035
 Standard basis: 3-21G (6D, 7F)
 There are    16 symmetry adapted basis functions of AG  symmetry.
 There are     2 symmetry adapted basis functions of B1G symmetry.
 There are     2 symmetry adapted basis functions of B2G symmetry.
 There are     2 symmetry adapted basis functions of B3G symmetry.
 There are     0 symmetry adapted basis functions of AU  symmetry.
 There are     5 symmetry adapted basis functions of B1U symmetry.
 There are     7 symmetry adapted basis functions of B2U symmetry.
 There are     7 symmetry adapted basis functions of B3U symmetry.
 Integral buffers will be    131072 words long.
 Raffenetti 2 integral format.
 Two-electron integral symmetry is turned on.
    41 basis functions,    99 primitive gaussians,    41 cartesian basis functions
    29 alpha electrons       29 beta electrons
       nuclear repulsion energy        58.0113077745 Hartrees.
 NAtoms=    5 NActive=    5 NUniq=    2 SFac= 4.00D+00 NAtFMM=   60 NAOKFM=F Big=F
 One-electron integrals computed using PRISM.
 NBasis=    41 RedAO= T  NBF=    16     2     2     2     0     5     7     7
 NBsUse=    41 1.00D-06 NBFU=    16     2     2     2     0     5     7     7
 Defaulting to unpruned grid for atomic number  54.
 Initial guess read from the read-write file.
 B after Tr=     0.000000    0.000000    0.000000
         Rot=    1.000000    0.000000    0.000000    0.000000 Ang=   0.00 deg.
 Initial guess orbital symmetries:
       Occupied  (A1G) (A1G) (EU) (EU) (A2U) (A1G) (EU) (EU) (A2U)
                 (B1G) (B2G) (EG) (EG) (A1G) (A1G) (EU) (EU) (A2U)
                 (B1G) (B2G) (EG) (EG) (A1G) (A1G) (EU) (EU) (A2U)
                 (B1G) (A1G)
       Virtual   (EU) (EU) (A2U) (A1G) (EU) (EU) (A1G) (EU) (EU)
                 (B1G) (A1G) (A1G)
 Harris functional with IExCor=  402 diagonalized for initial guess.
 ExpMin= 1.33D-01 ExpMax= 1.49D+04 ExpMxC= 1.49D+04 IAcc=1 IRadAn=         1 AccDes= 0.00D+00
 HarFok:  IExCor=  402 AccDes= 0.00D+00 IRadAn=         1 IDoV= 1
 ScaDFX=  1.000000  1.000000  1.000000  1.000000
 Defaulting to unpruned grid for atomic number  54.
 FoFCou: FMM=F IPFlag=           0 FMFlag=      100000 FMFlg1=           0
         NFxFlg=           0 DoJE=T BraDBF=F KetDBF=T FulRan=T
         Omega=  0.000000  0.000000  1.000000  0.000000  0.000000 ICntrl=     500 IOpCl=  0
         NMat0=    1 NMatS0=    1 NMatT0=    0 NMatD0=    1 NMtDS0=    0 NMtDT0=    0
         I1Cent=           4 NGrid=           0.
 Petite list used in FoFCou.
 Requested convergence on RMS density matrix=1.00D-08 within 128 cycles.
 Requested convergence on MAX density matrix=1.00D-06.
 Requested convergence on             energy=1.00D-06.
 No special actions if energy rises.
 Keep R1 ints in memory in canonical form, NReq=1305134.
 Integral accuracy reduced to 1.0D-05 until final iterations.
 Defaulting to unpruned grid for atomic number  54.
 Initial convergence to 1.0D-05 achieved.  Increase integral accuracy.
 SCF Done:  E(RB3LYP) =  -7205.44625957     A.U. after    9 cycles
             Convg  =    0.2979D-08             -V/T =  2.0035
 Calling FoFJK, ICntrl=      2127 FMM=F ISym2X=1 I1Cent= 0 IOpClX= 0 NMat=1 NMatS=1 NMatT=0.
 Defaulting to unpruned grid for atomic number  54.
 ***** Axes restored to original set *****
 -------------------------------------------------------------------
 Center     Atomic                   Forces (Hartrees/Bohr)
 Number     Number              X              Y              Z
 -------------------------------------------------------------------
      1       54          -0.000000000   -0.000000000   -0.000000000
      2        1           0.000000000    0.000738637    0.000000000
      3        1           0.000738637    0.000000000    0.000000000
      4        1           0.000000000   -0.000738637   -0.000000000
      5        1          -0.000738637   -0.000000000    0.000000000
 -------------------------------------------------------------------
 Cartesian Forces:  Max     0.000738637 RMS     0.000381431

 GradGradGradGradGradGradGradGradGradGradGradGradGradGradGradGradGradGrad
 Berny optimization.
 Using GEDIIS/GDIIS optimizer.
 Internal  Forces:  Max     0.000738637 RMS     0.000381431
 Search for a local minimum.
 Step number   2 out of a maximum of   25
 All quantities printed in internal units (Hartrees-Bohrs-Radians)
 Mixed Optimization -- En-DIIS/RFO-DIIS
 Update second derivatives using D2CorX and points    1    2
 DE= -2.54D-03 DEPred=-2.60D-03 R= 9.73D-01
 SS=  1.41D+00  RLast= 2.46D-01 DXNew= 5.0454D-01 7.3793D-01
 Trust test= 9.73D-01 RLast= 2.46D-01 DXMaxT set to 5.05D-01
 The second derivative matrix:
                          R1        R2        R3        R4        A1
           R1           0.07600
           R2          -0.00027   0.07600
           R3          -0.00027  -0.00027   0.07600
           R4          -0.00027  -0.00027  -0.00027   0.07600
           A1           0.00000   0.00000   0.00000   0.00000   0.16000
           A2           0.00000   0.00000   0.00000   0.00000   0.00000
           A3          -0.00000  -0.00000  -0.00000  -0.00000  -0.00000
           A4          -0.00000  -0.00000  -0.00000  -0.00000  -0.00000
           A5          -0.00000  -0.00000  -0.00000  -0.00000  -0.00000
           A6          -0.00000  -0.00000  -0.00000  -0.00000  -0.00000
           A7           0.00000   0.00000   0.00000   0.00000   0.00000
           A8          -0.00000  -0.00000  -0.00000  -0.00000  -0.00000
           D1          -0.00000  -0.00000  -0.00000  -0.00000  -0.00000
           D2           0.00000   0.00000   0.00000   0.00000   0.00000
           D3           0.00000   0.00000   0.00000   0.00000   0.00000
                          A2        A3        A4        A5        A6
           A2           0.16000
           A3          -0.00000   0.16000
           A4          -0.00000   0.00000   0.16000
           A5          -0.00000   0.00000   0.00000   0.00230
           A6          -0.00000   0.00000   0.00000   0.00000   0.00230
           A7           0.00000  -0.00000  -0.00000  -0.00000  -0.00000
           A8          -0.00000   0.00000   0.00000   0.00000   0.00000
           D1          -0.00000   0.00000   0.00000   0.00000   0.00000
           D2           0.00000  -0.00000  -0.00000  -0.00000  -0.00000
           D3           0.00000  -0.00000  -0.00000  -0.00000  -0.00000
                          A7        A8        D1        D2        D3
           A7           0.00230
           A8          -0.00000   0.00230
           D1          -0.00000   0.00000   0.00230
           D2           0.00000  -0.00000  -0.00000   0.00230
           D3           0.00000  -0.00000  -0.00000   0.00000   0.00230
 ITU=  1  0
 Use linear search instead of GDIIS.
     Eigenvalues ---    0.00230   0.00230   0.07517   0.07627   0.07627
     Eigenvalues ---    0.07627   0.08115   0.08115   0.16000
 RFO step:  Lambda= 0.00000000D+00 EMin= 2.30000000D-03
 Quartic linear search produced a step of  0.09330.
 Iteration  1 RMS(Cart)=  0.00592542 RMS(Int)=  0.00000000
 Iteration  2 RMS(Cart)=  0.00000000 RMS(Int)=  0.00000000
 ClnCor:  largest displacement from symmetrization is 3.61D-13 for atom     5.
 Variable       Old X    -DE/DX   Delta X   Delta X   Delta X     New X
                                 (Linear)    (Quad)   (Total)
    R1        3.78941   0.00074   0.01147   0.00000   0.01147   3.80088
    R2        3.78941   0.00074   0.01147  -0.00000   0.01147   3.80088
    R3        3.78941   0.00074   0.01147  -0.00000   0.01147   3.80088
    R4        3.78941   0.00074   0.01147  -0.00000   0.01147   3.80088
    A1        1.57080  -0.00000   0.00000  -0.00000   0.00000   1.57080
    A2        1.57080   0.00000   0.00000   0.00000   0.00000   1.57080
    A3        1.57080   0.00000   0.00000   0.00000   0.00000   1.57080
    A4        1.57080  -0.00000   0.00000   0.00000   0.00000   1.57080
    A5        3.14159   0.00000   0.00000   0.00000   0.00000   3.14159
    A6        3.14159   0.00000   0.00000   0.00000   0.00000   3.14159
    A7        3.14159  -0.00000   0.00000  -0.00000   0.00000   3.14159
    A8        3.14159  -0.00000   0.00000  -0.00000   0.00000   3.14159
    D1        3.14159   0.00000   0.00000   0.00000   0.00000   3.14159
    D2        0.00000   0.00000   0.00000   0.00000   0.00000   0.00000
    D3        0.00000  -0.00000   0.00000  -0.00000   0.00000   0.00000
         Item               Value     Threshold  Converged?
 Maximum Force            0.000739     0.000450     NO 
 RMS     Force            0.000381     0.000300     NO 
 Maximum Displacement     0.011475     0.001800     NO 
 RMS     Displacement     0.005925     0.001200     NO 
 Predicted change in Energy=-1.410630D-05
 GradGradGradGradGradGradGradGradGradGradGradGradGradGradGradGradGradGrad

                          Input orientation:                          
 ---------------------------------------------------------------------
 Center     Atomic      Atomic             Coordinates (Angstroms)
 Number     Number       Type             X           Y           Z
 ---------------------------------------------------------------------
      1         54           0       -0.000000   -0.000000    0.000000
      2          1           0        0.000000    2.011340    0.000000
      3          1           0        2.011340   -0.000000    0.000000
      4          1           0       -0.000000   -2.011340    0.000000
      5          1           0       -2.011340    0.000000    0.000000
 ---------------------------------------------------------------------
                    Distance matrix (angstroms):
                    1          2          3          4          5
     1  Xe   0.000000
     2  H    2.011340   0.000000
     3  H    2.011340   2.844464   0.000000
     4  H    2.011340   4.022679   2.844464   0.000000
     5  H    2.011340   2.844464   4.022679   2.844464   0.000000
 Stoichiometry    H4Xe
 Framework group  D4H[O(Xe),2C2'(H.H)]
 Deg. of freedom     1
 Full point group                 D4H     NOp  16
 Largest Abelian subgroup         D2H     NOp   8
 Largest concise Abelian subgroup D2      NOp   4
                         Standard orientation:                         
 ---------------------------------------------------------------------
 Center     Atomic      Atomic             Coordinates (Angstroms)
 Number     Number       Type             X           Y           Z
 ---------------------------------------------------------------------
      1         54           0        0.000000    0.000000    0.000000
      2          1           0        0.000000    2.011340    0.000000
      3          1           0        2.011340   -0.000000    0.000000
      4          1           0       -0.000000   -2.011340    0.000000
      5          1           0       -2.011340    0.000000    0.000000
 ---------------------------------------------------------------------
 Rotational constants (GHZ):     61.9770986     61.9770986     30.9885493
 Standard basis: 3-21G (6D, 7F)
 There are    16 symmetry adapted basis functions of AG  symmetry.
 There are     2 symmetry adapted basis functions of B1G symmetry.
 There are     2 symmetry adapted basis functions of B2G symmetry.
 There are     2 symmetry adapted basis functions of B3G symmetry.
 There are     0 symmetry adapted basis functions of AU  symmetry.
 There are     5 symmetry adapted basis functions of B1U symmetry.
 There are     7 symmetry adapted basis functions of B2U symmetry.
 There are     7 symmetry adapted basis functions of B3U symmetry.
 Integral buffers will be    131072 words long.
 Raffenetti 2 integral format.
 Two-electron integral symmetry is turned on.
    41 basis functions,    99 primitive gaussians,    41 cartesian basis functions
    29 alpha electrons       29 beta electrons
       nuclear repulsion energy        57.8361766730 Hartrees.
 NAtoms=    5 NActive=    5 NUniq=    2 SFac= 4.00D+00 NAtFMM=   60 NAOKFM=F Big=F
 One-electron integrals computed using PRISM.
 NBasis=    41 RedAO= T  NBF=    16     2     2     2     0     5     7     7
 NBsUse=    41 1.00D-06 NBFU=    16     2     2     2     0     5     7     7
 Defaulting to unpruned grid for atomic number  54.
 Initial guess read from the read-write file.
 B after Tr=     0.000000    0.000000    0.000000
         Rot=    1.000000    0.000000    0.000000    0.000000 Ang=   0.00 deg.
 Initial guess orbital symmetries:
       Occupied  (A1G) (A1G) (EU) (EU) (A2U) (A1G) (EU) (EU) (A2U)
                 (B1G) (B2G) (EG) (EG) (A1G) (A1G) (EU) (EU) (A2U)
                 (B1G) (B2G) (EG) (EG) (A1G) (A1G) (EU) (EU) (A2U)
                 (B1G) (A1G)
       Virtual   (EU) (EU) (A2U) (A1G) (EU) (EU) (A1G) (EU) (EU)
                 (B1G) (A1G) (A1G)
 Requested convergence on RMS density matrix=1.00D-08 within 128 cycles.
 Requested convergence on MAX density matrix=1.00D-06.
 Requested convergence on             energy=1.00D-06.
 No special actions if energy rises.
 Keep R1 ints in memory in canonical form, NReq=1305134.
 Defaulting to unpruned grid for atomic number  54.
 SCF Done:  E(RB3LYP) =  -7205.44627663     A.U. after    6 cycles
             Convg  =    0.3049D-08             -V/T =  2.0035
 Calling FoFJK, ICntrl=      2127 FMM=F ISym2X=1 I1Cent= 0 IOpClX= 0 NMat=1 NMatS=1 NMatT=0.
 Defaulting to unpruned grid for atomic number  54.
 ***** Axes restored to original set *****
 -------------------------------------------------------------------
 Center     Atomic                   Forces (Hartrees/Bohr)
 Number     Number              X              Y              Z
 -------------------------------------------------------------------
      1       54           0.000000000    0.000000000   -0.000000000
      2        1           0.000000000    0.000008669    0.000000000
      3        1           0.000008669    0.000000000    0.000000000
      4        1           0.000000000   -0.000008669   -0.000000000
      5        1          -0.000008669   -0.000000000    0.000000000
 -------------------------------------------------------------------
 Cartesian Forces:  Max     0.000008669 RMS     0.000004476

 GradGradGradGradGradGradGradGradGradGradGradGradGradGradGradGradGradGrad
 Berny optimization.
 Using GEDIIS/GDIIS optimizer.
 Internal  Forces:  Max     0.000008669 RMS     0.000004476
 Search for a local minimum.
 Step number   3 out of a maximum of   25
 All quantities printed in internal units (Hartrees-Bohrs-Radians)
 Mixed Optimization -- En-DIIS/RFO-DIIS
 Swaping is turned off.
 Update second derivatives using D2CorX and points    1    2    3
 DE= -1.71D-05 DEPred=-1.41D-05 R= 1.21D+00
 SS=  1.41D+00  RLast= 2.29D-02 DXNew= 8.4853D-01 6.8847D-02
 Trust test= 1.21D+00 RLast= 2.29D-02 DXMaxT set to 5.05D-01
 The second derivative matrix:
                          R1        R2        R3        R4        A1
           R1           0.07311
           R2          -0.00316   0.07311
           R3          -0.00316  -0.00316   0.07311
           R4          -0.00316  -0.00316  -0.00316   0.07311
           A1           0.00000   0.00000   0.00000   0.00000   0.16000
           A2           0.00000   0.00000   0.00000   0.00000   0.00000
           A3          -0.00000  -0.00000  -0.00000  -0.00000  -0.00000
           A4          -0.00000  -0.00000  -0.00000  -0.00000  -0.00000
           A5          -0.00000  -0.00000  -0.00000  -0.00000  -0.00000
           A6          -0.00000  -0.00000  -0.00000  -0.00000  -0.00000
           A7           0.00000   0.00000   0.00000   0.00000   0.00000
           A8          -0.00000  -0.00000  -0.00000  -0.00000  -0.00000
           D1          -0.00000  -0.00000  -0.00000  -0.00000  -0.00000
           D2           0.00000   0.00000   0.00000   0.00000   0.00000
           D3           0.00000   0.00000   0.00000   0.00000   0.00000
                          A2        A3        A4        A5        A6
           A2           0.16000
           A3          -0.00000   0.16000
           A4          -0.00000   0.00000   0.16000
           A5          -0.00000   0.00000   0.00000   0.00230
           A6          -0.00000   0.00000   0.00000   0.00000   0.00230
           A7           0.00000  -0.00000  -0.00000  -0.00000  -0.00000
           A8          -0.00000   0.00000   0.00000   0.00000   0.00000
           D1          -0.00000   0.00000   0.00000   0.00000   0.00000
           D2           0.00000  -0.00000  -0.00000  -0.00000  -0.00000
           D3           0.00000  -0.00000  -0.00000  -0.00000  -0.00000
                          A7        A8        D1        D2        D3
           A7           0.00230
           A8          -0.00000   0.00230
           D1          -0.00000   0.00000   0.00230
           D2           0.00000  -0.00000  -0.00000   0.00230
           D3           0.00000  -0.00000  -0.00000   0.00000   0.00230
 ITU=  1  1  0
     Eigenvalues ---    0.00230   0.00230   0.06362   0.07627   0.07627
     Eigenvalues ---    0.07627   0.08115   0.08115   0.16000
 En-DIIS/RFO-DIIS IScMMF=        0 using points:     3    2
 RFO step:  Lambda=-1.18214533D-09.
 DidBck=F Rises=F RFO-DIIS coefs:    1.01188   -0.01188
 Iteration  1 RMS(Cart)=  0.00007037 RMS(Int)=  0.00000000
 Iteration  2 RMS(Cart)=  0.00000000 RMS(Int)=  0.00000000
 ClnCor:  largest displacement from symmetrization is 3.76D-13 for atom     5.
 Variable       Old X    -DE/DX   Delta X   Delta X   Delta X     New X
                                  (DIIS)     (GDIIS)  (Total)
    R1        3.80088   0.00001   0.00014  -0.00000   0.00014   3.80102
    R2        3.80088   0.00001   0.00014  -0.00000   0.00014   3.80102
    R3        3.80088   0.00001   0.00014   0.00000   0.00014   3.80102
    R4        3.80088   0.00001   0.00014   0.00000   0.00014   3.80102
    A1        1.57080  -0.00000   0.00000  -0.00000   0.00000   1.57080
    A2        1.57080   0.00000   0.00000   0.00000   0.00000   1.57080
    A3        1.57080   0.00000   0.00000   0.00000   0.00000   1.57080
    A4        1.57080   0.00000   0.00000   0.00000   0.00000   1.57080
    A5        3.14159   0.00000   0.00000   0.00000   0.00000   3.14159
    A6        3.14159   0.00000   0.00000   0.00000   0.00000   3.14159
    A7        3.14159  -0.00000   0.00000  -0.00000   0.00000   3.14159
    A8        3.14159  -0.00000   0.00000  -0.00000   0.00000   3.14159
    D1        3.14159   0.00000   0.00000   0.00000   0.00000   3.14159
    D2        0.00000   0.00000   0.00000   0.00000   0.00000   0.00000
    D3        0.00000  -0.00000   0.00000  -0.00000   0.00000   0.00000
         Item               Value     Threshold  Converged?
 Maximum Force            0.000009     0.000450     YES
 RMS     Force            0.000004     0.000300     YES
 Maximum Displacement     0.000136     0.001800     YES
 RMS     Displacement     0.000070     0.001200     YES
 Predicted change in Energy=-2.362423D-09
 Optimization completed.
    -- Stationary point found.
                           ----------------------------
                           !   Optimized Parameters   !
                           ! (Angstroms and Degrees)  !
 --------------------------                            --------------------------
 ! Name  Definition              Value          Derivative Info.                !
 --------------------------------------------------------------------------------
 ! R1    R(1,2)                  2.0113         -DE/DX =    0.0                 !
 ! R2    R(1,3)                  2.0113         -DE/DX =    0.0                 !
 ! R3    R(1,4)                  2.0113         -DE/DX =    0.0                 !
 ! R4    R(1,5)                  2.0113         -DE/DX =    0.0                 !
 ! A1    A(2,1,3)               90.0            -DE/DX =    0.0                 !
 ! A2    A(2,1,5)               90.0            -DE/DX =    0.0                 !
 ! A3    A(3,1,4)               90.0            -DE/DX =    0.0                 !
 ! A4    A(4,1,5)               90.0            -DE/DX =    0.0                 !
 ! A5    L(2,1,4,5,-1)         180.0            -DE/DX =    0.0                 !
 ! A6    L(3,1,5,4,-1)         180.0            -DE/DX =    0.0                 !
 ! A7    L(2,1,4,5,-2)         180.0            -DE/DX =    0.0                 !
 ! A8    L(3,1,5,4,-2)         180.0            -DE/DX =    0.0                 !
 ! D1    D(2,1,3,4)            180.0            -DE/DX =    0.0                 !
 ! D2    D(1,2,5,3)              0.0            -DE/DX =    0.0                 !
 ! D3    D(1,2,5,4)              0.0            -DE/DX =    0.0                 !
 --------------------------------------------------------------------------------
 GradGradGradGradGradGradGradGradGradGradGradGradGradGradGradGradGradGrad

                          Input orientation:                          
 ---------------------------------------------------------------------
 Center     Atomic      Atomic             Coordinates (Angstroms)
 Number     Number       Type             X           Y           Z
 ---------------------------------------------------------------------
      1         54           0       -0.000000   -0.000000    0.000000
      2          1           0        0.000000    2.011340    0.000000
      3          1           0        2.011340   -0.000000    0.000000
      4          1           0       -0.000000   -2.011340    0.000000
      5          1           0       -2.011340    0.000000    0.000000
 ---------------------------------------------------------------------
                    Distance matrix (angstroms):
                    1          2          3          4          5
     1  Xe   0.000000
     2  H    2.011340   0.000000
     3  H    2.011340   2.844464   0.000000
     4  H    2.011340   4.022679   2.844464   0.000000
     5  H    2.011340   2.844464   4.022679   2.844464   0.000000
 Stoichiometry    H4Xe
 Framework group  D4H[O(Xe),2C2'(H.H)]
 Deg. of freedom     1
 Full point group                 D4H     NOp  16
 Largest Abelian subgroup         D2H     NOp   8
 Largest concise Abelian subgroup D2      NOp   4
                         Standard orientation:                         
 ---------------------------------------------------------------------
 Center     Atomic      Atomic             Coordinates (Angstroms)
 Number     Number       Type             X           Y           Z
 ---------------------------------------------------------------------
      1         54           0        0.000000    0.000000    0.000000
      2          1           0        0.000000    2.011340    0.000000
      3          1           0        2.011340   -0.000000    0.000000
      4          1           0       -0.000000   -2.011340    0.000000
      5          1           0       -2.011340    0.000000    0.000000
 ---------------------------------------------------------------------
 Rotational constants (GHZ):     61.9770986     61.9770986     30.9885493

 **********************************************************************

            Population analysis using the SCF density.

 **********************************************************************

 Orbital symmetries:
       Occupied  (A1G) (A1G) (EU) (EU) (A2U) (A1G) (EU) (EU) (A2U)
                 (B1G) (B2G) (EG) (EG) (A1G) (A1G) (EU) (EU) (A2U)
                 (B1G) (B2G) (EG) (EG) (A1G) (A1G) (EU) (EU) (A2U)
                 (B1G) (A1G)
       Virtual   (EU) (EU) (A2U) (A1G) (EU) (EU) (A1G) (EU) (EU)
                 (B1G) (A1G) (A1G)
 The electronic state is 1-A1G.
 Alpha  occ. eigenvalues -- **********-183.99472-172.46740-172.46740-172.46530
 Alpha  occ. eigenvalues --  -38.08609 -33.09203 -33.09203 -33.08660 -24.78021
 Alpha  occ. eigenvalues --  -24.77999 -24.77620 -24.77620 -24.77504  -7.10433
 Alpha  occ. eigenvalues --   -5.32541  -5.32541  -5.31348  -2.56850  -2.56818
 Alpha  occ. eigenvalues --   -2.55851  -2.55851  -2.55538  -0.85943  -0.49263
 Alpha  occ. eigenvalues --   -0.49263  -0.42433  -0.24919  -0.21898
 Alpha virt. eigenvalues --   -0.07658  -0.07658   0.37999   0.45241   0.50926
 Alpha virt. eigenvalues --    0.50926   0.89100   0.96021   0.96021   1.00299
 Alpha virt. eigenvalues --    4.81712 229.78718
          Condensed to atoms (all electrons):
              1          2          3          4          5
     1  Xe  53.158135  -0.005076  -0.005076  -0.005076  -0.005076
     2  H   -0.005076   1.214846   0.001266   0.003241   0.001266
     3  H   -0.005076   0.001266   1.214846   0.001266   0.003241
     4  H   -0.005076   0.003241   0.001266   1.214846   0.001266
     5  H   -0.005076   0.001266   0.003241   0.001266   1.214846
 Mulliken atomic charges:
              1
     1  Xe   0.862168
     2  H   -0.215542
     3  H   -0.215542
     4  H   -0.215542
     5  H   -0.215542
 Sum of Mulliken atomic charges =  -0.00000
 Mulliken charges with hydrogens summed into heavy atoms:
              1
     1  Xe  -0.000000
 Sum of Mulliken charges with hydrogens summed into heavy atoms =  -0.00000
 Electronic spatial extent (au):  <R**2>=            140.1814
 Charge=             -0.0000 electrons
 Dipole moment (field-independent basis, Debye):
    X=              0.0000    Y=             -0.0000    Z=             -0.0000  Tot=              0.0000
 Quadrupole moment (field-independent basis, Debye-Ang):
   XX=            -39.6750   YY=            -39.6750   ZZ=            -31.4736
   XY=              0.0000   XZ=             -0.0000   YZ=             -0.0000
 Traceless Quadrupole moment (field-independent basis, Debye-Ang):
   XX=             -2.7338   YY=             -2.7338   ZZ=              5.4676
   XY=              0.0000   XZ=             -0.0000   YZ=             -0.0000
 Octapole moment (field-independent basis, Debye-Ang**2):
  XXX=             -0.0000  YYY=              0.0000  ZZZ=             -0.0000  XYY=              0.0000
  XXY=              0.0000  XXZ=             -0.0000  XZZ=              0.0000  YZZ=              0.0000
  YYZ=              0.0000  XYZ=             -0.0000
 Hexadecapole moment (field-independent basis, Debye-Ang**3):
 XXXX=           -148.4557 YYYY=           -148.4557 ZZZZ=            -33.8969 XXXY=              0.0000
 XXXZ=             -0.0000 YYYX=             -0.0000 YYYZ=             -0.0000 ZZZX=             -0.0000
 ZZZY=             -0.0000 XXYY=            -36.1115 XXZZ=            -23.6796 YYZZ=            -23.6796
 XXYZ=             -0.0000 YYXZ=             -0.0000 ZZXY=              0.0000
 N-N= 5.783617667296D+01 E-N=-1.719008184475D+04  KE= 7.180463063892D+03
 Symmetry AG   KE= 4.035149537543D+03
 Symmetry B1G  KE= 2.034506730259D+02
 Symmetry B2G  KE= 2.034506730259D+02
 Symmetry B3G  KE= 2.034506730259D+02
 Symmetry AU   KE= 0.000000000000D+00
 Symmetry B1U  KE= 8.460685094419D+02
 Symmetry B2U  KE= 8.444464989148D+02
 Symmetry B3U  KE= 8.444464989148D+02
 1\1\GINC-SRU01\FOpt\RB3LYP\3-21G\H4Xe1\JAMES\01-Jul-2026\0\\# opt freq
 =hpmodes b3lyp/3-21g geom=connectivity\\Title Card Required\\0,1\Xe,0.
 ,0.,0.\H,0.,2.0113396169,0.\H,2.0113396169,0.,0.\H,0.,-2.0113396169,0.
 \H,-2.0113396169,0.,0.\\Version=AM64L-G09RevC.01\State=1-A1G\HF=-7205.
 4462766\RMSD=3.049e-09\RMSF=4.476e-06\Dipole=0.,0.,0.\Quadrupole=-2.03
 25113,-2.0325113,4.0650226,0.,0.,0.\PG=D04H [O(Xe1),2C2'(H1.H1)]\\@


 NOTHING WILL BE ATTEMPTED IF ALL POSSIBLE OBJECTIONS
 MUST FIRST BE OVERCOME.

                               -- THE GOLDEN PRINCIPLE,
                    PAUL DICKSON'S "THE OFFICIAL RULES"
 Job cpu time:  0 days  0 hours  0 minutes  3.1 seconds.
 File lengths (MBytes):  RWF=      5 Int=      0 D2E=      0 Chk=      2 Scr=      1
 Normal termination of Gaussian 09 at Wed Jul  1 18:33:24 2026.
 Link1:  Proceeding to internal job step number  2.
 -----------------------------------------------------------------
 #N Geom=AllCheck Guess=TCheck SCRF=Check GenChk RB3LYP/3-21G Freq
 -----------------------------------------------------------------
 1/10=4,29=7,30=1,38=1,40=1/1,3;
 2/12=2,40=1/2;
 3/5=5,11=2,14=-4,16=1,25=1,30=1,70=2,71=2,74=-5,116=1/1,2,3;
 4/5=101/1;
 5/5=2,98=1/2;
 8/6=4,10=90,11=11/1;
 11/6=1,8=1,9=11,15=111,16=1/1,2,10;
 10/6=1/2;
 6/7=2,8=2,9=2,10=2,18=1,28=1/1;
 7/8=11,10=1,25=1/1,2,3,16;
 1/10=4,30=1/3;
 99//99;
 Structure from the checkpoint file:  XeH4_B3LYP_3-21G.chk
 -------------------
 Title Card Required
 -------------------
 Charge =  0 Multiplicity = 1
 Redundant internal coordinates found in file.
 Xe,0,0.,0.,0.
 H,0,0.,2.0113396169,0.
 H,0,2.0113396169,0.,0.
 H,0,0.,-2.0113396169,0.
 H,0,-2.0113396169,0.,0.
 Recover connectivity data from disk.

 GradGradGradGradGradGradGradGradGradGradGradGradGradGradGradGradGradGrad
 Berny optimization.
 Initialization pass.
                           ----------------------------
                           !    Initial Parameters    !
                           ! (Angstroms and Degrees)  !
 --------------------------                            --------------------------
 ! Name  Definition              Value          Derivative Info.                !
 --------------------------------------------------------------------------------
 ! R1    R(1,2)                  2.0113         calculate D2E/DX2 analytically  !
 ! R2    R(1,3)                  2.0113         calculate D2E/DX2 analytically  !
 ! R3    R(1,4)                  2.0113         calculate D2E/DX2 analytically  !
 ! R4    R(1,5)                  2.0113         calculate D2E/DX2 analytically  !
 ! A1    A(2,1,3)               90.0            calculate D2E/DX2 analytically  !
 ! A2    A(2,1,5)               90.0            calculate D2E/DX2 analytically  !
 ! A3    A(3,1,4)               90.0            calculate D2E/DX2 analytically  !
 ! A4    A(4,1,5)               90.0            calculate D2E/DX2 analytically  !
 ! A5    L(2,1,4,5,-1)         180.0            calculate D2E/DX2 analytically  !
 ! A6    L(3,1,5,4,-1)         180.0            calculate D2E/DX2 analytically  !
 ! A7    L(2,1,4,5,-2)         180.0            calculate D2E/DX2 analytically  !
 ! A8    L(3,1,5,4,-2)         180.0            calculate D2E/DX2 analytically  !
 ! D1    D(2,1,3,4)            180.0            calculate D2E/DX2 analytically  !
 ! D2    D(1,2,5,3)              0.0            calculate D2E/DX2 analytically  !
 ! D3    D(1,2,5,4)              0.0            calculate D2E/DX2 analytically  !
 --------------------------------------------------------------------------------
 Trust Radius=3.00D-01 FncErr=1.00D-07 GrdErr=1.00D-07
 Number of steps in this run=      2 maximum allowed number of steps=      2.
 GradGradGradGradGradGradGradGradGradGradGradGradGradGradGradGradGradGrad

                          Input orientation:                          
 ---------------------------------------------------------------------
 Center     Atomic      Atomic             Coordinates (Angstroms)
 Number     Number       Type             X           Y           Z
 ---------------------------------------------------------------------
      1         54           0       -0.000000   -0.000000    0.000000
      2          1           0        0.000000    2.011340    0.000000
      3          1           0        2.011340   -0.000000    0.000000
      4          1           0       -0.000000   -2.011340    0.000000
      5          1           0       -2.011340    0.000000    0.000000
 ---------------------------------------------------------------------
                    Distance matrix (angstroms):
                    1          2          3          4          5
     1  Xe   0.000000
     2  H    2.011340   0.000000
     3  H    2.011340   2.844464   0.000000
     4  H    2.011340   4.022679   2.844464   0.000000
     5  H    2.011340   2.844464   4.022679   2.844464   0.000000
 Stoichiometry    H4Xe
 Framework group  D4H[O(Xe),2C2'(H.H)]
 Deg. of freedom     1
 Full point group                 D4H     NOp  16
 Largest Abelian subgroup         D2H     NOp   8
 Largest concise Abelian subgroup D2      NOp   4
                         Standard orientation:                         
 ---------------------------------------------------------------------
 Center     Atomic      Atomic             Coordinates (Angstroms)
 Number     Number       Type             X           Y           Z
 ---------------------------------------------------------------------
      1         54           0        0.000000    0.000000    0.000000
      2          1           0        0.000000    2.011340    0.000000
      3          1           0        2.011340   -0.000000    0.000000
      4          1           0       -0.000000   -2.011340    0.000000
      5          1           0       -2.011340    0.000000    0.000000
 ---------------------------------------------------------------------
 Rotational constants (GHZ):     61.9770986     61.9770986     30.9885493
 Standard basis: 3-21G (6D, 7F)
 There are    16 symmetry adapted basis functions of AG  symmetry.
 There are     2 symmetry adapted basis functions of B1G symmetry.
 There are     2 symmetry adapted basis functions of B2G symmetry.
 There are     2 symmetry adapted basis functions of B3G symmetry.
 There are     0 symmetry adapted basis functions of AU  symmetry.
 There are     5 symmetry adapted basis functions of B1U symmetry.
 There are     7 symmetry adapted basis functions of B2U symmetry.
 There are     7 symmetry adapted basis functions of B3U symmetry.
 Integral buffers will be    131072 words long.
 Raffenetti 2 integral format.
 Two-electron integral symmetry is turned on.
    41 basis functions,    99 primitive gaussians,    41 cartesian basis functions
    29 alpha electrons       29 beta electrons
       nuclear repulsion energy        57.8361766730 Hartrees.
 NAtoms=    5 NActive=    5 NUniq=    2 SFac= 4.00D+00 NAtFMM=   60 NAOKFM=F Big=F
 One-electron integrals computed using PRISM.
 NBasis=    41 RedAO= T  NBF=    16     2     2     2     0     5     7     7
 NBsUse=    41 1.00D-06 NBFU=    16     2     2     2     0     5     7     7
 Defaulting to unpruned grid for atomic number  54.
 Initial guess read from the checkpoint file:  XeH4_B3LYP_3-21G.chk
 B after Tr=     0.000000    0.000000    0.000000
         Rot=    1.000000    0.000000    0.000000    0.000000 Ang=   0.00 deg.
 Initial guess orbital symmetries:
       Occupied  (A1G) (A1G) (EU) (EU) (A2U) (A1G) (EU) (EU) (A2U)
                 (B1G) (B2G) (EG) (EG) (A1G) (A1G) (EU) (EU) (A2U)
                 (B1G) (B2G) (EG) (EG) (A1G) (A1G) (EU) (EU) (A2U)
                 (B1G) (A1G)
       Virtual   (EU) (EU) (A2U) (A1G) (EU) (EU) (A1G) (EU) (EU)
                 (B1G) (A1G) (A1G)
 Requested convergence on RMS density matrix=1.00D-08 within 128 cycles.
 Requested convergence on MAX density matrix=1.00D-06.
 Requested convergence on             energy=1.00D-06.
 No special actions if energy rises.
 Keep R1 ints in memory in canonical form, NReq=1305134.
 Defaulting to unpruned grid for atomic number  54.
 SCF Done:  E(RB3LYP) =  -7205.44627663     A.U. after    1 cycles
             Convg  =    0.5743D-10             -V/T =  2.0035
 Range of M.O.s used for correlation:     1    41
 NBasis=    41 NAE=    29 NBE=    29 NFC=     0 NFV=     0
 NROrb=     41 NOA=    29 NOB=    29 NVA=    12 NVB=    12

 **** Warning!!: The largest alpha MO coefficient is  0.20526459D+02

 Symmetrizing basis deriv contribution to polar:
 IMax=3 JMax=2 DiffMx= 0.00D+00
 G2DrvN: will do     6 centers at a time, making    1 passes doing MaxLOS=2.
 Calling FoFCou, ICntrl=  3107 FMM=F I1Cent=   0 AccDes= 0.00D+00.
 Defaulting to unpruned grid for atomic number  54.
 FoFDir/FoFCou used for L=0 through L=2.
 End of G2Drv Frequency-dependent properties file   721 does not exist.
 End of G2Drv Frequency-dependent properties file   722 does not exist.
          IDoAtm=11111
          Differentiating once with respect to electric field.
                with respect to dipole field.
          Differentiating once with respect to nuclear coordinates.
 Defaulting to unpruned grid for atomic number  54.
          Keep R1 ints in memory in canonical form, NReq=1193312.
 Defaulting to unpruned grid for atomic number  54.
          There are     9 degrees of freedom in the 1st order CPHF.  IDoFFX=4.
      9 vectors produced by pass  0 Test12= 3.87D-15 1.11D-08 XBig12= 4.74D+02 1.68D+01.
 AX will form     9 AO Fock derivatives at one time.
      9 vectors produced by pass  1 Test12= 3.87D-15 1.11D-08 XBig12= 1.96D+01 2.83D+00.
      9 vectors produced by pass  2 Test12= 3.87D-15 1.11D-08 XBig12= 3.85D-03 4.33D-02.
      9 vectors produced by pass  3 Test12= 3.87D-15 1.11D-08 XBig12= 1.29D-06 7.93D-04.
      6 vectors produced by pass  4 Test12= 3.87D-15 1.11D-08 XBig12= 1.20D-09 2.02D-05.
      3 vectors produced by pass  5 Test12= 3.87D-15 1.11D-08 XBig12= 3.64D-13 3.36D-07.
 Inverted reduced A of dimension    45 with in-core refinement.
 Isotropic polarizability for W=    0.000000       52.96 Bohr**3.
 End of Minotr Frequency-dependent properties file   721 does not exist.
 End of Minotr Frequency-dependent properties file   722 does not exist.

 **********************************************************************

            Population analysis using the SCF density.

 **********************************************************************

 Orbital symmetries:
       Occupied  (A1G) (A1G) (EU) (EU) (A2U) (A1G) (EU) (EU) (A2U)
                 (B1G) (B2G) (EG) (EG) (A1G) (A1G) (EU) (EU) (A2U)
                 (B1G) (B2G) (EG) (EG) (A1G) (A1G) (EU) (EU) (A2U)
                 (B1G) (A1G)
       Virtual   (EU) (EU) (A2U) (A1G) (EU) (EU) (A1G) (EU) (EU)
                 (B1G) (A1G) (A1G)
 The electronic state is 1-A1G.
 Alpha  occ. eigenvalues -- **********-183.99472-172.46740-172.46740-172.46530
 Alpha  occ. eigenvalues --  -38.08609 -33.09203 -33.09203 -33.08660 -24.78021
 Alpha  occ. eigenvalues --  -24.77999 -24.77620 -24.77620 -24.77504  -7.10433
 Alpha  occ. eigenvalues --   -5.32541  -5.32541  -5.31348  -2.56850  -2.56818
 Alpha  occ. eigenvalues --   -2.55851  -2.55851  -2.55538  -0.85943  -0.49263
 Alpha  occ. eigenvalues --   -0.49263  -0.42433  -0.24919  -0.21898
 Alpha virt. eigenvalues --   -0.07658  -0.07658   0.37999   0.45241   0.50926
 Alpha virt. eigenvalues --    0.50926   0.89100   0.96021   0.96021   1.00299
 Alpha virt. eigenvalues --    4.81712 229.78718
          Condensed to atoms (all electrons):
              1          2          3          4          5
     1  Xe  53.158135  -0.005076  -0.005076  -0.005076  -0.005076
     2  H   -0.005076   1.214846   0.001266   0.003241   0.001266
     3  H   -0.005076   0.001266   1.214846   0.001266   0.003241
     4  H   -0.005076   0.003241   0.001266   1.214846   0.001266
     5  H   -0.005076   0.001266   0.003241   0.001266   1.214846
 Mulliken atomic charges:
              1
     1  Xe   0.862168
     2  H   -0.215542
     3  H   -0.215542
     4  H   -0.215542
     5  H   -0.215542
 Sum of Mulliken atomic charges =  -0.00000
 Mulliken charges with hydrogens summed into heavy atoms:
              1
     1  Xe  -0.000000
 Sum of Mulliken charges with hydrogens summed into heavy atoms =  -0.00000
 APT atomic charges:
              1
     1  Xe   1.355703
     2  H   -0.338926
     3  H   -0.338926
     4  H   -0.338926
     5  H   -0.338926
 Sum of APT charges=  -0.00000
 APT Atomic charges with hydrogens summed into heavy atoms:
              1
     1  Xe  -0.000000
     2  H    0.000000
     3  H    0.000000
     4  H    0.000000
     5  H    0.000000
 Sum of APT charges=  -0.00000
 Electronic spatial extent (au):  <R**2>=            140.1814
 Charge=             -0.0000 electrons
 Dipole moment (field-independent basis, Debye):
    X=              0.0000    Y=             -0.0000    Z=             -0.0000  Tot=              0.0000
 Quadrupole moment (field-independent basis, Debye-Ang):
   XX=            -39.6750   YY=            -39.6750   ZZ=            -31.4736
   XY=              0.0000   XZ=             -0.0000   YZ=             -0.0000
 Traceless Quadrupole moment (field-independent basis, Debye-Ang):
   XX=             -2.7338   YY=             -2.7338   ZZ=              5.4676
   XY=              0.0000   XZ=             -0.0000   YZ=             -0.0000
 Octapole moment (field-independent basis, Debye-Ang**2):
  XXX=             -0.0000  YYY=             -0.0000  ZZZ=             -0.0000  XYY=              0.0000
  XXY=              0.0000  XXZ=             -0.0000  XZZ=              0.0000  YZZ=              0.0000
  YYZ=              0.0000  XYZ=             -0.0000
 Hexadecapole moment (field-independent basis, Debye-Ang**3):
 XXXX=           -148.4557 YYYY=           -148.4557 ZZZZ=            -33.8969 XXXY=              0.0000
 XXXZ=             -0.0000 YYYX=             -0.0000 YYYZ=             -0.0000 ZZZX=             -0.0000
 ZZZY=             -0.0000 XXYY=            -36.1115 XXZZ=            -23.6796 YYZZ=            -23.6796
 XXYZ=             -0.0000 YYXZ=             -0.0000 ZZXY=              0.0000
 N-N= 5.783617667296D+01 E-N=-1.719008184468D+04  KE= 7.180463063873D+03
 Symmetry AG   KE= 4.035149537539D+03
 Symmetry B1G  KE= 2.034506730259D+02
 Symmetry B2G  KE= 2.034506730259D+02
 Symmetry B3G  KE= 2.034506730259D+02
 Symmetry AU   KE= 0.000000000000D+00
 Symmetry B1U  KE= 8.460685094386D+02
 Symmetry B2U  KE= 8.444464989093D+02
 Symmetry B3U  KE= 8.444464989093D+02
  Exact polarizability:  76.667  -0.000  76.667   0.000   0.000   5.557
 Approx polarizability: 294.609  -0.000 294.609   0.000   0.000   5.605
 Calling FoFJK, ICntrl=    100127 FMM=F ISym2X=1 I1Cent= 0 IOpClX= 0 NMat=1 NMatS=1 NMatT=0.
 Defaulting to unpruned grid for atomic number  54.
 Full mass-weighted force constant matrix:
 Low frequencies ---  -66.4385  -58.4722  -58.4722   -0.0287   -0.0287   -0.0287
 Low frequencies ---  238.2124  576.2381  576.2381
 Harmonic frequencies (cm**-1), IR intensities (KM/Mole), Raman scattering
 activities (A**4/AMU), depolarization ratios for plane and unpolarized
 incident light, reduced masses (AMU), force constants (mDyne/A),
 and normal coordinates:
                           1         2         3         4         5
                          B2G       EU        EU        B2U       A2U
       Frequencies ---   238.2124  576.2381  576.2381  698.5153  719.7989
    Reduced masses ---     1.0078    1.0181    1.0181    1.0078    1.0384
   Force constants ---     0.0337    0.1992    0.1992    0.2897    0.3170
    IR Intensities ---     0.0000    0.0001    0.0001    0.0000  184.6570
 Coord Atom Element:
   1     1    54          0.00000  -0.00004   0.00884  -0.00000  -0.00000
   2     1    54         -0.00000   0.00884   0.00004   0.00000   0.00000
   3     1    54         -0.00000  -0.00000   0.00000  -0.00000   0.01528
   1     2     1          0.50000   0.00294  -0.69710   0.00000   0.00000
   2     2     1         -0.00000   0.11836   0.00050   0.00000   0.00000
   3     2     1         -0.00000   0.00000  -0.00000   0.50000  -0.49994
   1     3     1          0.00000  -0.00050   0.11836  -0.00000   0.00000
   2     3     1          0.50000  -0.69710  -0.00294   0.00000  -0.00000
   3     3     1          0.00000   0.00000  -0.00000  -0.50000  -0.49994
   1     4     1         -0.50000   0.00294  -0.69710  -0.00000   0.00000
   2     4     1          0.00000   0.11836   0.00050  -0.00000  -0.00000
   3     4     1         -0.00000   0.00000  -0.00000   0.50000  -0.49994
   1     5     1         -0.00000  -0.00050   0.11836   0.00000  -0.00000
   2     5     1         -0.50000  -0.69710  -0.00294  -0.00000  -0.00000
   3     5     1          0.00000   0.00000  -0.00000  -0.50000  -0.49994
                           6         7         8         9
                          B1G       EU        EU        A1G
       Frequencies ---  1250.9446 1260.9421 1260.9421 1281.1781
    Reduced masses ---     1.0078    1.0277    1.0277    1.0078
   Force constants ---     0.9292    0.9628    0.9628    0.9747
    IR Intensities ---     0.0000  973.4601  973.4601    0.0000
 Coord Atom Element:
   1     1    54          0.00000   0.01233   0.00020   0.00000
   2     1    54          0.00000  -0.00020   0.01233   0.00000
   3     1    54          0.00000   0.00000   0.00000  -0.00000
   1     2     1         -0.00000  -0.10838  -0.00174  -0.00000
   2     2     1         -0.50000   0.01124  -0.69861   0.50000
   3     2     1          0.00000  -0.00000  -0.00000   0.00000
   1     3     1          0.50000  -0.69861  -0.01124   0.50000
   2     3     1         -0.00000   0.00174  -0.10838  -0.00000
   3     3     1         -0.00000  -0.00000  -0.00000   0.00000
   1     4     1         -0.00000  -0.10838  -0.00174  -0.00000
   2     4     1          0.50000   0.01124  -0.69861  -0.50000
   3     4     1          0.00000  -0.00000  -0.00000   0.00000
   1     5     1         -0.50000  -0.69861  -0.01124  -0.50000
   2     5     1         -0.00000   0.00174  -0.10838  -0.00000
   3     5     1         -0.00000  -0.00000  -0.00000   0.00000
 Harmonic frequencies (cm**-1), IR intensities (KM/Mole), Raman scattering
 activities (A**4/AMU), depolarization ratios for plane and unpolarized
 incident light, reduced masses (AMU), force constants (mDyne/A),
 and normal coordinates:
                     1                      2                      3
                    B2G                    EU                     EU
 Frequencies --   238.2124               576.2381               576.2381
 Red. masses --     1.0078                 1.0181                 1.0181
 Frc consts  --     0.0337                 0.1992                 0.1992
 IR Inten    --     0.0000                 0.0001                 0.0001
  Atom  AN      X      Y      Z        X      Y      Z        X      Y      Z
     1  54     0.00  -0.00  -0.00    -0.00   0.01  -0.00     0.01   0.00   0.00
     2   1     0.50  -0.00  -0.00     0.00   0.12   0.00    -0.70   0.00  -0.00
     3   1     0.00   0.50   0.00    -0.00  -0.70   0.00     0.12  -0.00  -0.00
     4   1    -0.50   0.00  -0.00     0.00   0.12   0.00    -0.70   0.00  -0.00
     5   1    -0.00  -0.50   0.00    -0.00  -0.70   0.00     0.12  -0.00  -0.00
                     4                      5                      6
                    B2U                    A2U                    B1G
 Frequencies --   698.5153               719.7989              1250.9446
 Red. masses --     1.0078                 1.0384                 1.0078
 Frc consts  --     0.2897                 0.3170                 0.9292
 IR Inten    --     0.0000               184.6570                 0.0000
  Atom  AN      X      Y      Z        X      Y      Z        X      Y      Z
     1  54    -0.00   0.00  -0.00    -0.00   0.00   0.02     0.00   0.00   0.00
     2   1     0.00   0.00   0.50     0.00   0.00  -0.50    -0.00  -0.50   0.00
     3   1    -0.00   0.00  -0.50     0.00  -0.00  -0.50     0.50  -0.00  -0.00
     4   1    -0.00  -0.00   0.50     0.00  -0.00  -0.50    -0.00   0.50   0.00
     5   1     0.00  -0.00  -0.50    -0.00  -0.00  -0.50    -0.50  -0.00  -0.00
                     7                      8                      9
                    EU                     EU                     A1G
 Frequencies --  1260.9421              1260.9421              1281.1781
 Red. masses --     1.0277                 1.0277                 1.0078
 Frc consts  --     0.9628                 0.9628                 0.9747
 IR Inten    --   973.4601               973.4601                 0.0000
  Atom  AN      X      Y      Z        X      Y      Z        X      Y      Z
     1  54     0.01  -0.00   0.00     0.00   0.01   0.00     0.00   0.00  -0.00
     2   1    -0.11   0.01  -0.00    -0.00  -0.70  -0.00    -0.00   0.50   0.00
     3   1    -0.70   0.00  -0.00    -0.01  -0.11  -0.00     0.50  -0.00   0.00
     4   1    -0.11   0.01  -0.00    -0.00  -0.70  -0.00    -0.00  -0.50   0.00
     5   1    -0.70   0.00  -0.00    -0.01  -0.11  -0.00    -0.50  -0.00   0.00

 -------------------
 - Thermochemistry -
 -------------------
 Temperature   298.150 Kelvin.  Pressure   1.00000 Atm.
 Atom     1 has atomic number 54 and mass 131.90420
 Atom     2 has atomic number  1 and mass   1.00783
 Atom     3 has atomic number  1 and mass   1.00783
 Atom     4 has atomic number  1 and mass   1.00783
 Atom     5 has atomic number  1 and mass   1.00783
 Molecular mass:   135.93550 amu.
 Principal axes and moments of inertia in atomic units:
                           1         2         3
     Eigenvalues --    29.11949  29.11949  58.23897
           X            1.00000   0.00000   0.00000
           Y            0.00000   1.00000   0.00000
           Z            0.00000   0.00000   1.00000
 This molecule is an oblate symmetric top.
 Rotational symmetry number  8.
 Rotational temperatures (Kelvin)      2.97443     2.97443     1.48721
 Rotational constants (GHZ):          61.97710    61.97710    30.98855
 Zero-point vibrational energy      47031.2 (Joules/Mol)
                                   11.24074 (Kcal/Mol)
 Warning -- explicit consideration of   3 degrees of freedom as
           vibrations may cause significant error
 Vibrational temperatures:    342.73   829.08   829.08  1005.01  1035.63
          (Kelvin)           1799.83  1814.21  1814.21  1843.33
 
 Zero-point correction=                           0.017913 (Hartree/Particle)
 Thermal correction to Energy=                    0.021866
 Thermal correction to Enthalpy=                  0.022810
 Thermal correction to Gibbs Free Energy=        -0.005014
 Sum of electronic and zero-point Energies=          -7205.428363
 Sum of electronic and thermal Energies=             -7205.424410
 Sum of electronic and thermal Enthalpies=           -7205.423466
 Sum of electronic and thermal Free Energies=        -7205.451291
 
                     E (Thermal)             CV                S
                      KCal/Mol        Cal/Mol-Kelvin    Cal/Mol-Kelvin
 Total                   13.721             12.201             58.562
 Electronic               0.000              0.000              0.000
 Translational            0.889              2.981             40.633
 Rotational               0.889              2.981             14.409
 Vibrational             11.944              6.239              3.520
 Vibration     1          0.656              1.782              1.816
 Vibration     2          0.933              1.083              0.492
 Vibration     3          0.933              1.083              0.492
                       Q            Log10(Q)             Ln(Q)
 Total Bot       0.202444D+03          2.306306          5.310465
 Total V=0       0.351409D+11         10.545813         24.282632
 Vib (Bot)       0.103349D-07         -7.985696        -18.387744
 Vib (Bot)    1  0.823803D+00         -0.084177         -0.193824
 Vib (Bot)    2  0.265439D+00         -0.576036         -1.326372
 Vib (Bot)    3  0.265439D+00         -0.576036         -1.326372
 Vib (V=0)       0.179396D+01          0.253812          0.584423
 Vib (V=0)    1  0.146367D+01          0.165442          0.380944
 Vib (V=0)    2  0.106609D+01          0.027794          0.063998
 Vib (V=0)    3  0.106609D+01          0.027794          0.063998
 Electronic      0.100000D+01          0.000000          0.000000
 Translational   0.622952D+08          7.794455         17.947395
 Rotational      0.314447D+03          2.497547          5.750814
 ***** Axes restored to original set *****
 -------------------------------------------------------------------
 Center     Atomic                   Forces (Hartrees/Bohr)
 Number     Number              X              Y              Z
 -------------------------------------------------------------------
      1       54           0.000000000    0.000000000   -0.000000000
      2        1          -0.000000000    0.000008671   -0.000000000
      3        1           0.000008671    0.000000000    0.000000000
      4        1           0.000000000   -0.000008671    0.000000000
      5        1          -0.000008671   -0.000000000    0.000000000
 -------------------------------------------------------------------
 Cartesian Forces:  Max     0.000008671 RMS     0.000004477

 GradGradGradGradGradGradGradGradGradGradGradGradGradGradGradGradGradGrad
 Berny optimization.
 Internal  Forces:  Max     0.000008671 RMS     0.000004477
 Search for a local minimum.
 Step number   1 out of a maximum of    2
 All quantities printed in internal units (Hartrees-Bohrs-Radians)
 Second derivative matrix not updated -- analytic derivatives used.
 The second derivative matrix:
                          R1        R2        R3        R4        A1
           R1           0.05978
           R2           0.00073   0.05978
           R3           0.00137   0.00073   0.05978
           R4           0.00073   0.00137   0.00073   0.05978
           A1          -0.00330  -0.00330   0.00330   0.00330   0.01422
           A2          -0.00330   0.00330   0.00330  -0.00330  -0.00196
           A3           0.00330  -0.00330  -0.00330   0.00330  -0.00196
           A4           0.00330   0.00330  -0.00330  -0.00330  -0.01031
           A5           0.00000   0.00659  -0.00000  -0.00659  -0.01227
           A6           0.00659  -0.00000  -0.00659   0.00000  -0.01227
           A7           0.00000   0.00000   0.00000   0.00000  -0.00000
           A8          -0.00000  -0.00000  -0.00000  -0.00000  -0.00000
           D1          -0.00000  -0.00000  -0.00000  -0.00000   0.00000
           D2           0.00000   0.00000   0.00000   0.00000   0.00000
           D3           0.00000   0.00000   0.00000   0.00000  -0.00000
                          A2        A3        A4        A5        A6
           A2           0.01422
           A3          -0.01031   0.01422
           A4          -0.00196  -0.00196   0.01422
           A5           0.01227  -0.01227   0.01227   0.02453
           A6          -0.01227   0.01227   0.01227   0.00000   0.02453
           A7          -0.00000   0.00000  -0.00000  -0.00000   0.00000
           A8           0.00000  -0.00000  -0.00000   0.00000  -0.00000
           D1           0.00000  -0.00000   0.00000   0.00000  -0.00000
           D2          -0.00000   0.00000   0.00000  -0.00000   0.00000
           D3          -0.00000   0.00000  -0.00000  -0.00000   0.00000
                          A7        A8        D1        D2        D3
           A7           0.02184
           A8          -0.00054   0.06066
           D1          -0.02184   0.00054   0.02184
           D2           0.00038  -0.04289  -0.00038   0.03033
           D3           0.01544  -0.00038  -0.01544   0.00027   0.01092
 ITU=  0
     Eigenvalues ---    0.00782   0.03975   0.03975   0.05456   0.05968
     Eigenvalues ---    0.06260   0.06773   0.06773   0.09102
 Angle between quadratic step and forces=   0.00 degrees.
 Linear search not attempted -- first point.
 Iteration  1 RMS(Cart)=  0.00007152 RMS(Int)=  0.00000000
 Iteration  2 RMS(Cart)=  0.00000000 RMS(Int)=  0.00000000
 ClnCor:  largest displacement from symmetrization is 1.24D-13 for atom     5.
 Variable       Old X    -DE/DX   Delta X   Delta X   Delta X     New X
                                 (Linear)    (Quad)   (Total)
    R1        3.80088   0.00001   0.00000   0.00014   0.00014   3.80102
    R2        3.80088   0.00001   0.00000   0.00014   0.00014   3.80102
    R3        3.80088   0.00001   0.00000   0.00014   0.00014   3.80102
    R4        3.80088   0.00001   0.00000   0.00014   0.00014   3.80102
    A1        1.57080   0.00000   0.00000  -0.00000   0.00000   1.57080
    A2        1.57080   0.00000   0.00000   0.00000   0.00000   1.57080
    A3        1.57080  -0.00000   0.00000   0.00000   0.00000   1.57080
    A4        1.57080  -0.00000   0.00000  -0.00000   0.00000   1.57080
    A5        3.14159   0.00000   0.00000   0.00000   0.00000   3.14159
    A6        3.14159  -0.00000   0.00000  -0.00000   0.00000   3.14159
    A7        3.14159   0.00000   0.00000  -0.00000   0.00000   3.14159
    A8        3.14159  -0.00000   0.00000   0.00000   0.00000   3.14159
    D1        3.14159  -0.00000   0.00000   0.00000   0.00000   3.14159
    D2        0.00000   0.00000   0.00000  -0.00000   0.00000   0.00000
    D3        0.00000   0.00000   0.00000  -0.00000   0.00000   0.00000
         Item               Value     Threshold  Converged?
 Maximum Force            0.000009     0.000450     YES
 RMS     Force            0.000004     0.000300     YES
 Maximum Displacement     0.000139     0.001800     YES
 RMS     Displacement     0.000072     0.001200     YES
 Predicted change in Energy=-2.401770D-09
 Optimization completed.
    -- Stationary point found.
                           ----------------------------
                           !   Optimized Parameters   !
                           ! (Angstroms and Degrees)  !
 --------------------------                            --------------------------
 ! Name  Definition              Value          Derivative Info.                !
 --------------------------------------------------------------------------------
 ! R1    R(1,2)                  2.0113         -DE/DX =    0.0                 !
 ! R2    R(1,3)                  2.0113         -DE/DX =    0.0                 !
 ! R3    R(1,4)                  2.0113         -DE/DX =    0.0                 !
 ! R4    R(1,5)                  2.0113         -DE/DX =    0.0                 !
 ! A1    A(2,1,3)               90.0            -DE/DX =    0.0                 !
 ! A2    A(2,1,5)               90.0            -DE/DX =    0.0                 !
 ! A3    A(3,1,4)               90.0            -DE/DX =    0.0                 !
 ! A4    A(4,1,5)               90.0            -DE/DX =    0.0                 !
 ! A5    L(2,1,4,5,-1)         180.0            -DE/DX =    0.0                 !
 ! A6    L(3,1,5,4,-1)         180.0            -DE/DX =    0.0                 !
 ! A7    L(2,1,4,5,-2)         180.0            -DE/DX =    0.0                 !
 ! A8    L(3,1,5,4,-2)         180.0            -DE/DX =    0.0                 !
 ! D1    D(2,1,3,4)            180.0            -DE/DX =    0.0                 !
 ! D2    D(1,2,5,3)              0.0            -DE/DX =    0.0                 !
 ! D3    D(1,2,5,4)              0.0            -DE/DX =    0.0                 !
 --------------------------------------------------------------------------------
 GradGradGradGradGradGradGradGradGradGradGradGradGradGradGradGradGradGrad

 1\1\GINC-SRU01\Freq\RB3LYP\3-21G\H4Xe1\JAMES\01-Jul-2026\0\\#N Geom=Al
 lCheck Guess=TCheck SCRF=Check GenChk RB3LYP/3-21G Freq\\Title Card Re
 quired\\0,1\Xe,0.,0.,0.\H,0.,2.0113396169,0.\H,2.0113396169,0.,0.\H,0.
 ,-2.0113396169,0.\H,-2.0113396169,0.,0.\\Version=AM64L-G09RevC.01\Stat
 e=1-A1G\HF=-7205.4462766\RMSD=5.743e-11\RMSF=4.477e-06\ZeroPoint=0.017
 9133\Thermal=0.0218663\Dipole=0.,0.,0.\DipoleDeriv=1.6031645,0.,0.,0.,
 1.6031645,0.,0.,0.,0.860781,-0.1074545,0.,0.,0.,-0.6941278,0.,0.,0.,-0
 .2151952,-0.6941278,0.,0.,0.,-0.1074545,0.,0.,0.,-0.2151952,-0.1074545
 ,0.,0.,0.,-0.6941278,0.,0.,0.,-0.2151952,-0.6941278,0.,0.,0.,-0.107454
 5,0.,0.,0.,-0.2151952\Polar=76.6669803,0.,76.6669803,0.,0.,5.5568537\P
 G=D04H [O(Xe1),2C2'(H1.H1)]\NImag=0\\0.17173887,0.,0.17173887,0.,0.,0.
 07669810,-0.02052009,0.,0.,0.00728995,0.,-0.06534935,0.,0.,0.05977719,
 0.,0.,-0.01917453,0.,0.,0.00938074,-0.06534935,0.,0.,0.00346907,0.0007
 2994,0.,0.05977719,0.,-0.02052009,0.,0.00058315,0.00346907,0.,0.,0.007
 28995,0.,0.,-0.01917453,0.,0.,0.00014132,0.,0.,0.00938074,-0.02052009,
 0.,0.,0.00629200,0.,0.,0.00346907,-0.00058315,0.,0.00728995,0.,-0.0653
 4935,0.,0.,-0.00136598,0.,-0.00072994,0.00346907,0.,0.,0.05977719,0.,0
 .,-0.01917453,0.,0.,0.00951114,0.,0.,0.00014132,0.,0.,0.00938074,-0.06
 534935,0.,0.,0.00346907,-0.00072994,0.,-0.00136598,0.,0.,0.00346907,0.
 00072994,0.,0.05977719,0.,-0.02052009,0.,-0.00058315,0.00346907,0.,0.,
 0.00629200,0.,0.00058315,0.00346907,0.,0.,0.00728995,0.,0.,-0.01917453
 ,0.,0.,0.00014132,0.,0.,0.00951114,0.,0.,0.00014132,0.,0.,0.00938074\\
 0.,0.,0.,0.,-0.00000867,0.,-0.00000867,0.,0.,0.,0.00000867,0.,0.000008
 67,0.,0.\\\@


 THE RARE EARTHS PERPLEX US IN OUR RESEARCHES,
 BAFFLE US IN OUR SPECULATIONS, AND HAUNT US IN OUR
 VERY DREAMS.  THEY STRETCH LIKE AN UNKNOWN BEFORE US,
 MOCKING, MYSTIFYING, AND MURMURING STRANGE REVELATIONS
 AND POSSIBILITIES.  -- SIR WILLIAM CROOKE, 1832-1919
 Job cpu time:  0 days  0 hours  0 minutes  2.8 seconds.
 File lengths (MBytes):  RWF=      5 Int=      0 D2E=      0 Chk=      2 Scr=      1
 Normal termination of Gaussian 09 at Wed Jul  1 18:33:28 2026.
