 Entering Gaussian System, Link 0=g16
 Input=Cycloheptatriene.com
 Output=Cycloheptatriene.log
 Initial command:
 /opt/g16/g16/l1.exe "/home/pnatt/scratch/Gau-3474260.inp" -scrdir="/home/pnatt/scratch/"
 Entering Link 1 = /opt/g16/g16/l1.exe PID=   3474267.
  
 Copyright (c) 1988-2019, Gaussian, Inc.  All Rights Reserved.
  
 This is part of the Gaussian(R) 16 program.  It is based on
 the Gaussian(R) 09 system (copyright 2009, Gaussian, Inc.),
 the Gaussian(R) 03 system (copyright 2003, Gaussian, Inc.),
 the Gaussian(R) 98 system (copyright 1998, Gaussian, Inc.),
 the Gaussian(R) 94 system (copyright 1995, Gaussian, Inc.),
 the Gaussian 92(TM) system (copyright 1992, Gaussian, Inc.),
 the Gaussian 90(TM) system (copyright 1990, Gaussian, Inc.),
 the Gaussian 88(TM) system (copyright 1988, Gaussian, Inc.),
 the Gaussian 86(TM) system (copyright 1986, Carnegie Mellon
 University), and the Gaussian 82(TM) system (copyright 1983,
 Carnegie Mellon University). Gaussian is a federally registered
 trademark of Gaussian, Inc.
  
 This software contains proprietary and confidential information,
 including trade secrets, belonging to Gaussian, Inc.
  
 This software is provided under written license and may be
 used, copied, transmitted, or stored only in accord with that
 written license.
  
 The following legend is applicable only to US Government
 contracts under FAR:
  
                    RESTRICTED RIGHTS LEGEND
  
 Use, reproduction and disclosure by the US Government is
 subject to restrictions as set forth in subparagraphs (a)
 and (c) of the Commercial Computer Software - Restricted
 Rights clause in FAR 52.227-19.
  
 Gaussian, Inc.
 340 Quinnipiac St., Bldg. 40, Wallingford CT 06492
  
  
 ---------------------------------------------------------------
 Warning -- This program may not be used in any manner that
 competes with the business of Gaussian, Inc. or will provide
 assistance to any competitor of Gaussian, Inc.  The licensee
 of this program is prohibited from giving any competitor of
 Gaussian, Inc. access to this program.  By using this program,
 the user acknowledges that Gaussian, Inc. is engaged in the
 business of creating and licensing software in the field of
 computational chemistry and represents and warrants to the
 licensee that it is not a competitor of Gaussian, Inc. and that
 it will not use this program in any manner prohibited above.
 ---------------------------------------------------------------
  

 Cite this work as:
 Gaussian 16, Revision C.01,
 M. J. Frisch, G. W. Trucks, H. B. Schlegel, G. E. Scuseria, 
 M. A. Robb, J. R. Cheeseman, G. Scalmani, V. Barone, 
 G. A. Petersson, H. Nakatsuji, X. Li, M. Caricato, A. V. Marenich, 
 J. Bloino, B. G. Janesko, R. Gomperts, B. Mennucci, H. P. Hratchian, 
 J. V. Ortiz, A. F. Izmaylov, J. L. Sonnenberg, D. Williams-Young, 
 F. Ding, F. Lipparini, F. Egidi, J. Goings, B. Peng, A. Petrone, 
 T. Henderson, D. Ranasinghe, V. G. Zakrzewski, J. Gao, N. Rega, 
 G. Zheng, W. Liang, M. Hada, M. Ehara, K. Toyota, R. Fukuda, 
 J. Hasegawa, M. Ishida, T. Nakajima, Y. Honda, O. Kitao, H. Nakai, 
 T. Vreven, K. Throssell, J. A. Montgomery, Jr., J. E. Peralta, 
 F. Ogliaro, M. J. Bearpark, J. J. Heyd, E. N. Brothers, K. N. Kudin, 
 V. N. Staroverov, T. A. Keith, R. Kobayashi, J. Normand, 
 K. Raghavachari, A. P. Rendell, J. C. Burant, S. S. Iyengar, 
 J. Tomasi, M. Cossi, J. M. Millam, M. Klene, C. Adamo, R. Cammi, 
 J. W. Ochterski, R. L. Martin, K. Morokuma, O. Farkas, 
 J. B. Foresman, and D. J. Fox, Gaussian, Inc., Wallingford CT, 2019.
 
 ******************************************
 Gaussian 16:  ES64L-G16RevC.01  3-Jul-2019
                 7-Aug-2026 
 ******************************************
 %mem=8GB
 %nprocshared=8
 Will use up to    8 processors via shared memory.
 %chk=Cycloheptatriene.chk
 --------------------------------------------------------------
 # opt freq=hpmodes mp2/3-21g* geom=connectivity symmetry=loose
 --------------------------------------------------------------
 1/18=20,19=15,38=1,57=2/1,3;
 2/9=110,12=2,17=4,18=3,40=1/2;
 3/5=5,7=1,11=9,25=1,30=1,71=1/1,2,3;
 4//1;
 5/5=2,38=5/2;
 8/6=4,10=1/1;
 9/15=2,16=-3/6;
 10/5=1/2;
 6/7=2,8=2,9=2,10=2/1;
 7/12=2/1,2,3,16;
 1/18=20,19=15/3(2);
 2/9=110/2;
 99//99;
 2/9=110/2;
 3/5=5,7=1,11=9,25=1,30=1,71=1/1,2,3;
 4/5=5,16=3,69=1/1;
 5/5=2,38=5/2;
 8/6=4,10=1/1;
 9/15=2,16=-3/6;
 10/5=1/2;
 7/12=2/1,2,3,16;
 1/18=20,19=15/3(-8);
 2/9=110/2;
 6/7=2,8=2,9=2,10=2/1;
 99/9=10/99;
 ------------------------------------------
 1,3,5-Cycloheptatriene C7H8 - size6to10_Cs
 ------------------------------------------
 Symbolic Z-matrix:
 Charge =  0 Multiplicity = 1
 C                    -1.40362  -0.25142  -1.25074 
 C                    -0.54254   0.77505  -1.2522 
 C                     0.87294   0.71975  -1.5123 
 C                     1.53931  -0.19171  -2.23167 
 C                     1.00183  -1.33733  -2.9194 
 C                    -0.12749  -1.9969   -2.62836 
 C                    -1.16469  -1.69259  -1.58908 
 H                    -2.42949  -0.0288   -0.95995 
 H                    -0.91511   1.75829  -0.96813 
 H                     1.44378   1.53964  -1.07856 
 H                     2.615    -0.06234  -2.34293 
 H                     1.63222  -1.72594  -3.71806 
 H                    -0.33861  -2.88871  -3.21713 
 H                    -2.11574  -2.0797   -1.97957 
 H                    -0.95775  -2.26194  -0.67599 
 

 GradGradGradGradGradGradGradGradGradGradGradGradGradGradGradGradGradGrad
 Berny optimization.
 Initialization pass.
                           ----------------------------
                           !    Initial Parameters    !
                           ! (Angstroms and Degrees)  !
 --------------------------                            --------------------------
 ! Name  Definition              Value          Derivative Info.                !
 --------------------------------------------------------------------------------
 ! R1    R(1,2)                  1.3398         estimate D2E/DX2                !
 ! R2    R(1,7)                  1.4995         estimate D2E/DX2                !
 ! R3    R(1,8)                  1.0893         estimate D2E/DX2                !
 ! R4    R(2,3)                  1.4402         estimate D2E/DX2                !
 ! R5    R(2,9)                  1.0892         estimate D2E/DX2                !
 ! R6    R(3,4)                  1.3388         estimate D2E/DX2                !
 ! R7    R(3,10)                 1.0891         estimate D2E/DX2                !
 ! R8    R(4,5)                  1.4402         estimate D2E/DX2                !
 ! R9    R(4,11)                 1.0891         estimate D2E/DX2                !
 ! R10   R(5,6)                  1.3398         estimate D2E/DX2                !
 ! R11   R(5,12)                 1.0892         estimate D2E/DX2                !
 ! R12   R(6,7)                  1.4995         estimate D2E/DX2                !
 ! R13   R(6,13)                 1.0893         estimate D2E/DX2                !
 ! R14   R(7,14)                 1.0986         estimate D2E/DX2                !
 ! R15   R(7,15)                 1.0958         estimate D2E/DX2                !
 ! A1    A(2,1,7)              129.3214         estimate D2E/DX2                !
 ! A2    A(2,1,8)              116.6789         estimate D2E/DX2                !
 ! A3    A(7,1,8)              113.9989         estimate D2E/DX2                !
 ! A4    A(1,2,3)              127.0431         estimate D2E/DX2                !
 ! A5    A(1,2,9)              118.1313         estimate D2E/DX2                !
 ! A6    A(3,2,9)              114.7057         estimate D2E/DX2                !
 ! A7    A(2,3,4)              127.7613         estimate D2E/DX2                !
 ! A8    A(2,3,10)             114.4743         estimate D2E/DX2                !
 ! A9    A(4,3,10)             117.7507         estimate D2E/DX2                !
 ! A10   A(3,4,5)              127.7614         estimate D2E/DX2                !
 ! A11   A(3,4,11)             117.7506         estimate D2E/DX2                !
 ! A12   A(5,4,11)             114.4744         estimate D2E/DX2                !
 ! A13   A(4,5,6)              127.0431         estimate D2E/DX2                !
 ! A14   A(4,5,12)             114.7057         estimate D2E/DX2                !
 ! A15   A(6,5,12)             118.1313         estimate D2E/DX2                !
 ! A16   A(5,6,7)              129.3214         estimate D2E/DX2                !
 ! A17   A(5,6,13)             116.6789         estimate D2E/DX2                !
 ! A18   A(7,6,13)             113.9989         estimate D2E/DX2                !
 ! A19   A(1,7,6)              117.4935         estimate D2E/DX2                !
 ! A20   A(1,7,14)             106.316          estimate D2E/DX2                !
 ! A21   A(1,7,15)             109.9653         estimate D2E/DX2                !
 ! A22   A(6,7,14)             106.316          estimate D2E/DX2                !
 ! A23   A(6,7,15)             109.9654         estimate D2E/DX2                !
 ! A24   A(14,7,15)            106.0578         estimate D2E/DX2                !
 ! D1    D(7,1,2,3)             -3.9832         estimate D2E/DX2                !
 ! D2    D(7,1,2,9)           -179.7733         estimate D2E/DX2                !
 ! D3    D(8,1,2,3)            175.6777         estimate D2E/DX2                !
 ! D4    D(8,1,2,9)             -0.1125         estimate D2E/DX2                !
 ! D5    D(2,1,7,6)            -31.9386         estimate D2E/DX2                !
 ! D6    D(2,1,7,14)          -150.7764         estimate D2E/DX2                !
 ! D7    D(2,1,7,15)            94.8311         estimate D2E/DX2                !
 ! D8    D(8,1,7,6)            148.3932         estimate D2E/DX2                !
 ! D9    D(8,1,7,14)            29.5553         estimate D2E/DX2                !
 ! D10   D(8,1,7,15)           -84.8372         estimate D2E/DX2                !
 ! D11   D(1,2,3,4)             25.4012         estimate D2E/DX2                !
 ! D12   D(1,2,3,10)          -155.9848         estimate D2E/DX2                !
 ! D13   D(9,2,3,4)           -158.6852         estimate D2E/DX2                !
 ! D14   D(9,2,3,10)            19.9288         estimate D2E/DX2                !
 ! D15   D(2,3,4,5)              0.0            estimate D2E/DX2                !
 ! D16   D(2,3,4,11)           178.5746         estimate D2E/DX2                !
 ! D17   D(10,3,4,5)          -178.5746         estimate D2E/DX2                !
 ! D18   D(10,3,4,11)            0.0            estimate D2E/DX2                !
 ! D19   D(3,4,5,6)            -25.4012         estimate D2E/DX2                !
 ! D20   D(3,4,5,12)           158.6852         estimate D2E/DX2                !
 ! D21   D(11,4,5,6)           155.9848         estimate D2E/DX2                !
 ! D22   D(11,4,5,12)          -19.9288         estimate D2E/DX2                !
 ! D23   D(4,5,6,7)              3.9832         estimate D2E/DX2                !
 ! D24   D(4,5,6,13)          -175.6777         estimate D2E/DX2                !
 ! D25   D(12,5,6,7)           179.7733         estimate D2E/DX2                !
 ! D26   D(12,5,6,13)            0.1125         estimate D2E/DX2                !
 ! D27   D(5,6,7,1)             31.9386         estimate D2E/DX2                !
 ! D28   D(5,6,7,14)           150.7764         estimate D2E/DX2                !
 ! D29   D(5,6,7,15)           -94.8311         estimate D2E/DX2                !
 ! D30   D(13,6,7,1)          -148.3932         estimate D2E/DX2                !
 ! D31   D(13,6,7,14)          -29.5554         estimate D2E/DX2                !
 ! D32   D(13,6,7,15)           84.8372         estimate D2E/DX2                !
 --------------------------------------------------------------------------------
 Trust Radius=3.00D-01 FncErr=1.00D-07 GrdErr=1.00D-07 EigMax=2.50D+02 EigMin=1.00D-04
 Number of steps in this run=     81 maximum allowed number of steps=    100.
 GradGradGradGradGradGradGradGradGradGradGradGradGradGradGradGradGradGrad

                          Input orientation:                          
 ---------------------------------------------------------------------
 Center     Atomic      Atomic             Coordinates (Angstroms)
 Number     Number       Type             X           Y           Z
 ---------------------------------------------------------------------
      1          6           0       -1.403622   -0.251420   -1.250736
      2          6           0       -0.542541    0.775050   -1.252199
      3          6           0        0.872943    0.719745   -1.512296
      4          6           0        1.539313   -0.191714   -2.231667
      5          6           0        1.001826   -1.337330   -2.919400
      6          6           0       -0.127493   -1.996904   -2.628364
      7          6           0       -1.164694   -1.692585   -1.589076
      8          1           0       -2.429492   -0.028800   -0.959945
      9          1           0       -0.915110    1.758288   -0.968125
     10          1           0        1.443782    1.539643   -1.078564
     11          1           0        2.614997   -0.062340   -2.342933
     12          1           0        1.632217   -1.725936   -3.718058
     13          1           0       -0.338606   -2.888706   -3.217133
     14          1           0       -2.115744   -2.079699   -1.979573
     15          1           0       -0.957745   -2.261936   -0.675993
 ---------------------------------------------------------------------
                    Distance matrix (angstroms):
                    1          2          3          4          5
     1  C    0.000000
     2  C    1.339815   0.000000
     3  C    2.488840   1.440244   0.000000
     4  C    3.102685   2.495617   1.338769   0.000000
     5  C    3.122470   3.102705   2.495618   1.440245   0.000000
     6  C    2.563802   3.122471   3.102686   2.488839   1.339814
     7  C    1.499506   2.567057   3.158670   3.158669   2.567056
     8  H    1.089279   2.071756   3.430960   4.170759   4.162410
     9  H    2.087448   1.089157   2.138183   3.379828   4.130977
    10  H    3.368272   2.135470   1.089134   2.082395   3.443977
    11  H    4.168686   3.443976   2.082395   1.089134   2.135471
    12  H    4.180693   4.130976   3.379828   2.138183   1.089157
    13  H    3.457782   4.162411   4.170760   3.430960   2.071755
    14  H    2.093066   3.339705   4.121588   4.121587   3.339705
    15  H    2.138062   3.118925   3.597394   3.597393   3.118924
                    6          7          8          9         10
     6  C    0.000000
     7  C    1.499505   0.000000
     8  H    3.457782   2.182590   0.000000
     9  H    4.180694   3.515167   2.342457   0.000000
    10  H    4.168687   4.184742   4.180471   2.371576   0.000000
    11  H    3.368273   4.184742   5.230741   4.203146   2.353024
    12  H    2.087447   3.515165   5.194703   5.117697   4.203147
    13  H    1.089279   2.182589   4.200686   5.194704   5.230742
    14  H    2.093066   1.098563   2.311767   4.146648   5.155742
    15  H    2.138063   1.095769   2.689529   4.031049   4.514576
                   11         12         13         14         15
    11  H    0.000000
    12  H    2.371577   0.000000
    13  H    4.180471   2.342457   0.000000
    14  H    5.155742   4.146648   2.311767   0.000000
    15  H    4.514576   4.031049   2.689529   1.753138   0.000000
 Stoichiometry    C7H8
 Framework group  CS[SG(CH2),X(C6H6)]
 Deg. of freedom    21
 Full point group                 CS      NOp   2
 Largest Abelian subgroup         CS      NOp   2
 Largest concise Abelian subgroup CS      NOp   2
                         Standard orientation:                         
 ---------------------------------------------------------------------
 Center     Atomic      Atomic             Coordinates (Angstroms)
 Number     Number       Type             X           Y           Z
 ---------------------------------------------------------------------
      1          6           0       -0.253702    0.897630   -1.281908
      2          6           0       -0.124222   -0.408410   -1.551350
      3          6           0        0.377055   -1.430732   -0.669373
      4          6           0        0.377055   -1.430732    0.669373
      5          6           0       -0.124222   -0.408410    1.551350
      6          6           0       -0.253702    0.897630    1.281908
      7          6           0       -0.000000    1.633086   -0.000000
      8          1           0       -0.585405    1.535317   -2.100356
      9          1           0       -0.357079   -0.750456   -2.558844
     10          1           0        0.779740   -2.306452   -1.176494
     11          1           0        0.779740   -2.306452    1.176494
     12          1           0       -0.357079   -0.750456    2.558844
     13          1           0       -0.585405    1.535317    2.100356
     14          1           0       -0.679096    2.496607   -0.000000
     15          1           0        1.015083    2.045778   -0.000000
 ---------------------------------------------------------------------
 Rotational constants (GHZ):           3.6593851           3.5954427           1.8848895
 Standard basis: 3-21G* (6D, 7F)
 There are    44 symmetry adapted cartesian basis functions of A'  symmetry.
 There are    35 symmetry adapted cartesian basis functions of A"  symmetry.
 There are    44 symmetry adapted basis functions of A'  symmetry.
 There are    35 symmetry adapted basis functions of A"  symmetry.
    79 basis functions,   129 primitive gaussians,    79 cartesian basis functions
    25 alpha electrons       25 beta electrons
       nuclear repulsion energy       269.2188146792 Hartrees.
 NAtoms=   15 NActive=   15 NUniq=    9 SFac= 2.78D+00 NAtFMM=   60 NAOKFM=F Big=F
 Integral buffers will be    131072 words long.
 Raffenetti 1 integral format.
 Two-electron integral symmetry is turned on.
 One-electron integrals computed using PRISM.
 NBasis=    79 RedAO= T EigKep=  4.48D-03  NBF=    44    35
 NBsUse=    79 1.00D-06 EigRej= -1.00D+00 NBFU=    44    35
 ExpMin= 1.83D-01 ExpMax= 1.72D+02 ExpMxC= 1.72D+02 IAcc=3 IRadAn=         5 AccDes= 0.00D+00
 Harris functional with IExCor=  205 and IRadAn=       5 diagonalized for initial guess.
 HarFok:  IExCor=  205 AccDes= 0.00D+00 IRadAn=         5 IDoV= 1 UseB2=F ITyADJ=14
 ICtDFT=  3500011 ScaDFX=  1.000000  1.000000  1.000000  1.000000
 FoFCou: FMM=F IPFlag=           0 FMFlag=      100000 FMFlg1=           0
         NFxFlg=           0 DoJE=T BraDBF=F KetDBF=T FulRan=T
         wScrn=  0.000000 ICntrl=       500 IOpCl=  0 I1Cent=   200000004 NGrid=           0
         NMat0=    1 NMatS0=      1 NMatT0=    0 NMatD0=    1 NMtDS0=    0 NMtDT0=    0
 Petite list used in FoFCou.
 Initial guess orbital symmetries:
       Occupied  (A') (A") (A') (A") (A') (A") (A') (A') (A") (A')
                 (A') (A") (A') (A") (A') (A") (A') (A') (A') (A")
                 (A') (A") (A') (A") (A')
       Virtual   (A") (A') (A") (A') (A") (A') (A') (A') (A") (A')
                 (A") (A') (A") (A') (A") (A') (A") (A") (A') (A')
                 (A') (A") (A') (A") (A') (A") (A') (A") (A") (A')
                 (A') (A") (A') (A') (A") (A') (A") (A') (A") (A')
                 (A") (A') (A") (A') (A') (A") (A') (A") (A") (A')
                 (A') (A") (A") (A')
 The electronic state of the initial guess is 1-A'.
 Keep R1 ints in memory in symmetry-blocked form, NReq=7502338.
 Requested convergence on RMS density matrix=1.00D-08 within 128 cycles.
 Requested convergence on MAX density matrix=1.00D-06.
 Requested convergence on             energy=1.00D-06.
 No special actions if energy rises.
 SCF Done:  E(RHF) =  -268.170269536     A.U. after   12 cycles
            NFock= 12  Conv=0.80D-08     -V/T= 2.0022
 ExpMin= 1.83D-01 ExpMax= 1.72D+02 ExpMxC= 1.72D+02 IAcc=3 IRadAn=         5 AccDes= 0.00D+00
 HarFok:  IExCor=  205 AccDes= 0.00D+00 IRadAn=         5 IDoV=-2 UseB2=F ITyADJ=14
 ICtDFT= 12500011 ScaDFX=  1.000000  1.000000  1.000000  1.000000
 Range of M.O.s used for correlation:     8    79
 NBasis=    79 NAE=    25 NBE=    25 NFC=     7 NFV=     0
 NROrb=     72 NOA=    18 NOB=    18 NVA=    54 NVB=    54
 Fully direct method using O(ONN) memory.
 JobTyp=1 Pass  1:  I=   8 to  25 NPSUse=  8 ParTrn=T ParDer=T DoDerP=T.
 Spin components of T(2) and E(2):
     alpha-alpha T2 =       0.2934946705D-01 E2=     -0.7272149438D-01
     alpha-beta  T2 =       0.1912561794D+00 E2=     -0.4687657786D+00
     beta-beta   T2 =       0.2934946705D-01 E2=     -0.7272149438D-01
 ANorm=    0.1118013915D+01
 E2 =    -0.6142087674D+00 EUMP2 =    -0.26878447830305D+03
          IDoAtm=111111111111111
          Differentiating once with respect to electric field.
                with respect to dipole field.
          Differentiating once with respect to nuclear coordinates.
 Keep R1 ints in memory in symmetry-blocked form, NReq=7504047.
          There are     1 degrees of freedom in the 1st order CPHF.  IDoFFX=0 NUNeed=     1.
 LinEq1:  Iter=  0 NonCon=     1 RMS=4.97D-03 Max=6.37D-02 NDo=     1
 AX will form     1 AO Fock derivatives at one time.
 LinEq1:  Iter=  1 NonCon=     1 RMS=1.35D-03 Max=1.45D-02 NDo=     1
 LinEq1:  Iter=  2 NonCon=     1 RMS=2.79D-04 Max=5.77D-03 NDo=     1
 LinEq1:  Iter=  3 NonCon=     1 RMS=7.61D-05 Max=1.85D-03 NDo=     1
 LinEq1:  Iter=  4 NonCon=     1 RMS=3.50D-05 Max=7.28D-04 NDo=     1
 LinEq1:  Iter=  5 NonCon=     1 RMS=6.24D-06 Max=5.89D-05 NDo=     1
 LinEq1:  Iter=  6 NonCon=     1 RMS=1.23D-06 Max=8.91D-06 NDo=     1
 LinEq1:  Iter=  7 NonCon=     1 RMS=3.60D-07 Max=3.75D-06 NDo=     1
 LinEq1:  Iter=  8 NonCon=     1 RMS=5.18D-08 Max=8.69D-07 NDo=     1
 LinEq1:  Iter=  9 NonCon=     1 RMS=8.23D-09 Max=8.98D-08 NDo=     1
 LinEq1:  Iter= 10 NonCon=     1 RMS=2.49D-09 Max=2.30D-08 NDo=     1
 LinEq1:  Iter= 11 NonCon=     1 RMS=6.29D-10 Max=5.36D-09 NDo=     1
 LinEq1:  Iter= 12 NonCon=     1 RMS=1.06D-10 Max=8.73D-10 NDo=     1
 LinEq1:  Iter= 13 NonCon=     0 RMS=1.46D-11 Max=1.62D-10 NDo=     1
 Linear equations converged to 1.000D-10 1.000D-09 after    13 iterations.
 End of Minotr F.D. properties file   721 does not exist.
 End of Minotr F.D. properties file   722 does not exist.
 End of Minotr F.D. properties file   788 does not exist.

 **********************************************************************

            Population analysis using the SCF Density.

 **********************************************************************

 Orbital symmetries:
       Occupied  (A") (A') (A') (A") (A') (A") (A') (A') (A") (A')
                 (A') (A") (A') (A") (A') (A") (A') (A') (A') (A")
                 (A') (A") (A') (A") (A')
       Virtual   (A") (A') (A') (A") (A') (A") (A') (A') (A") (A")
                 (A') (A') (A") (A') (A") (A') (A") (A") (A') (A')
                 (A') (A") (A') (A") (A') (A") (A') (A') (A") (A")
                 (A') (A") (A') (A') (A") (A') (A') (A") (A") (A')
                 (A") (A') (A") (A') (A') (A") (A') (A") (A") (A')
                 (A') (A") (A") (A')
 The electronic state is 1-A'.
 Alpha  occ. eigenvalues --  -11.18102 -11.18074 -11.17803 -11.17274 -11.17267
 Alpha  occ. eigenvalues --  -11.17135 -11.17121  -1.12738  -1.04162  -1.04074
 Alpha  occ. eigenvalues --   -0.91289  -0.86155  -0.72648  -0.69691  -0.69632
 Alpha  occ. eigenvalues --   -0.61315  -0.60675  -0.58788  -0.53979  -0.53079
 Alpha  occ. eigenvalues --   -0.49760  -0.46163  -0.44000  -0.37702  -0.28391
 Alpha virt. eigenvalues --    0.10343   0.19694   0.24472   0.29337   0.29713
 Alpha virt. eigenvalues --    0.31581   0.33787   0.37222   0.37902   0.38752
 Alpha virt. eigenvalues --    0.39371   0.42278   0.46510   0.57336   0.58081
 Alpha virt. eigenvalues --    0.63066   0.65336   0.83229   0.84303   0.94144
 Alpha virt. eigenvalues --    0.94815   0.96729   1.00479   1.02254   1.04340
 Alpha virt. eigenvalues --    1.05420   1.08353   1.12112   1.12196   1.13349
 Alpha virt. eigenvalues --    1.14888   1.16398   1.18957   1.24959   1.30377
 Alpha virt. eigenvalues --    1.32646   1.34554   1.34629   1.37465   1.41442
 Alpha virt. eigenvalues --    1.43595   1.43724   1.46846   1.54001   1.61125
 Alpha virt. eigenvalues --    1.69579   1.72433   1.74551   1.75874   1.79702
 Alpha virt. eigenvalues --    2.07584   2.12391   2.35175   2.49259
          Condensed to atoms (all electrons):
               1          2          3          4          5          6
     1  C    5.234249   0.560446  -0.091031  -0.000093   0.002684  -0.069087
     2  C    0.560446   5.200310   0.329636  -0.088528   0.000389   0.002684
     3  C   -0.091031   0.329636   5.195794   0.559534  -0.088528  -0.000093
     4  C   -0.000093  -0.088528   0.559534   5.195794   0.329636  -0.091031
     5  C    0.002684   0.000389  -0.088528   0.329636   5.200310   0.560446
     6  C   -0.069087   0.002684  -0.000093  -0.091031   0.560446   5.234249
     7  C    0.267780  -0.073401   0.001908   0.001908  -0.073401   0.267780
     8  H    0.402235  -0.045996   0.002867  -0.000060  -0.000059   0.002755
     9  H   -0.038319   0.401263  -0.040104   0.002101  -0.000033  -0.000007
    10  H    0.002111  -0.040771   0.400370  -0.039198   0.002442  -0.000097
    11  H   -0.000097   0.002442  -0.039198   0.400370  -0.040771   0.002111
    12  H   -0.000007  -0.000033   0.002101  -0.040104   0.401263  -0.038319
    13  H    0.002755  -0.000059  -0.000060   0.002867  -0.045996   0.402235
    14  H   -0.050095   0.003043  -0.000094  -0.000094   0.003043  -0.050095
    15  H   -0.050300  -0.001658   0.001048   0.001048  -0.001658  -0.050300
               7          8          9         10         11         12
     1  C    0.267780   0.402235  -0.038319   0.002111  -0.000097  -0.000007
     2  C   -0.073401  -0.045996   0.401263  -0.040771   0.002442  -0.000033
     3  C    0.001908   0.002867  -0.040104   0.400370  -0.039198   0.002101
     4  C    0.001908  -0.000060   0.002101  -0.039198   0.400370  -0.040104
     5  C   -0.073401  -0.000059  -0.000033   0.002442  -0.040771   0.401263
     6  C    0.267780   0.002755  -0.000007  -0.000097   0.002111  -0.038319
     7  C    5.422069  -0.043052   0.002059   0.000000   0.000000   0.002059
     8  H   -0.043052   0.464697  -0.002563  -0.000053   0.000001   0.000001
     9  H    0.002059  -0.002563   0.448795  -0.001149  -0.000050   0.000001
    10  H    0.000000  -0.000053  -0.001149   0.451510  -0.002586  -0.000050
    11  H    0.000000   0.000001  -0.000050  -0.002586   0.451510  -0.001149
    12  H    0.002059   0.000001   0.000001  -0.000050  -0.001149   0.448795
    13  H   -0.043052  -0.000036   0.000001   0.000001  -0.000053  -0.002563
    14  H    0.392245  -0.004227  -0.000053  -0.000000  -0.000000  -0.000053
    15  H    0.381287   0.001561  -0.000030   0.000011   0.000011  -0.000030
              13         14         15
     1  C    0.002755  -0.050095  -0.050300
     2  C   -0.000059   0.003043  -0.001658
     3  C   -0.000060  -0.000094   0.001048
     4  C    0.002867  -0.000094   0.001048
     5  C   -0.045996   0.003043  -0.001658
     6  C    0.402235  -0.050095  -0.050300
     7  C   -0.043052   0.392245   0.381287
     8  H   -0.000036  -0.004227   0.001561
     9  H    0.000001  -0.000053  -0.000030
    10  H    0.000001  -0.000000   0.000011
    11  H   -0.000053  -0.000000   0.000011
    12  H   -0.002563  -0.000053  -0.000030
    13  H    0.464697  -0.004227   0.001561
    14  H   -0.004227   0.515699  -0.028948
    15  H    0.001561  -0.028948   0.504725
 Mulliken charges:
               1
     1  C   -0.173231
     2  C   -0.249766
     3  C   -0.234148
     4  C   -0.234148
     5  C   -0.249766
     6  C   -0.173231
     7  C   -0.506190
     8  H    0.221928
     9  H    0.228089
    10  H    0.227460
    11  H    0.227460
    12  H    0.228089
    13  H    0.221928
    14  H    0.223857
    15  H    0.241669
 Sum of Mulliken charges =  -0.00000
 Mulliken charges with hydrogens summed into heavy atoms:
               1
     1  C    0.048697
     2  C   -0.021677
     3  C   -0.006688
     4  C   -0.006688
     5  C   -0.021677
     6  C    0.048697
     7  C   -0.040665
 Electronic spatial extent (au):  <R**2>=            678.5160
 Charge=              0.0000 electrons
 Dipole moment (field-independent basis, Debye):
    X=              0.0236    Y=              0.4954    Z=             -0.0000  Tot=              0.4960
 Quadrupole moment (field-independent basis, Debye-Ang):
   XX=            -46.5246   YY=            -38.6137   ZZ=            -39.2387
   XY=             -2.0590   XZ=              0.0000   YZ=              0.0000
 Traceless Quadrupole moment (field-independent basis, Debye-Ang):
   XX=             -5.0656   YY=              2.8453   ZZ=              2.2203
   XY=             -2.0590   XZ=              0.0000   YZ=              0.0000
 Octapole moment (field-independent basis, Debye-Ang**2):
  XXX=              1.0125  YYY=              1.4931  ZZZ=             -0.0000  XYY=              2.4628
  XXY=              1.8163  XXZ=             -0.0000  XZZ=             -4.4802  YZZ=             -2.9551
  YYZ=             -0.0000  XYZ=              0.0000
 Hexadecapole moment (field-independent basis, Debye-Ang**3):
 XXXX=            -81.3742 YYYY=           -415.0120 ZZZZ=           -399.4483 XXXY=             34.6198
 XXXZ=             -0.0000 YYYX=             16.9376 YYYZ=              0.0000 ZZZX=             -0.0000
 ZZZY=              0.0000 XXYY=            -82.6535 XXZZ=            -90.4244 YYZZ=           -128.7818
 XXYZ=              0.0000 YYXZ=             -0.0000 ZZXY=              5.1495
 N-N= 2.692188146792D+02 E-N=-1.161813191761D+03  KE= 2.675753611012D+02
 Symmetry A'   KE= 1.540842091058D+02
 Symmetry A"   KE= 1.134911519955D+02
 Calling FoFJK, ICntrl=  10002127 FMM=F ISym2X=1 I1Cent= 0 IOpClX= 0 NMat=1 NMatS=1 NMatT=0.
 ***** Axes restored to original set *****
 -------------------------------------------------------------------
 Center     Atomic                   Forces (Hartrees/Bohr)
 Number     Number              X              Y              Z
 -------------------------------------------------------------------
      1        6          -0.015891994    0.009185612   -0.002035231
      2        6          -0.006196603    0.005902732    0.006596570
      3        6           0.010200716    0.016591279    0.007267702
      4        6           0.020278592    0.002807069   -0.003611607
      5        6           0.004403229   -0.008595393   -0.004846202
      6        6          -0.002880280   -0.008611412   -0.016081687
      7        6          -0.005770131   -0.012240504    0.010163790
      8        1          -0.002148546    0.000371146   -0.002077438
      9        1          -0.002328221   -0.000292987    0.000907239
     10        1           0.002001030    0.000569844   -0.000488185
     11        1           0.001134553    0.001754985    0.000447198
     12        1          -0.000887810   -0.002263137   -0.000647720
     13        1          -0.001943627    0.000090864   -0.002298653
     14        1          -0.000907581   -0.002261454    0.002024565
     15        1           0.000936674   -0.003008643    0.004679658
 -------------------------------------------------------------------
 Cartesian Forces:  Max     0.020278592 RMS     0.006909205

 GradGradGradGradGradGradGradGradGradGradGradGradGradGradGradGradGradGrad
 Berny optimization.
 FormGI is forming the generalized inverse of G from B-inverse, IUseBI=4.
 Internal  Forces:  Max     0.022522329 RMS     0.006319302
 Search for a local minimum.
 Step number   1 out of a maximum of   81
 All quantities printed in internal units (Hartrees-Bohrs-Radians)
 Mixed Optimization -- RFO/linear search
 Second derivative matrix not updated -- first step.
 ITU=  0
     Eigenvalues ---    0.01013   0.01487   0.01665   0.01875   0.01967
     Eigenvalues ---    0.02165   0.02276   0.02335   0.02590   0.02638
     Eigenvalues ---    0.04445   0.06602   0.10745   0.12096   0.15969
     Eigenvalues ---    0.15971   0.15996   0.15998   0.16000   0.16000
     Eigenvalues ---    0.20991   0.21074   0.21763   0.22014   0.31434
     Eigenvalues ---    0.31854   0.33842   0.34154   0.34896   0.34896
     Eigenvalues ---    0.34910   0.34910   0.34913   0.34913   0.38010
     Eigenvalues ---    0.38900   0.54152   0.55766   0.57267
 RFO step:  Lambda=-8.66168849D-03 EMin= 1.01343611D-02
 Linear search not attempted -- first point.
 Iteration  1 RMS(Cart)=  0.03728212 RMS(Int)=  0.00089944
 Iteration  2 RMS(Cart)=  0.00101214 RMS(Int)=  0.00032217
 Iteration  3 RMS(Cart)=  0.00000089 RMS(Int)=  0.00032217
 ClnCor:  largest displacement from symmetrization is 5.39D-09 for atom    11.
 Variable       Old X    -DE/DX   Delta X   Delta X   Delta X     New X
                                 (Linear)    (Quad)   (Total)
    R1        2.53188   0.01572   0.00000   0.02658   0.02651   2.55839
    R2        2.83367   0.01832   0.00000   0.05162   0.05131   2.88498
    R3        2.05844   0.00154   0.00000   0.00432   0.00432   2.06276
    R4        2.72167   0.02252   0.00000   0.05774   0.05796   2.77963
    R5        2.05821   0.00077   0.00000   0.00215   0.00215   2.06036
    R6        2.52986   0.02027   0.00000   0.03702   0.03739   2.56725
    R7        2.05817   0.00128   0.00000   0.00359   0.00359   2.06175
    R8        2.72167   0.02252   0.00000   0.05774   0.05796   2.77963
    R9        2.05817   0.00128   0.00000   0.00359   0.00359   2.06175
   R10        2.53188   0.01572   0.00000   0.02658   0.02651   2.55839
   R11        2.05821   0.00077   0.00000   0.00215   0.00215   2.06036
   R12        2.83367   0.01832   0.00000   0.05162   0.05131   2.88498
   R13        2.05844   0.00154   0.00000   0.00432   0.00432   2.06276
   R14        2.07598   0.00086   0.00000   0.00249   0.00249   2.07847
   R15        2.07070   0.00564   0.00000   0.01610   0.01610   2.08681
    A1        2.25708   0.00024   0.00000  -0.01004  -0.01111   2.24597
    A2        2.03643   0.00033   0.00000   0.00766   0.00812   2.04455
    A3        1.98966  -0.00057   0.00000   0.00228   0.00273   1.99240
    A4        2.21732   0.00458   0.00000   0.01854   0.01796   2.23528
    A5        2.06178  -0.00469   0.00000  -0.02282  -0.02277   2.03901
    A6        2.00199   0.00017   0.00000   0.00622   0.00630   2.00829
    A7        2.22986  -0.00385   0.00000  -0.01193  -0.01198   2.21788
    A8        1.99795   0.00362   0.00000   0.01597   0.01599   2.01394
    A9        2.05513   0.00023   0.00000  -0.00420  -0.00419   2.05094
   A10        2.22986  -0.00385   0.00000  -0.01193  -0.01198   2.21788
   A11        2.05513   0.00023   0.00000  -0.00420  -0.00419   2.05094
   A12        1.99795   0.00362   0.00000   0.01597   0.01599   2.01394
   A13        2.21732   0.00458   0.00000   0.01854   0.01796   2.23528
   A14        2.00199   0.00017   0.00000   0.00622   0.00630   2.00829
   A15        2.06178  -0.00469   0.00000  -0.02282  -0.02277   2.03901
   A16        2.25708   0.00024   0.00000  -0.01004  -0.01111   2.24597
   A17        2.03643   0.00033   0.00000   0.00766   0.00812   2.04455
   A18        1.98966  -0.00057   0.00000   0.00228   0.00273   1.99240
   A19        2.05064  -0.00279   0.00000  -0.02532  -0.02637   2.02428
   A20        1.85557   0.00026   0.00000   0.00104   0.00135   1.85691
   A21        1.91926   0.00178   0.00000   0.01708   0.01740   1.93665
   A22        1.85557   0.00026   0.00000   0.00104   0.00135   1.85691
   A23        1.91926   0.00178   0.00000   0.01708   0.01740   1.93665
   A24        1.85106  -0.00138   0.00000  -0.01173  -0.01185   1.83921
    D1       -0.06952   0.00152   0.00000   0.06044   0.06060  -0.00892
    D2       -3.13764   0.00053   0.00000   0.02643   0.02676  -3.11088
    D3        3.06615   0.00104   0.00000   0.03985   0.03996   3.10611
    D4       -0.00196   0.00004   0.00000   0.00584   0.00611   0.00415
    D5       -0.55742  -0.00270   0.00000  -0.09252  -0.09212  -0.64955
    D6       -2.63154  -0.00150   0.00000  -0.07893  -0.07882  -2.71036
    D7        1.65512  -0.00089   0.00000  -0.07407  -0.07416   1.58095
    D8        2.58996  -0.00223   0.00000  -0.07240  -0.07201   2.51795
    D9        0.51584  -0.00103   0.00000  -0.05881  -0.05871   0.45713
   D10       -1.48069  -0.00042   0.00000  -0.05395  -0.05405  -1.53473
   D11        0.44334  -0.00088   0.00000  -0.01856  -0.01853   0.42481
   D12       -2.72245  -0.00085   0.00000  -0.02656  -0.02669  -2.74914
   D13       -2.76958  -0.00009   0.00000   0.01337   0.01375  -2.75582
   D14        0.34782  -0.00006   0.00000   0.00537   0.00559   0.35341
   D15        0.00000  -0.00000   0.00000  -0.00000  -0.00000   0.00000
   D16        3.11671   0.00007   0.00000  -0.00799  -0.00808   3.10863
   D17       -3.11671  -0.00007   0.00000   0.00799   0.00808  -3.10863
   D18       -0.00000  -0.00000   0.00000   0.00000   0.00000   0.00000
   D19       -0.44334   0.00088   0.00000   0.01856   0.01853  -0.42481
   D20        2.76958   0.00009   0.00000  -0.01337  -0.01375   2.75582
   D21        2.72245   0.00085   0.00000   0.02656   0.02669   2.74914
   D22       -0.34782   0.00006   0.00000  -0.00537  -0.00559  -0.35341
   D23        0.06952  -0.00152   0.00000  -0.06044  -0.06060   0.00892
   D24       -3.06615  -0.00104   0.00000  -0.03985  -0.03996  -3.10611
   D25        3.13764  -0.00053   0.00000  -0.02643  -0.02676   3.11088
   D26        0.00196  -0.00004   0.00000  -0.00584  -0.00611  -0.00415
   D27        0.55742   0.00270   0.00000   0.09252   0.09212   0.64955
   D28        2.63154   0.00150   0.00000   0.07893   0.07882   2.71036
   D29       -1.65512   0.00089   0.00000   0.07407   0.07416  -1.58095
   D30       -2.58996   0.00223   0.00000   0.07240   0.07201  -2.51795
   D31       -0.51584   0.00103   0.00000   0.05881   0.05871  -0.45713
   D32        1.48069   0.00042   0.00000   0.05395   0.05405   1.53473
         Item               Value     Threshold  Converged?
 Maximum Force            0.022522     0.000450     NO 
 RMS     Force            0.006319     0.000300     NO 
 Maximum Displacement     0.104859     0.001800     NO 
 RMS     Displacement     0.037364     0.001200     NO 
 Predicted change in Energy=-4.736490D-03
 GradGradGradGradGradGradGradGradGradGradGradGradGradGradGradGradGradGrad

                          Input orientation:                          
 ---------------------------------------------------------------------
 Center     Atomic      Atomic             Coordinates (Angstroms)
 Number     Number       Type             X           Y           Z
 ---------------------------------------------------------------------
      1          6           0       -1.429782   -0.242109   -1.263215
      2          6           0       -0.546994    0.784078   -1.240451
      3          6           0        0.901263    0.740476   -1.493918
      4          6           0        1.577479   -0.184431   -2.223909
      5          6           0        1.011999   -1.348266   -2.923421
      6          6           0       -0.141032   -2.004821   -2.654452
      7          6           0       -1.171998   -1.716048   -1.566137
      8          1           0       -2.467090   -0.012322   -1.012809
      9          1           0       -0.939134    1.764549   -0.969078
     10          1           0        1.476131    1.562889   -1.065532
     11          1           0        2.654039   -0.048217   -2.337112
     12          1           0        1.623858   -1.741032   -3.735889
     13          1           0       -0.374645   -2.874304   -3.271653
     14          1           0       -2.125715   -2.130805   -1.924095
     15          1           0       -0.938227   -2.274197   -0.642406
 ---------------------------------------------------------------------
                    Distance matrix (angstroms):
                    1          2          3          4          5
     1  C    0.000000
     2  C    1.353843   0.000000
     3  C    2.540171   1.470917   0.000000
     4  C    3.157511   2.533493   1.358531   0.000000
     5  C    3.153119   3.132050   2.533493   1.470917   0.000000
     6  C    2.589125   3.153119   3.157511   2.540171   1.353843
     7  C    1.526666   2.597562   3.215297   3.215297   2.597562
     8  H    1.091565   2.091134   3.484820   4.225508   4.187988
     9  H    2.086607   1.090294   2.170539   3.421471   4.161249
    10  H    3.426577   2.174898   1.091032   2.098866   3.484537
    11  H    4.227108   3.484537   2.098866   1.091032   2.174898
    12  H    4.205425   4.161249   3.421471   2.170539   1.090294
    13  H    3.474995   4.187988   4.225508   3.484820   2.091134
    14  H    2.118551   3.384711   4.194270   4.194270   3.384711
    15  H    2.180920   3.140663   3.632775   3.632775   3.140663
                    6          7          8          9         10
     6  C    0.000000
     7  C    1.526666   0.000000
     8  H    3.474995   2.210456   0.000000
     9  H    4.205425   3.539104   2.343893   0.000000
    10  H    4.227108   4.244363   4.246536   2.425587   0.000000
    11  H    3.426577   4.244363   5.289710   4.250709   2.366442
    12  H    2.086607   3.539104   5.209554   5.149103   4.250709
    13  H    1.091565   2.210456   4.203765   5.209554   5.289710
    14  H    2.118551   1.099879   2.331298   4.182561   5.230086
    15  H    2.180920   1.104290   2.755121   4.051935   4.553174
                   11         12         13         14         15
    11  H    0.000000
    12  H    2.425587   0.000000
    13  H    4.246536   2.343893   0.000000
    14  H    5.230086   4.182561   2.331298   0.000000
    15  H    4.553174   4.051935   2.755121   1.753116   0.000000
 Stoichiometry    C7H8
 Framework group  CS[SG(CH2),X(C6H6)]
 Deg. of freedom    21
 Full point group                 CS      NOp   2
 Largest Abelian subgroup         CS      NOp   2
 Largest concise Abelian subgroup CS      NOp   2
                         Standard orientation:                         
 ---------------------------------------------------------------------
 Center     Atomic      Atomic             Coordinates (Angstroms)
 Number     Number       Type             X           Y           Z
 ---------------------------------------------------------------------
      1          6           0       -0.170288    0.936734   -1.294563
      2          6           0       -0.170288   -0.389614   -1.566025
      3          6           0        0.218379   -1.496950   -0.679266
      4          6           0        0.218379   -1.496950    0.679266
      5          6           0       -0.170288   -0.389614    1.566025
      6          6           0       -0.170288    0.936734    1.294563
      7          6           0        0.219680    1.645777   -0.000000
      8          1           0       -0.463654    1.610294   -2.101883
      9          1           0       -0.460288   -0.685443   -2.574552
     10          1           0        0.508593   -2.420073   -1.183221
     11          1           0        0.508593   -2.420073    1.183221
     12          1           0       -0.460288   -0.685443    2.574552
     13          1           0       -0.463654    1.610294    2.101883
     14          1           0       -0.313848    2.607588   -0.000000
     15          1           0        1.292832    1.906166   -0.000000
 ---------------------------------------------------------------------
 Rotational constants (GHZ):           3.5815152           3.4677807           1.8370105
 Standard basis: 3-21G* (6D, 7F)
 There are    44 symmetry adapted cartesian basis functions of A'  symmetry.
 There are    35 symmetry adapted cartesian basis functions of A"  symmetry.
 There are    44 symmetry adapted basis functions of A'  symmetry.
 There are    35 symmetry adapted basis functions of A"  symmetry.
    79 basis functions,   129 primitive gaussians,    79 cartesian basis functions
    25 alpha electrons       25 beta electrons
       nuclear repulsion energy       265.6473756735 Hartrees.
 NAtoms=   15 NActive=   15 NUniq=    9 SFac= 2.78D+00 NAtFMM=   60 NAOKFM=F Big=F
 Integral buffers will be    131072 words long.
 Raffenetti 1 integral format.
 Two-electron integral symmetry is turned on.
 One-electron integrals computed using PRISM.
 NBasis=    79 RedAO= T EigKep=  5.05D-03  NBF=    44    35
 NBsUse=    79 1.00D-06 EigRej= -1.00D+00 NBFU=    44    35
 Initial guess from the checkpoint file:  "Cycloheptatriene.chk"
 B after Tr=    -0.000001    0.000016   -0.000000
         Rot=    0.998259    0.000000    0.000000    0.058978 Ang=   6.76 deg.
 Initial guess orbital symmetries:
       Occupied  (A") (A') (A') (A") (A') (A") (A') (A') (A") (A')
                 (A') (A") (A') (A") (A') (A") (A') (A') (A') (A")
                 (A') (A") (A') (A") (A')
       Virtual   (A") (A') (A') (A") (A') (A") (A') (A') (A") (A")
                 (A') (A') (A") (A') (A") (A') (A") (A") (A') (A')
                 (A') (A") (A') (A") (A') (A") (A') (A') (A") (A")
                 (A') (A") (A') (A') (A") (A') (A') (A") (A") (A')
                 (A") (A') (A") (A') (A') (A") (A') (A") (A") (A')
                 (A') (A") (A") (A')
 ExpMin= 1.83D-01 ExpMax= 1.72D+02 ExpMxC= 1.72D+02 IAcc=3 IRadAn=         5 AccDes= 0.00D+00
 Harris functional with IExCor=  205 and IRadAn=       5 diagonalized for initial guess.
 HarFok:  IExCor=  205 AccDes= 0.00D+00 IRadAn=         5 IDoV= 1 UseB2=F ITyADJ=14
 ICtDFT=  3500011 ScaDFX=  1.000000  1.000000  1.000000  1.000000
 FoFCou: FMM=F IPFlag=           0 FMFlag=      100000 FMFlg1=           0
         NFxFlg=           0 DoJE=T BraDBF=F KetDBF=T FulRan=T
         wScrn=  0.000000 ICntrl=       500 IOpCl=  0 I1Cent=   200000004 NGrid=           0
         NMat0=    1 NMatS0=      1 NMatT0=    0 NMatD0=    1 NMtDS0=    0 NMtDT0=    0
 Petite list used in FoFCou.
 Keep R1 ints in memory in symmetry-blocked form, NReq=7502338.
 Requested convergence on RMS density matrix=1.00D-08 within 128 cycles.
 Requested convergence on MAX density matrix=1.00D-06.
 Requested convergence on             energy=1.00D-06.
 No special actions if energy rises.
 SCF Done:  E(RHF) =  -268.169374819     A.U. after   11 cycles
            NFock= 11  Conv=0.91D-08     -V/T= 2.0038
 ExpMin= 1.83D-01 ExpMax= 1.72D+02 ExpMxC= 1.72D+02 IAcc=3 IRadAn=         5 AccDes= 0.00D+00
 HarFok:  IExCor=  205 AccDes= 0.00D+00 IRadAn=         5 IDoV=-2 UseB2=F ITyADJ=14
 ICtDFT= 12500011 ScaDFX=  1.000000  1.000000  1.000000  1.000000
 Range of M.O.s used for correlation:     8    79
 NBasis=    79 NAE=    25 NBE=    25 NFC=     7 NFV=     0
 NROrb=     72 NOA=    18 NOB=    18 NVA=    54 NVB=    54
 Fully direct method using O(ONN) memory.
 JobTyp=1 Pass  1:  I=   8 to  25 NPSUse=  8 ParTrn=T ParDer=T DoDerP=T.
 Spin components of T(2) and E(2):
     alpha-alpha T2 =       0.2997001875D-01 E2=     -0.7319468880D-01
     alpha-beta  T2 =       0.1961340412D+00 E2=     -0.4736075465D+00
     beta-beta   T2 =       0.2997001875D-01 E2=     -0.7319468880D-01
 ANorm=    0.1120747107D+01
 E2 =    -0.6199969241D+00 EUMP2 =    -0.26878937174311D+03
          IDoAtm=111111111111111
          Differentiating once with respect to electric field.
                with respect to dipole field.
          Differentiating once with respect to nuclear coordinates.
 Keep R1 ints in memory in symmetry-blocked form, NReq=7504047.
          There are     1 degrees of freedom in the 1st order CPHF.  IDoFFX=0 NUNeed=     1.
 LinEq1:  Iter=  0 NonCon=     1 RMS=5.07D-03 Max=6.38D-02 NDo=     1
 AX will form     1 AO Fock derivatives at one time.
 LinEq1:  Iter=  1 NonCon=     1 RMS=1.40D-03 Max=1.44D-02 NDo=     1
 LinEq1:  Iter=  2 NonCon=     1 RMS=2.85D-04 Max=5.83D-03 NDo=     1
 LinEq1:  Iter=  3 NonCon=     1 RMS=7.95D-05 Max=1.96D-03 NDo=     1
 LinEq1:  Iter=  4 NonCon=     1 RMS=3.69D-05 Max=7.68D-04 NDo=     1
 LinEq1:  Iter=  5 NonCon=     1 RMS=6.71D-06 Max=6.46D-05 NDo=     1
 LinEq1:  Iter=  6 NonCon=     1 RMS=1.37D-06 Max=1.06D-05 NDo=     1
 LinEq1:  Iter=  7 NonCon=     1 RMS=4.02D-07 Max=4.17D-06 NDo=     1
 LinEq1:  Iter=  8 NonCon=     1 RMS=5.70D-08 Max=9.66D-07 NDo=     1
 LinEq1:  Iter=  9 NonCon=     1 RMS=8.30D-09 Max=8.75D-08 NDo=     1
 LinEq1:  Iter= 10 NonCon=     1 RMS=1.34D-09 Max=1.09D-08 NDo=     1
 LinEq1:  Iter= 11 NonCon=     1 RMS=2.71D-10 Max=2.36D-09 NDo=     1
 LinEq1:  Iter= 12 NonCon=     0 RMS=9.27D-11 Max=8.36D-10 NDo=     1
 Linear equations converged to 1.000D-10 1.000D-09 after    12 iterations.
 End of Minotr F.D. properties file   721 does not exist.
 End of Minotr F.D. properties file   722 does not exist.
 End of Minotr F.D. properties file   788 does not exist.
 Calling FoFJK, ICntrl=  10002127 FMM=F ISym2X=1 I1Cent= 0 IOpClX= 0 NMat=1 NMatS=1 NMatT=0.
 ***** Axes restored to original set *****
 -------------------------------------------------------------------
 Center     Atomic                   Forces (Hartrees/Bohr)
 Number     Number              X              Y              Z
 -------------------------------------------------------------------
      1        6          -0.001221070    0.002876763   -0.003042258
      2        6           0.000792246   -0.002760221    0.002459188
      3        6          -0.000274413    0.000461256    0.000511035
      4        6           0.000447549   -0.000526222   -0.000268340
      5        6          -0.000155604   -0.001463781    0.003482414
      6        6          -0.000293641    0.001608254   -0.004043440
      7        6          -0.000939107   -0.004431285    0.004744562
      8        1           0.000285714    0.000402999   -0.002156468
      9        1           0.000310469    0.000173323    0.000062803
     10        1          -0.000645163   -0.000193479   -0.000615872
     11        1          -0.000786049   -0.000000778   -0.000463782
     12        1           0.000307691    0.000177122    0.000065802
     13        1          -0.000736278    0.001800848   -0.001053203
     14        1           0.000275745   -0.000628297    0.001051492
     15        1           0.002631911    0.002503498   -0.000733933
 -------------------------------------------------------------------
 Cartesian Forces:  Max     0.004744562 RMS     0.001749825

 GradGradGradGradGradGradGradGradGradGradGradGradGradGradGradGradGradGrad
 Berny optimization.
 Using GEDIIS/GDIIS optimizer.
 FormGI is forming the generalized inverse of G from B-inverse, IUseBI=4.
 Internal  Forces:  Max     0.001978562 RMS     0.000821209
 Search for a local minimum.
 Step number   2 out of a maximum of   81
 All quantities printed in internal units (Hartrees-Bohrs-Radians)
 Mixed Optimization -- En-DIIS/RFO-DIIS
 Update second derivatives using D2CorX and points    1    2
 DE= -4.89D-03 DEPred=-4.74D-03 R= 1.03D+00
 TightC=F SS=  1.41D+00  RLast= 3.13D-01 DXNew= 5.0454D-01 9.3815D-01
 Trust test= 1.03D+00 RLast= 3.13D-01 DXMaxT set to 5.05D-01
 ITU=  1  0
 Use linear search instead of GDIIS.
     Eigenvalues ---    0.00879   0.01488   0.01661   0.01878   0.01965
     Eigenvalues ---    0.02157   0.02268   0.02321   0.02608   0.02635
     Eigenvalues ---    0.04597   0.06665   0.10528   0.11937   0.15988
     Eigenvalues ---    0.15994   0.15995   0.15996   0.15997   0.16169
     Eigenvalues ---    0.20729   0.20794   0.21585   0.21839   0.31227
     Eigenvalues ---    0.31795   0.33845   0.34287   0.34896   0.34904
     Eigenvalues ---    0.34906   0.34910   0.34913   0.34971   0.37996
     Eigenvalues ---    0.41977   0.54169   0.55759   0.60547
 RFO step:  Lambda=-2.44012534D-03 EMin= 8.78943599D-03
 Quartic linear search produced a step of  0.18589.
 Iteration  1 RMS(Cart)=  0.05660207 RMS(Int)=  0.00215161
 Iteration  2 RMS(Cart)=  0.00252463 RMS(Int)=  0.00068104
 Iteration  3 RMS(Cart)=  0.00000284 RMS(Int)=  0.00068103
 Iteration  4 RMS(Cart)=  0.00000000 RMS(Int)=  0.00068103
 ClnCor:  largest displacement from symmetrization is 8.65D-09 for atom     4.
 Variable       Old X    -DE/DX   Delta X   Delta X   Delta X     New X
                                 (Linear)    (Quad)   (Total)
    R1        2.55839  -0.00150   0.00493  -0.00363   0.00115   2.55955
    R2        2.88498   0.00093   0.00954   0.00025   0.00919   2.89417
    R3        2.06276  -0.00068   0.00080  -0.00228  -0.00147   2.06129
    R4        2.77963  -0.00120   0.01077  -0.00276   0.00844   2.78807
    R5        2.06036   0.00006   0.00040   0.00017   0.00057   2.06092
    R6        2.56725  -0.00051   0.00695   0.00016   0.00782   2.57507
    R7        2.06175  -0.00073   0.00067  -0.00242  -0.00175   2.06000
    R8        2.77963  -0.00120   0.01077  -0.00276   0.00844   2.78807
    R9        2.06175  -0.00073   0.00067  -0.00242  -0.00175   2.06000
   R10        2.55839  -0.00150   0.00493  -0.00363   0.00115   2.55955
   R11        2.06036   0.00006   0.00040   0.00017   0.00057   2.06092
   R12        2.88498   0.00093   0.00954   0.00025   0.00919   2.89417
   R13        2.06276  -0.00068   0.00080  -0.00228  -0.00147   2.06129
   R14        2.07847  -0.00034   0.00046  -0.00119  -0.00073   2.07774
   R15        2.08681  -0.00132   0.00299  -0.00460  -0.00161   2.08520
    A1        2.24597  -0.00037  -0.00207  -0.01591  -0.02024   2.22574
    A2        2.04455  -0.00003   0.00151   0.00627   0.00879   2.05334
    A3        1.99240   0.00039   0.00051   0.00924   0.01075   2.00314
    A4        2.23528   0.00096   0.00334  -0.00271  -0.00062   2.23466
    A5        2.03901  -0.00013  -0.00423   0.00430   0.00048   2.03949
    A6        2.00829  -0.00082   0.00117  -0.00088   0.00070   2.00899
    A7        2.21788  -0.00044  -0.00223  -0.00490  -0.00731   2.21057
    A8        2.01394  -0.00002   0.00297   0.00033   0.00319   2.01713
    A9        2.05094   0.00044  -0.00078   0.00381   0.00293   2.05387
   A10        2.21788  -0.00044  -0.00223  -0.00490  -0.00731   2.21057
   A11        2.05094   0.00044  -0.00078   0.00381   0.00293   2.05387
   A12        2.01394  -0.00002   0.00297   0.00033   0.00319   2.01713
   A13        2.23528   0.00096   0.00334  -0.00271  -0.00062   2.23466
   A14        2.00829  -0.00082   0.00117  -0.00088   0.00070   2.00899
   A15        2.03901  -0.00013  -0.00423   0.00430   0.00048   2.03949
   A16        2.24597  -0.00037  -0.00207  -0.01591  -0.02024   2.22574
   A17        2.04455  -0.00003   0.00151   0.00627   0.00879   2.05334
   A18        1.99240   0.00039   0.00051   0.00924   0.01075   2.00314
   A19        2.02428  -0.00139  -0.00490  -0.02674  -0.03461   1.98967
   A20        1.85691   0.00012   0.00025   0.00904   0.01025   1.86717
   A21        1.93665   0.00036   0.00323  -0.00133   0.00242   1.93907
   A22        1.85691   0.00012   0.00025   0.00904   0.01025   1.86717
   A23        1.93665   0.00036   0.00323  -0.00133   0.00242   1.93907
   A24        1.83921   0.00061  -0.00220   0.01686   0.01428   1.85349
    D1       -0.00892   0.00083   0.01127   0.04863   0.05983   0.05091
    D2       -3.11088   0.00052   0.00497   0.02550   0.03033  -3.08055
    D3        3.10611   0.00042   0.00743   0.02886   0.03642  -3.14065
    D4        0.00415   0.00012   0.00114   0.00573   0.00693   0.01108
    D5       -0.64955  -0.00161  -0.01713  -0.11802  -0.13463  -0.78418
    D6       -2.71036  -0.00102  -0.01465  -0.11996  -0.13415  -2.84452
    D7        1.58095  -0.00198  -0.01379  -0.14418  -0.15808   1.42288
    D8        2.51795  -0.00121  -0.01339  -0.09871  -0.11180   2.40615
    D9        0.45713  -0.00062  -0.01091  -0.10066  -0.11132   0.34582
   D10       -1.53473  -0.00158  -0.01005  -0.12487  -0.13524  -1.66997
   D11        0.42481   0.00022  -0.00344   0.01430   0.01059   0.43540
   D12       -2.74914  -0.00033  -0.00496  -0.01474  -0.01985  -2.76899
   D13       -2.75582   0.00053   0.00256   0.03719   0.03964  -2.71618
   D14        0.35341  -0.00002   0.00104   0.00815   0.00921   0.36262
   D15       -0.00000   0.00000  -0.00000  -0.00000   0.00000   0.00000
   D16        3.10863  -0.00057  -0.00150  -0.02963  -0.03100   3.07763
   D17       -3.10863   0.00057   0.00150   0.02963   0.03100  -3.07763
   D18       -0.00000   0.00000   0.00000   0.00000   0.00000   0.00000
   D19       -0.42481  -0.00022   0.00344  -0.01430  -0.01059  -0.43540
   D20        2.75582  -0.00053  -0.00256  -0.03719  -0.03964   2.71618
   D21        2.74914   0.00033   0.00496   0.01474   0.01985   2.76899
   D22       -0.35341   0.00002  -0.00104  -0.00815  -0.00921  -0.36262
   D23        0.00892  -0.00083  -0.01127  -0.04863  -0.05983  -0.05091
   D24       -3.10611  -0.00042  -0.00743  -0.02886  -0.03642   3.14065
   D25        3.11088  -0.00052  -0.00497  -0.02550  -0.03033   3.08055
   D26       -0.00415  -0.00012  -0.00114  -0.00573  -0.00693  -0.01108
   D27        0.64955   0.00161   0.01713   0.11802   0.13463   0.78418
   D28        2.71036   0.00102   0.01465   0.11996   0.13415   2.84452
   D29       -1.58095   0.00198   0.01379   0.14418   0.15808  -1.42288
   D30       -2.51795   0.00121   0.01339   0.09871   0.11180  -2.40615
   D31       -0.45713   0.00062   0.01091   0.10066   0.11132  -0.34582
   D32        1.53473   0.00158   0.01005   0.12487   0.13524   1.66997
         Item               Value     Threshold  Converged?
 Maximum Force            0.001979     0.000450     NO 
 RMS     Force            0.000821     0.000300     NO 
 Maximum Displacement     0.208805     0.001800     NO 
 RMS     Displacement     0.057333     0.001200     NO 
 Predicted change in Energy=-1.398514D-03
 GradGradGradGradGradGradGradGradGradGradGradGradGradGradGradGradGradGrad

                          Input orientation:                          
 ---------------------------------------------------------------------
 Center     Atomic      Atomic             Coordinates (Angstroms)
 Number     Number       Type             X           Y           Z
 ---------------------------------------------------------------------
      1          6           0       -1.444639   -0.238967   -1.299788
      2          6           0       -0.552540    0.778784   -1.246071
      3          6           0        0.905833    0.721688   -1.462029
      4          6           0        1.584109   -0.206037   -2.194244
      5          6           0        1.002608   -1.348298   -2.924890
      6          6           0       -0.165962   -1.987903   -2.680151
      7          6           0       -1.153197   -1.723265   -1.539576
      8          1           0       -2.492918   -0.003680   -1.111204
      9          1           0       -0.946430    1.767000   -1.005912
     10          1           0        1.477908    1.543312   -1.030756
     11          1           0        2.660269   -0.073886   -2.307143
     12          1           0        1.602134   -1.718849   -3.757149
     13          1           0       -0.434452   -2.819188   -3.333368
     14          1           0       -2.104838   -2.195746   -1.822475
     15          1           0       -0.827733   -2.219525   -0.609321
 ---------------------------------------------------------------------
                    Distance matrix (angstroms):
                    1          2          3          4          5
     1  C    0.000000
     2  C    1.354454   0.000000
     3  C    2.544386   1.475381   0.000000
     4  C    3.158235   2.536567   1.362670   0.000000
     5  C    3.140157   3.124323   2.536567   1.475381   0.000000
     6  C    2.568889   3.140157   3.158235   2.544386   1.354454
     7  C    1.531528   2.589824   3.197408   3.197408   2.589824
     8  H    1.090785   2.096547   3.492956   4.223277   4.161268
     9  H    2.087697   1.090594   2.175224   3.421788   4.145637
    10  H    3.433683   2.180271   1.090107   2.103617   3.489278
    11  H    4.229928   3.489278   2.103617   1.090107   2.180271
    12  H    4.184675   4.145637   3.421788   2.175224   1.090594
    13  H    3.437072   4.161268   4.223277   3.492956   2.096547
    14  H    2.130269   3.404365   4.207788   4.207788   3.404365
    15  H    2.186304   3.077505   3.518962   3.518962   3.077505
                    6          7          8          9         10
     6  C    0.000000
     7  C    1.531528   0.000000
     8  H    3.437072   2.221560   0.000000
     9  H    4.184675   3.536877   2.353299   0.000000
    10  H    4.229928   4.225179   4.262290   2.434763   0.000000
    11  H    3.433683   4.225179   5.290609   4.253275   2.375388
    12  H    2.087697   3.536877   5.168393   5.120120   4.253275
    13  H    1.090785   2.221560   4.135502   5.168393   5.290609
    14  H    2.130269   1.099495   2.337021   4.208567   5.238649
    15  H    2.186304   1.103438   2.816859   4.007961   4.433117
                   11         12         13         14         15
    11  H    0.000000
    12  H    2.434763   0.000000
    13  H    4.262290   2.353299   0.000000
    14  H    5.238649   4.208567   2.337021   0.000000
    15  H    4.433117   4.007961   2.816859   1.761620   0.000000
 Stoichiometry    C7H8
 Framework group  CS[SG(CH2),X(C6H6)]
 Deg. of freedom    21
 Full point group                 CS      NOp   2
 Largest Abelian subgroup         CS      NOp   2
 Largest concise Abelian subgroup CS      NOp   2
                         Standard orientation:                         
 ---------------------------------------------------------------------
 Center     Atomic      Atomic             Coordinates (Angstroms)
 Number     Number       Type             X           Y           Z
 ---------------------------------------------------------------------
      1          6           0       -0.186591    0.943496   -1.284445
      2          6           0       -0.186591   -0.382180   -1.562162
      3          6           0        0.215126   -1.495516   -0.681335
      4          6           0        0.215126   -1.495516    0.681335
      5          6           0       -0.186591   -0.382180    1.562162
      6          6           0       -0.186591    0.943496    1.284445
      7          6           0        0.290760    1.627540   -0.000000
      8          1           0       -0.521474    1.624743   -2.067751
      9          1           0       -0.513679   -0.676472   -2.560060
     10          1           0        0.484064   -2.422665   -1.187694
     11          1           0        0.484064   -2.422665    1.187694
     12          1           0       -0.513679   -0.676472    2.560060
     13          1           0       -0.521474    1.624743    2.067751
     14          1           0       -0.132901    2.642133   -0.000000
     15          1           0        1.387178    1.751816   -0.000000
 ---------------------------------------------------------------------
 Rotational constants (GHZ):           3.5836600           3.4657845           1.8529055
 Standard basis: 3-21G* (6D, 7F)
 There are    44 symmetry adapted cartesian basis functions of A'  symmetry.
 There are    35 symmetry adapted cartesian basis functions of A"  symmetry.
 There are    44 symmetry adapted basis functions of A'  symmetry.
 There are    35 symmetry adapted basis functions of A"  symmetry.
    79 basis functions,   129 primitive gaussians,    79 cartesian basis functions
    25 alpha electrons       25 beta electrons
       nuclear repulsion energy       265.6822303150 Hartrees.
 NAtoms=   15 NActive=   15 NUniq=    9 SFac= 2.78D+00 NAtFMM=   60 NAOKFM=F Big=F
 Integral buffers will be    131072 words long.
 Raffenetti 1 integral format.
 Two-electron integral symmetry is turned on.
 One-electron integrals computed using PRISM.
 NBasis=    79 RedAO= T EigKep=  5.07D-03  NBF=    44    35
 NBsUse=    79 1.00D-06 EigRej= -1.00D+00 NBFU=    44    35
 Initial guess from the checkpoint file:  "Cycloheptatriene.chk"
 B after Tr=     0.000000   -0.000000    0.000000
         Rot=    0.999959   -0.000000   -0.000000    0.009015 Ang=   1.03 deg.
 Initial guess orbital symmetries:
       Occupied  (A") (A') (A') (A") (A') (A") (A') (A') (A") (A')
                 (A') (A") (A') (A") (A') (A") (A') (A') (A') (A")
                 (A') (A") (A') (A") (A')
       Virtual   (A") (A') (A') (A") (A') (A") (A') (A') (A") (A")
                 (A') (A') (A") (A') (A") (A') (A") (A") (A') (A')
                 (A') (A") (A') (A") (A') (A") (A') (A") (A') (A")
                 (A') (A") (A') (A') (A") (A') (A") (A') (A") (A')
                 (A") (A') (A") (A') (A') (A") (A') (A") (A") (A')
                 (A') (A") (A") (A')
 ExpMin= 1.83D-01 ExpMax= 1.72D+02 ExpMxC= 1.72D+02 IAcc=3 IRadAn=         5 AccDes= 0.00D+00
 Harris functional with IExCor=  205 and IRadAn=       5 diagonalized for initial guess.
 HarFok:  IExCor=  205 AccDes= 0.00D+00 IRadAn=         5 IDoV= 1 UseB2=F ITyADJ=14
 ICtDFT=  3500011 ScaDFX=  1.000000  1.000000  1.000000  1.000000
 FoFCou: FMM=F IPFlag=           0 FMFlag=      100000 FMFlg1=           0
         NFxFlg=           0 DoJE=T BraDBF=F KetDBF=T FulRan=T
         wScrn=  0.000000 ICntrl=       500 IOpCl=  0 I1Cent=   200000004 NGrid=           0
         NMat0=    1 NMatS0=      1 NMatT0=    0 NMatD0=    1 NMtDS0=    0 NMtDT0=    0
 Petite list used in FoFCou.
 Keep R1 ints in memory in symmetry-blocked form, NReq=7502338.
 Requested convergence on RMS density matrix=1.00D-08 within 128 cycles.
 Requested convergence on MAX density matrix=1.00D-06.
 Requested convergence on             energy=1.00D-06.
 No special actions if energy rises.
 SCF Done:  E(RHF) =  -268.170787779     A.U. after   11 cycles
            NFock= 11  Conv=0.58D-08     -V/T= 2.0040
 ExpMin= 1.83D-01 ExpMax= 1.72D+02 ExpMxC= 1.72D+02 IAcc=3 IRadAn=         5 AccDes= 0.00D+00
 HarFok:  IExCor=  205 AccDes= 0.00D+00 IRadAn=         5 IDoV=-2 UseB2=F ITyADJ=14
 ICtDFT= 12500011 ScaDFX=  1.000000  1.000000  1.000000  1.000000
 Range of M.O.s used for correlation:     8    79
 NBasis=    79 NAE=    25 NBE=    25 NFC=     7 NFV=     0
 NROrb=     72 NOA=    18 NOB=    18 NVA=    54 NVB=    54
 Fully direct method using O(ONN) memory.
 JobTyp=1 Pass  1:  I=   8 to  25 NPSUse=  8 ParTrn=T ParDer=T DoDerP=T.
 Spin components of T(2) and E(2):
     alpha-alpha T2 =       0.3019630873D-01 E2=     -0.7343601942D-01
     alpha-beta  T2 =       0.1966496437D+00 E2=     -0.4740958843D+00
     beta-beta   T2 =       0.3019630873D-01 E2=     -0.7343601942D-01
 ANorm=    0.1121178960D+01
 E2 =    -0.6209679231D+00 EUMP2 =    -0.26879175570183D+03
          IDoAtm=111111111111111
          Differentiating once with respect to electric field.
                with respect to dipole field.
          Differentiating once with respect to nuclear coordinates.
 Keep R1 ints in memory in symmetry-blocked form, NReq=7504047.
          There are     1 degrees of freedom in the 1st order CPHF.  IDoFFX=0 NUNeed=     1.
 LinEq1:  Iter=  0 NonCon=     1 RMS=5.09D-03 Max=6.16D-02 NDo=     1
 AX will form     1 AO Fock derivatives at one time.
 LinEq1:  Iter=  1 NonCon=     1 RMS=1.42D-03 Max=1.25D-02 NDo=     1
 LinEq1:  Iter=  2 NonCon=     1 RMS=2.98D-04 Max=6.19D-03 NDo=     1
 LinEq1:  Iter=  3 NonCon=     1 RMS=8.47D-05 Max=2.11D-03 NDo=     1
 LinEq1:  Iter=  4 NonCon=     1 RMS=3.89D-05 Max=7.87D-04 NDo=     1
 LinEq1:  Iter=  5 NonCon=     1 RMS=7.21D-06 Max=6.49D-05 NDo=     1
 LinEq1:  Iter=  6 NonCon=     1 RMS=1.44D-06 Max=1.09D-05 NDo=     1
 LinEq1:  Iter=  7 NonCon=     1 RMS=4.44D-07 Max=3.68D-06 NDo=     1
 LinEq1:  Iter=  8 NonCon=     1 RMS=6.50D-08 Max=9.12D-07 NDo=     1
 LinEq1:  Iter=  9 NonCon=     1 RMS=1.04D-08 Max=7.45D-08 NDo=     1
 LinEq1:  Iter= 10 NonCon=     1 RMS=2.30D-09 Max=2.05D-08 NDo=     1
 LinEq1:  Iter= 11 NonCon=     1 RMS=7.66D-10 Max=7.04D-09 NDo=     1
 LinEq1:  Iter= 12 NonCon=     1 RMS=1.59D-10 Max=2.16D-09 NDo=     1
 LinEq1:  Iter= 13 NonCon=     0 RMS=2.19D-11 Max=3.37D-10 NDo=     1
 Linear equations converged to 1.000D-10 1.000D-09 after    13 iterations.
 End of Minotr F.D. properties file   721 does not exist.
 End of Minotr F.D. properties file   722 does not exist.
 End of Minotr F.D. properties file   788 does not exist.
 Calling FoFJK, ICntrl=  10002127 FMM=F ISym2X=1 I1Cent= 0 IOpClX= 0 NMat=1 NMatS=1 NMatT=0.
 ***** Axes restored to original set *****
 -------------------------------------------------------------------
 Center     Atomic                   Forces (Hartrees/Bohr)
 Number     Number              X              Y              Z
 -------------------------------------------------------------------
      1        6          -0.000339047   -0.000703123   -0.002066820
      2        6           0.003419872   -0.001601608    0.000971118
      3        6          -0.003478367   -0.001989649   -0.000418529
      4        6          -0.003327147   -0.002196483   -0.000581774
      5        6           0.001159233    0.001490426    0.003411532
      6        6          -0.001753184    0.001231090   -0.000540225
      7        6           0.000906631   -0.001389646    0.002600541
      8        1           0.000323238    0.000607678   -0.001972451
      9        1           0.000629545    0.000221298   -0.000260814
     10        1          -0.000295881   -0.000132489   -0.000019254
     11        1          -0.000249361   -0.000196118   -0.000069474
     12        1           0.000328063    0.000633656    0.000064643
     13        1          -0.000480189    0.001706581   -0.001105132
     14        1           0.001043865   -0.000263522    0.001300854
     15        1           0.002112729    0.002581909   -0.001314216
 -------------------------------------------------------------------
 Cartesian Forces:  Max     0.003478367 RMS     0.001547945

 GradGradGradGradGradGradGradGradGradGradGradGradGradGradGradGradGradGrad
 Berny optimization.
 Using GEDIIS/GDIIS optimizer.
 FormGI is forming the generalized inverse of G from B-inverse, IUseBI=4.
 Internal  Forces:  Max     0.005247524 RMS     0.001268012
 Search for a local minimum.
 Step number   3 out of a maximum of   81
 All quantities printed in internal units (Hartrees-Bohrs-Radians)
 Mixed Optimization -- RFO/linear search
 Update second derivatives using D2CorX and points    2    3
 DE= -2.38D-03 DEPred=-1.40D-03 R= 1.70D+00
 TightC=F SS=  1.41D+00  RLast= 4.80D-01 DXNew= 8.4853D-01 1.4386D+00
 Trust test= 1.70D+00 RLast= 4.80D-01 DXMaxT set to 8.49D-01
 ITU=  1  1  0
 Use linear search instead of GDIIS.
     Eigenvalues ---    0.00064   0.01487   0.01739   0.01877   0.02095
     Eigenvalues ---    0.02151   0.02275   0.02387   0.02640   0.02872
     Eigenvalues ---    0.04899   0.06799   0.10221   0.11586   0.15969
     Eigenvalues ---    0.15982   0.15985   0.16000   0.16040   0.16149
     Eigenvalues ---    0.20343   0.20393   0.21882   0.22808   0.31668
     Eigenvalues ---    0.31907   0.33924   0.34259   0.34896   0.34902
     Eigenvalues ---    0.34910   0.34913   0.34915   0.35116   0.37906
     Eigenvalues ---    0.51899   0.54061   0.57169   0.69026
 RFO step:  Lambda=-1.53259286D-03 EMin= 6.37631966D-04
 Quartic linear search produced a step of  2.00000.
 Iteration  1 RMS(Cart)=  0.10213938 RMS(Int)=  0.07125013
 Iteration  2 RMS(Cart)=  0.08355150 RMS(Int)=  0.00871113
 Iteration  3 RMS(Cart)=  0.00557263 RMS(Int)=  0.00731102
 Iteration  4 RMS(Cart)=  0.00003203 RMS(Int)=  0.00731096
 Iteration  5 RMS(Cart)=  0.00000019 RMS(Int)=  0.00731096
 ClnCor:  largest displacement from symmetrization is 1.17D-08 for atom    11.
 Variable       Old X    -DE/DX   Delta X   Delta X   Delta X     New X
                                 (Linear)    (Quad)   (Total)
    R1        2.55955  -0.00187   0.00231  -0.00123  -0.00049   2.55906
    R2        2.89417  -0.00179   0.01837  -0.00448   0.00842   2.90259
    R3        2.06129  -0.00052  -0.00295  -0.00149  -0.00444   2.05685
    R4        2.78807  -0.00525   0.01687  -0.01388   0.00694   2.79501
    R5        2.06092  -0.00008   0.00114  -0.00016   0.00098   2.06190
    R6        2.57507  -0.00279   0.01564  -0.00149   0.02098   2.59605
    R7        2.06000  -0.00026  -0.00350  -0.00014  -0.00363   2.05637
    R8        2.78807  -0.00525   0.01687  -0.01388   0.00694   2.79501
    R9        2.06000  -0.00026  -0.00350  -0.00014  -0.00363   2.05637
   R10        2.55955  -0.00187   0.00231  -0.00123  -0.00049   2.55906
   R11        2.06092  -0.00008   0.00114  -0.00016   0.00098   2.06190
   R12        2.89417  -0.00179   0.01837  -0.00448   0.00842   2.90259
   R13        2.06129  -0.00052  -0.00295  -0.00149  -0.00444   2.05685
   R14        2.07774  -0.00112  -0.00145  -0.00568  -0.00713   2.07061
   R15        2.08520  -0.00165  -0.00322  -0.00527  -0.00850   2.07670
    A1        2.22574  -0.00088  -0.04047  -0.02388  -0.08596   2.13978
    A2        2.05334  -0.00006   0.01759   0.00683   0.03453   2.08788
    A3        2.00314   0.00093   0.02149   0.01669   0.04820   2.05134
    A4        2.23466  -0.00018  -0.00123  -0.01123  -0.02635   2.20831
    A5        2.03949   0.00079   0.00096   0.01071   0.01752   2.05701
    A6        2.00899  -0.00061   0.00141   0.00049   0.00800   2.01699
    A7        2.21057   0.00047  -0.01461  -0.00513  -0.02192   2.18866
    A8        2.01713  -0.00042   0.00638   0.00223   0.00798   2.02511
    A9        2.05387  -0.00007   0.00586   0.00203   0.00774   2.06162
   A10        2.21057   0.00047  -0.01461  -0.00513  -0.02192   2.18866
   A11        2.05387  -0.00007   0.00586   0.00203   0.00774   2.06162
   A12        2.01713  -0.00042   0.00638   0.00223   0.00798   2.02511
   A13        2.23466  -0.00018  -0.00123  -0.01123  -0.02635   2.20831
   A14        2.00899  -0.00061   0.00141   0.00049   0.00800   2.01699
   A15        2.03949   0.00079   0.00096   0.01071   0.01752   2.05701
   A16        2.22574  -0.00088  -0.04047  -0.02388  -0.08596   2.13978
   A17        2.05334  -0.00006   0.01759   0.00683   0.03453   2.08788
   A18        2.00314   0.00093   0.02149   0.01669   0.04820   2.05134
   A19        1.98967  -0.00047  -0.06921  -0.02591  -0.12633   1.86334
   A20        1.86717  -0.00015   0.02051   0.00325   0.03471   1.90188
   A21        1.93907   0.00012   0.00483   0.00476   0.01368   1.95275
   A22        1.86717  -0.00015   0.02051   0.00325   0.03471   1.90188
   A23        1.93907   0.00012   0.00483   0.00476   0.01368   1.95275
   A24        1.85349   0.00059   0.02856   0.01261   0.03678   1.89027
    D1        0.05091   0.00033   0.11965   0.01396   0.12999   0.18089
    D2       -3.08055   0.00043   0.06066   0.01735   0.07283  -3.00772
    D3       -3.14065   0.00003   0.07285   0.00537   0.07924  -3.06141
    D4        0.01108   0.00013   0.01386   0.00876   0.02209   0.03317
    D5       -0.78418  -0.00164  -0.26927  -0.10957  -0.37108  -1.15526
    D6       -2.84452  -0.00107  -0.26831  -0.10066  -0.36238   3.07629
    D7        1.42288  -0.00176  -0.31615  -0.12005  -0.43634   0.98654
    D8        2.40615  -0.00132  -0.22359  -0.10099  -0.32111   2.08504
    D9        0.34582  -0.00076  -0.22263  -0.09208  -0.31240   0.03341
   D10       -1.66997  -0.00144  -0.27048  -0.11147  -0.38636  -2.05634
   D11        0.43540   0.00082   0.02117   0.05065   0.06608   0.50147
   D12       -2.76899   0.00033  -0.03970   0.03382  -0.00822  -2.77721
   D13       -2.71618   0.00072   0.07928   0.04737   0.12215  -2.59404
   D14        0.36262   0.00023   0.01841   0.03054   0.04785   0.41047
   D15        0.00000  -0.00000   0.00000   0.00000   0.00000   0.00000
   D16        3.07763  -0.00051  -0.06200  -0.01715  -0.07573   3.00191
   D17       -3.07763   0.00051   0.06200   0.01715   0.07573  -3.00191
   D18        0.00000  -0.00000   0.00000  -0.00000   0.00000   0.00000
   D19       -0.43540  -0.00082  -0.02117  -0.05065  -0.06608  -0.50147
   D20        2.71618  -0.00072  -0.07928  -0.04737  -0.12215   2.59404
   D21        2.76899  -0.00033   0.03970  -0.03382   0.00822   2.77721
   D22       -0.36262  -0.00023  -0.01841  -0.03054  -0.04785  -0.41047
   D23       -0.05091  -0.00033  -0.11965  -0.01396  -0.12999  -0.18089
   D24        3.14065  -0.00003  -0.07285  -0.00537  -0.07924   3.06141
   D25        3.08055  -0.00043  -0.06066  -0.01735  -0.07283   3.00772
   D26       -0.01108  -0.00013  -0.01386  -0.00876  -0.02209  -0.03317
   D27        0.78418   0.00164   0.26927   0.10957   0.37108   1.15526
   D28        2.84452   0.00107   0.26831   0.10066   0.36238  -3.07629
   D29       -1.42288   0.00176   0.31615   0.12005   0.43634  -0.98654
   D30       -2.40615   0.00132   0.22359   0.10099   0.32111  -2.08504
   D31       -0.34582   0.00076   0.22263   0.09208   0.31240  -0.03341
   D32        1.66997   0.00144   0.27048   0.11147   0.38636   2.05634
         Item               Value     Threshold  Converged?
 Maximum Force            0.005248     0.000450     NO 
 RMS     Force            0.001268     0.000300     NO 
 Maximum Displacement     0.634770     0.001800     NO 
 RMS     Displacement     0.181779     0.001200     NO 
 Predicted change in Energy=-5.520981D-03
 GradGradGradGradGradGradGradGradGradGradGradGradGradGradGradGradGradGrad

                          Input orientation:                          
 ---------------------------------------------------------------------
 Center     Atomic      Atomic             Coordinates (Angstroms)
 Number     Number       Type             X           Y           Z
 ---------------------------------------------------------------------
      1          6           0       -1.476466   -0.243992   -1.419006
      2          6           0       -0.579605    0.761582   -1.283721
      3          6           0        0.892505    0.645409   -1.367399
      4          6           0        1.576306   -0.289874   -2.105579
      5          6           0        0.957155   -1.340351   -2.942689
      6          6           0       -0.249196   -1.922615   -2.743873
      7          6           0       -1.062469   -1.722662   -1.456296
      8          1           0       -2.541523   -0.019735   -1.411185
      9          1           0       -0.964672    1.772073   -1.138282
     10          1           0        1.462067    1.445917   -0.899502
     11          1           0        2.656479   -0.187763   -2.188898
     12          1           0        1.525562   -1.633993   -3.826550
     13          1           0       -0.630320   -2.633819   -3.474374
     14          1           0       -1.963844   -2.343813   -1.504265
     15          1           0       -0.491827   -2.010926   -0.562457
 ---------------------------------------------------------------------
                    Distance matrix (angstroms):
                    1          2          3          4          5
     1  C    0.000000
     2  C    1.354194   0.000000
     3  C    2.530952   1.479055   0.000000
     4  C    3.129362   2.535539   1.373771   0.000000
     5  C    3.073455   3.087382   2.535539   1.479055   0.000000
     6  C    2.465611   3.073455   3.129362   2.530952   1.354194
     7  C    1.535984   2.536613   3.072064   3.072064   2.536613
     8  H    1.088438   2.115614   3.498124   4.184695   4.041073
     9  H    2.098871   1.091111   2.184255   3.412310   4.078785
    10  H    3.429381   2.187319   1.088183   2.116753   3.491825
    11  H    4.204418   3.491825   2.116753   1.088183   2.187319
    12  H    4.091521   4.078785   3.412310   2.184255   1.091111
    13  H    3.263705   4.041073   4.184695   3.498124   2.115614
    14  H    2.157325   3.407085   4.136774   4.136774   3.407085
    15  H    2.196643   2.866134   3.101679   3.101679   2.866134
                    6          7          8          9         10
     6  C    0.000000
     7  C    1.535984   0.000000
     8  H    3.263705   2.256013   0.000000
     9  H    4.091521   3.510537   2.402396   0.000000
    10  H    4.204418   4.089400   4.294029   2.460174   0.000000
    11  H    3.429381   4.089400   5.258545   4.249410   2.399599
    12  H    2.098871   3.510537   4.998099   5.002933   4.249410
    13  H    1.088438   2.256013   3.839645   4.998099   5.258545
    14  H    2.157325   1.095722   2.396605   4.251212   5.144381
    15  H    2.196643   1.098943   2.981012   3.855676   3.985105
                   11         12         13         14         15
    11  H    0.000000
    12  H    2.460174   0.000000
    13  H    4.294029   2.402396   0.000000
    14  H    5.144381   4.251212   2.396605   0.000000
    15  H    3.985105   3.855676   2.981012   1.778946   0.000000
 Stoichiometry    C7H8
 Framework group  CS[SG(CH2),X(C6H6)]
 Deg. of freedom    21
 Full point group                 CS      NOp   2
 Largest Abelian subgroup         CS      NOp   2
 Largest concise Abelian subgroup CS      NOp   2
                         Standard orientation:                         
 ---------------------------------------------------------------------
 Center     Atomic      Atomic             Coordinates (Angstroms)
 Number     Number       Type             X           Y           Z
 ---------------------------------------------------------------------
      1          6           0       -0.244702    0.962118   -1.232805
      2          6           0       -0.244702   -0.355908   -1.543691
      3          6           0        0.233798   -1.462491   -0.686886
      4          6           0        0.233798   -1.462491    0.686886
      5          6           0       -0.244702   -0.355908    1.543691
      6          6           0       -0.244702    0.962118    1.232805
      7          6           0        0.480853    1.521588    0.000000
      8          1           0       -0.693764    1.676994   -1.919823
      9          1           0       -0.674145   -0.653846   -2.501466
     10          1           0        0.488346   -2.387838   -1.199799
     11          1           0        0.488346   -2.387838    1.199799
     12          1           0       -0.674145   -0.653846    2.501466
     13          1           0       -0.693764    1.676994    1.919823
     14          1           0        0.392728    2.613761    0.000000
     15          1           0        1.548568    1.261473    0.000000
 ---------------------------------------------------------------------
 Rotational constants (GHZ):           3.6172783           3.5398201           1.9518380
 Standard basis: 3-21G* (6D, 7F)
 There are    44 symmetry adapted cartesian basis functions of A'  symmetry.
 There are    35 symmetry adapted cartesian basis functions of A"  symmetry.
 There are    44 symmetry adapted basis functions of A'  symmetry.
 There are    35 symmetry adapted basis functions of A"  symmetry.
    79 basis functions,   129 primitive gaussians,    79 cartesian basis functions
    25 alpha electrons       25 beta electrons
       nuclear repulsion energy       267.6592016530 Hartrees.
 NAtoms=   15 NActive=   15 NUniq=    9 SFac= 2.78D+00 NAtFMM=   60 NAOKFM=F Big=F
 Integral buffers will be    131072 words long.
 Raffenetti 1 integral format.
 Two-electron integral symmetry is turned on.
 One-electron integrals computed using PRISM.
 NBasis=    79 RedAO= T EigKep=  4.90D-03  NBF=    44    35
 NBsUse=    79 1.00D-06 EigRej= -1.00D+00 NBFU=    44    35
 Initial guess from the checkpoint file:  "Cycloheptatriene.chk"
 B after Tr=    -0.000000   -0.000000    0.000000
         Rot=    0.999815   -0.000000   -0.000000    0.019252 Ang=   2.21 deg.
 Initial guess orbital symmetries:
       Occupied  (A") (A') (A") (A') (A') (A") (A') (A') (A") (A')
                 (A') (A") (A') (A") (A') (A") (A') (A') (A') (A")
                 (A') (A") (A') (A") (A')
       Virtual   (A") (A') (A') (A") (A') (A") (A') (A') (A") (A")
                 (A') (A') (A") (A") (A') (A') (A") (A") (A') (A')
                 (A') (A") (A') (A") (A') (A") (A') (A") (A') (A")
                 (A') (A") (A') (A') (A") (A") (A') (A') (A") (A')
                 (A") (A') (A") (A') (A') (A') (A") (A") (A") (A')
                 (A') (A") (A") (A')
 ExpMin= 1.83D-01 ExpMax= 1.72D+02 ExpMxC= 1.72D+02 IAcc=3 IRadAn=         5 AccDes= 0.00D+00
 Harris functional with IExCor=  205 and IRadAn=       5 diagonalized for initial guess.
 HarFok:  IExCor=  205 AccDes= 0.00D+00 IRadAn=         5 IDoV= 1 UseB2=F ITyADJ=14
 ICtDFT=  3500011 ScaDFX=  1.000000  1.000000  1.000000  1.000000
 FoFCou: FMM=F IPFlag=           0 FMFlag=      100000 FMFlg1=           0
         NFxFlg=           0 DoJE=T BraDBF=F KetDBF=T FulRan=T
         wScrn=  0.000000 ICntrl=       500 IOpCl=  0 I1Cent=   200000004 NGrid=           0
         NMat0=    1 NMatS0=      1 NMatT0=    0 NMatD0=    1 NMtDS0=    0 NMtDT0=    0
 Petite list used in FoFCou.
 Keep R1 ints in memory in symmetry-blocked form, NReq=7502338.
 Requested convergence on RMS density matrix=1.00D-08 within 128 cycles.
 Requested convergence on MAX density matrix=1.00D-06.
 Requested convergence on             energy=1.00D-06.
 No special actions if energy rises.
 SCF Done:  E(RHF) =  -268.173942225     A.U. after   14 cycles
            NFock= 14  Conv=0.26D-08     -V/T= 2.0041
 ExpMin= 1.83D-01 ExpMax= 1.72D+02 ExpMxC= 1.72D+02 IAcc=3 IRadAn=         5 AccDes= 0.00D+00
 HarFok:  IExCor=  205 AccDes= 0.00D+00 IRadAn=         5 IDoV=-2 UseB2=F ITyADJ=14
 ICtDFT= 12500011 ScaDFX=  1.000000  1.000000  1.000000  1.000000
 Range of M.O.s used for correlation:     8    79
 NBasis=    79 NAE=    25 NBE=    25 NFC=     7 NFV=     0
 NROrb=     72 NOA=    18 NOB=    18 NVA=    54 NVB=    54
 Fully direct method using O(ONN) memory.
 JobTyp=1 Pass  1:  I=   8 to  25 NPSUse=  8 ParTrn=T ParDer=T DoDerP=T.
 Spin components of T(2) and E(2):
     alpha-alpha T2 =       0.3090714653D-01 E2=     -0.7424123263D-01
     alpha-beta  T2 =       0.1971816709D+00 E2=     -0.4744804270D+00
     beta-beta   T2 =       0.3090714653D-01 E2=     -0.7424123263D-01
 ANorm=    0.1122049894D+01
 E2 =    -0.6229628923D+00 EUMP2 =    -0.26879690511700D+03
          IDoAtm=111111111111111
          Differentiating once with respect to electric field.
                with respect to dipole field.
          Differentiating once with respect to nuclear coordinates.
 Keep R1 ints in memory in symmetry-blocked form, NReq=7504047.
          There are     1 degrees of freedom in the 1st order CPHF.  IDoFFX=0 NUNeed=     1.
 LinEq1:  Iter=  0 NonCon=     1 RMS=5.11D-03 Max=6.43D-02 NDo=     1
 AX will form     1 AO Fock derivatives at one time.
 LinEq1:  Iter=  1 NonCon=     1 RMS=1.44D-03 Max=1.36D-02 NDo=     1
 LinEq1:  Iter=  2 NonCon=     1 RMS=3.39D-04 Max=7.43D-03 NDo=     1
 LinEq1:  Iter=  3 NonCon=     1 RMS=1.05D-04 Max=2.70D-03 NDo=     1
 LinEq1:  Iter=  4 NonCon=     1 RMS=4.66D-05 Max=8.89D-04 NDo=     1
 LinEq1:  Iter=  5 NonCon=     1 RMS=8.93D-06 Max=9.43D-05 NDo=     1
 LinEq1:  Iter=  6 NonCon=     1 RMS=1.75D-06 Max=2.00D-05 NDo=     1
 LinEq1:  Iter=  7 NonCon=     1 RMS=6.21D-07 Max=5.55D-06 NDo=     1
 LinEq1:  Iter=  8 NonCon=     1 RMS=1.11D-07 Max=9.28D-07 NDo=     1
 LinEq1:  Iter=  9 NonCon=     1 RMS=2.39D-08 Max=1.66D-07 NDo=     1
 LinEq1:  Iter= 10 NonCon=     1 RMS=7.97D-09 Max=8.97D-08 NDo=     1
 LinEq1:  Iter= 11 NonCon=     1 RMS=1.55D-09 Max=1.35D-08 NDo=     1
 LinEq1:  Iter= 12 NonCon=     1 RMS=2.37D-10 Max=3.67D-09 NDo=     1
 LinEq1:  Iter= 13 NonCon=     0 RMS=3.27D-11 Max=4.72D-10 NDo=     1
 Linear equations converged to 1.000D-10 1.000D-09 after    13 iterations.
 End of Minotr F.D. properties file   721 does not exist.
 End of Minotr F.D. properties file   722 does not exist.
 End of Minotr F.D. properties file   788 does not exist.
 Calling FoFJK, ICntrl=  10002127 FMM=F ISym2X=1 I1Cent= 0 IOpClX= 0 NMat=1 NMatS=1 NMatT=0.
 ***** Axes restored to original set *****
 -------------------------------------------------------------------
 Center     Atomic                   Forces (Hartrees/Bohr)
 Number     Number              X              Y              Z
 -------------------------------------------------------------------
      1        6           0.001179399   -0.008350770    0.006153516
      2        6           0.009871783    0.003726220   -0.001162121
      3        6          -0.009148487   -0.004783609   -0.002825102
      4        6          -0.009368573   -0.004482582   -0.002587513
      5        6           0.006883941    0.007812898    0.002063325
      6        6          -0.001773136   -0.004312383    0.009340848
      7        6          -0.002255601    0.005131401   -0.008590985
      8        1           0.000134094    0.000127885   -0.001634851
      9        1           0.001099128    0.000068654   -0.001111673
     10        1           0.000778094   -0.000062854    0.000994801
     11        1           0.000882078   -0.000205080    0.000882548
     12        1           0.000006357    0.001563313    0.000068000
     13        1          -0.000720201    0.001296364   -0.000712619
     14        1           0.000543266   -0.000387603    0.000994343
     15        1           0.001887858    0.002858145   -0.001872516
 -------------------------------------------------------------------
 Cartesian Forces:  Max     0.009871783 RMS     0.004237094

 GradGradGradGradGradGradGradGradGradGradGradGradGradGradGradGradGradGrad
 Berny optimization.
 Using GEDIIS/GDIIS optimizer.
 FormGI is forming the generalized inverse of G from B-inverse, IUseBI=4.
 Internal  Forces:  Max     0.010798320 RMS     0.002460885
 Search for a local minimum.
 Step number   4 out of a maximum of   81
 All quantities printed in internal units (Hartrees-Bohrs-Radians)
 Mixed Optimization -- RFO/linear search
 Update second derivatives using D2CorX and points    3    4
 DE= -5.15D-03 DEPred=-5.52D-03 R= 9.33D-01
 TightC=F SS=  1.41D+00  RLast= 1.33D+00 DXNew= 1.4270D+00 3.9998D+00
 Trust test= 9.33D-01 RLast= 1.33D+00 DXMaxT set to 1.43D+00
 ITU=  1  1  1  0
 Use linear search instead of GDIIS.
     Eigenvalues ---    0.00220   0.01485   0.01863   0.01890   0.02118
     Eigenvalues ---    0.02145   0.02315   0.02412   0.02662   0.02880
     Eigenvalues ---    0.06053   0.07166   0.09094   0.10387   0.15842
     Eigenvalues ---    0.15921   0.15925   0.15990   0.15996   0.16093
     Eigenvalues ---    0.18823   0.19027   0.21934   0.22959   0.31205
     Eigenvalues ---    0.31803   0.33941   0.34220   0.34896   0.34899
     Eigenvalues ---    0.34910   0.34913   0.34915   0.35101   0.37649
     Eigenvalues ---    0.51317   0.53699   0.58243   0.66551
 RFO step:  Lambda=-1.54977234D-03 EMin= 2.20380357D-03
 Quartic linear search produced a step of  0.14749.
 Iteration  1 RMS(Cart)=  0.06432672 RMS(Int)=  0.00257108
 Iteration  2 RMS(Cart)=  0.00258091 RMS(Int)=  0.00132419
 Iteration  3 RMS(Cart)=  0.00000258 RMS(Int)=  0.00132419
 Iteration  4 RMS(Cart)=  0.00000000 RMS(Int)=  0.00132419
 ClnCor:  largest displacement from symmetrization is 1.24D-09 for atom    11.
 Variable       Old X    -DE/DX   Delta X   Delta X   Delta X     New X
                                 (Linear)    (Quad)   (Total)
    R1        2.55906   0.00170  -0.00007   0.00474   0.00443   2.56349
    R2        2.90259  -0.00588   0.00124  -0.00694  -0.00649   2.89610
    R3        2.05685  -0.00012  -0.00065  -0.00111  -0.00176   2.05509
    R4        2.79501  -0.01080   0.00102  -0.01464  -0.01305   2.78196
    R5        2.06190  -0.00047   0.00014  -0.00080  -0.00066   2.06124
    R6        2.59605  -0.00509   0.00309  -0.00130   0.00279   2.59884
    R7        2.05637   0.00079  -0.00054   0.00071   0.00017   2.05654
    R8        2.79501  -0.01080   0.00102  -0.01464  -0.01305   2.78196
    R9        2.05637   0.00079  -0.00054   0.00071   0.00017   2.05654
   R10        2.55906   0.00170  -0.00007   0.00474   0.00443   2.56349
   R11        2.06190  -0.00047   0.00014  -0.00080  -0.00066   2.06124
   R12        2.90259  -0.00588   0.00124  -0.00694  -0.00649   2.89610
   R13        2.05685  -0.00012  -0.00065  -0.00111  -0.00176   2.05509
   R14        2.07061  -0.00027  -0.00105   0.00123   0.00018   2.07079
   R15        2.07670  -0.00129  -0.00125  -0.00309  -0.00434   2.07236
    A1        2.13978  -0.00096  -0.01268  -0.01131  -0.02775   2.11203
    A2        2.08788   0.00038   0.00509   0.00840   0.01506   2.10294
    A3        2.05134   0.00067   0.00711   0.00646   0.01514   2.06649
    A4        2.20831  -0.00256  -0.00389  -0.01150  -0.01803   2.19028
    A5        2.05701   0.00235   0.00258   0.01003   0.01374   2.07076
    A6        2.01699   0.00023   0.00118   0.00123   0.00363   2.02062
    A7        2.18866   0.00263  -0.00323   0.00029  -0.00365   2.18500
    A8        2.02511  -0.00088   0.00118   0.00235   0.00360   2.02870
    A9        2.06162  -0.00172   0.00114  -0.00365  -0.00230   2.05931
   A10        2.18866   0.00263  -0.00323   0.00029  -0.00365   2.18500
   A11        2.06162  -0.00172   0.00114  -0.00365  -0.00230   2.05931
   A12        2.02511  -0.00088   0.00118   0.00235   0.00360   2.02870
   A13        2.20831  -0.00256  -0.00389  -0.01150  -0.01803   2.19028
   A14        2.01699   0.00023   0.00118   0.00123   0.00363   2.02062
   A15        2.05701   0.00235   0.00258   0.01003   0.01374   2.07076
   A16        2.13978  -0.00096  -0.01268  -0.01131  -0.02775   2.11203
   A17        2.08788   0.00038   0.00509   0.00840   0.01506   2.10294
   A18        2.05134   0.00067   0.00711   0.00646   0.01514   2.06649
   A19        1.86334   0.00284  -0.01863  -0.00273  -0.02719   1.83614
   A20        1.90188  -0.00007   0.00512   0.01637   0.02364   1.92552
   A21        1.95275  -0.00191   0.00202  -0.02090  -0.01900   1.93375
   A22        1.90188  -0.00007   0.00512   0.01637   0.02364   1.92552
   A23        1.95275  -0.00191   0.00202  -0.02090  -0.01900   1.93375
   A24        1.89027   0.00116   0.00543   0.01337   0.01818   1.90846
    D1        0.18089  -0.00154   0.01917  -0.01974  -0.00141   0.17949
    D2       -3.00772  -0.00106   0.01074  -0.02611  -0.01656  -3.02428
    D3       -3.06141  -0.00046   0.01169   0.02320   0.03503  -3.02638
    D4        0.03317   0.00002   0.00326   0.01682   0.01988   0.05304
    D5       -1.15526   0.00095  -0.05473  -0.02021  -0.07375  -1.22902
    D6        3.07629  -0.00049  -0.05345  -0.04650  -0.09869   2.97760
    D7        0.98654  -0.00070  -0.06435  -0.06087  -0.12490   0.86164
    D8        2.08504  -0.00010  -0.04736  -0.06243  -0.10951   1.97553
    D9        0.03341  -0.00154  -0.04608  -0.08871  -0.13444  -0.10103
   D10       -2.05634  -0.00175  -0.05698  -0.10309  -0.16066  -2.21700
   D11        0.50147   0.00095   0.00975   0.03375   0.04222   0.54369
   D12       -2.77721   0.00108  -0.00121   0.02459   0.02285  -2.75435
   D13       -2.59404   0.00043   0.01801   0.03977   0.05673  -2.53731
   D14        0.41047   0.00056   0.00706   0.03061   0.03736   0.44783
   D15       -0.00000   0.00000  -0.00000  -0.00000   0.00000  -0.00000
   D16        3.00191   0.00020  -0.01117  -0.00890  -0.01926   2.98265
   D17       -3.00191  -0.00020   0.01117   0.00890   0.01926  -2.98265
   D18        0.00000  -0.00000   0.00000   0.00000   0.00000   0.00000
   D19       -0.50147  -0.00095  -0.00975  -0.03375  -0.04222  -0.54369
   D20        2.59404  -0.00043  -0.01801  -0.03977  -0.05673   2.53731
   D21        2.77721  -0.00108   0.00121  -0.02459  -0.02285   2.75435
   D22       -0.41047  -0.00056  -0.00706  -0.03061  -0.03736  -0.44783
   D23       -0.18089   0.00154  -0.01917   0.01974   0.00141  -0.17949
   D24        3.06141   0.00046  -0.01169  -0.02320  -0.03503   3.02638
   D25        3.00772   0.00106  -0.01074   0.02611   0.01656   3.02428
   D26       -0.03317  -0.00002  -0.00326  -0.01682  -0.01988  -0.05304
   D27        1.15526  -0.00095   0.05473   0.02021   0.07375   1.22902
   D28       -3.07629   0.00049   0.05345   0.04650   0.09869  -2.97760
   D29       -0.98654   0.00070   0.06435   0.06087   0.12490  -0.86164
   D30       -2.08504   0.00010   0.04736   0.06243   0.10951  -1.97553
   D31       -0.03341   0.00154   0.04608   0.08871   0.13444   0.10103
   D32        2.05634   0.00175   0.05698   0.10309   0.16066   2.21700
         Item               Value     Threshold  Converged?
 Maximum Force            0.010798     0.000450     NO 
 RMS     Force            0.002461     0.000300     NO 
 Maximum Displacement     0.212406     0.001800     NO 
 RMS     Displacement     0.064892     0.001200     NO 
 Predicted change in Energy=-1.247717D-03
 GradGradGradGradGradGradGradGradGradGradGradGradGradGradGradGradGradGrad

                          Input orientation:                          
 ---------------------------------------------------------------------
 Center     Atomic      Atomic             Coordinates (Angstroms)
 Number     Number       Type             X           Y           Z
 ---------------------------------------------------------------------
      1          6           0       -1.483316   -0.252127   -1.443518
      2          6           0       -0.587921    0.756691   -1.299462
      3          6           0        0.876567    0.611745   -1.338135
      4          6           0        1.561104   -0.324544   -2.077109
      5          6           0        0.941224   -1.334827   -2.950211
      6          6           0       -0.271277   -1.909917   -2.751943
      7          6           0       -1.031083   -1.716409   -1.435146
      8          1           0       -2.547963   -0.039929   -1.508072
      9          1           0       -0.961074    1.776757   -1.199547
     10          1           0        1.450823    1.397765   -0.851569
     11          1           0        2.643812   -0.233968   -2.139429
     12          1           0        1.497779   -1.586388   -3.853939
     13          1           0       -0.699083   -2.568770   -3.503982
     14          1           0       -1.900013   -2.382901   -1.395611
     15          1           0       -0.379426   -1.917740   -0.576404
 ---------------------------------------------------------------------
                    Distance matrix (angstroms):
                    1          2          3          4          5
     1  C    0.000000
     2  C    1.356539   0.000000
     3  C    2.515239   1.472152   0.000000
     4  C    3.110494   2.528263   1.375250   0.000000
     5  C    3.052992   3.072086   2.528263   1.472152   0.000000
     6  C    2.435012   3.052992   3.110494   2.515239   1.356539
     7  C    1.532549   2.516153   3.011451   3.011451   2.516153
     8  H    1.087506   2.126002   3.490124   4.158033   3.991361
     9  H    2.109176   1.090761   2.180226   3.398082   4.045432
    10  H    3.417853   2.183589   1.088276   2.116709   3.482966
    11  H    4.185428   3.482966   2.116709   1.088276   2.183589
    12  H    4.059226   4.045432   3.398082   2.180226   1.090761
    13  H    3.198026   3.991361   4.158033   3.490124   2.126002
    14  H    2.171665   3.404096   4.084189   4.084189   3.404096
    15  H    2.178239   2.778285   2.925072   2.925072   2.778285
                    6          7          8          9         10
     6  C    0.000000
     7  C    1.532549   0.000000
     8  H    3.198026   2.262041   0.000000
     9  H    4.059226   3.501801   2.431820   0.000000
    10  H    4.185428   4.024736   4.299797   2.466166   0.000000
    11  H    3.417853   4.024736   5.233621   4.233391   2.396739
    12  H    2.109176   3.501801   4.925714   4.939889   4.233391
    13  H    1.087506   2.262041   3.714439   4.925714   5.233621
    14  H    2.171665   1.095816   2.433517   4.268817   5.081094
    15  H    2.178239   1.096644   3.016079   3.791560   3.797118
                   11         12         13         14         15
    11  H    0.000000
    12  H    2.466166   0.000000
    13  H    4.299797   2.431820   0.000000
    14  H    5.081094   4.268817   2.433517   0.000000
    15  H    3.797118   3.791560   3.016079   1.788759   0.000000
 Stoichiometry    C7H8
 Framework group  CS[SG(CH2),X(C6H6)]
 Deg. of freedom    21
 Full point group                 CS      NOp   2
 Largest Abelian subgroup         CS      NOp   2
 Largest concise Abelian subgroup CS      NOp   2
                         Standard orientation:                         
 ---------------------------------------------------------------------
 Center     Atomic      Atomic             Coordinates (Angstroms)
 Number     Number       Type             X           Y           Z
 ---------------------------------------------------------------------
      1          6           0       -0.262763    0.965300   -1.217506
      2          6           0       -0.262763   -0.353310   -1.536043
      3          6           0        0.258523   -1.437597   -0.687625
      4          6           0        0.258523   -1.437597    0.687625
      5          6           0       -0.262763   -0.353310    1.536043
      6          6           0       -0.262763    0.965300    1.217506
      7          6           0        0.510479    1.483452    0.000000
      8          1           0       -0.764642    1.687486   -1.857219
      9          1           0       -0.731839   -0.665648   -2.469944
     10          1           0        0.532574   -2.358672   -1.198369
     11          1           0        0.532574   -2.358672    1.198369
     12          1           0       -0.731839   -0.665648    2.469944
     13          1           0       -0.764642    1.687486    1.857219
     14          1           0        0.530656    2.579083    0.000000
     15          1           0        1.538333    1.101163    0.000000
 ---------------------------------------------------------------------
 Rotational constants (GHZ):           3.6348177           3.5925981           1.9973767
 Standard basis: 3-21G* (6D, 7F)
 There are    44 symmetry adapted cartesian basis functions of A'  symmetry.
 There are    35 symmetry adapted cartesian basis functions of A"  symmetry.
 There are    44 symmetry adapted basis functions of A'  symmetry.
 There are    35 symmetry adapted basis functions of A"  symmetry.
    79 basis functions,   129 primitive gaussians,    79 cartesian basis functions
    25 alpha electrons       25 beta electrons
       nuclear repulsion energy       268.9365754844 Hartrees.
 NAtoms=   15 NActive=   15 NUniq=    9 SFac= 2.78D+00 NAtFMM=   60 NAOKFM=F Big=F
 Integral buffers will be    131072 words long.
 Raffenetti 1 integral format.
 Two-electron integral symmetry is turned on.
 One-electron integrals computed using PRISM.
 NBasis=    79 RedAO= T EigKep=  4.84D-03  NBF=    44    35
 NBsUse=    79 1.00D-06 EigRej= -1.00D+00 NBFU=    44    35
 Initial guess from the checkpoint file:  "Cycloheptatriene.chk"
 B after Tr=     0.000000    0.000000   -0.000000
         Rot=    1.000000   -0.000000   -0.000000   -0.000183 Ang=  -0.02 deg.
 Initial guess orbital symmetries:
       Occupied  (A") (A') (A") (A') (A') (A") (A') (A') (A") (A')
                 (A') (A") (A') (A') (A") (A") (A') (A') (A") (A')
                 (A') (A") (A') (A") (A')
       Virtual   (A") (A') (A') (A") (A') (A") (A') (A') (A") (A")
                 (A') (A') (A") (A") (A') (A') (A") (A") (A') (A')
                 (A") (A') (A') (A") (A') (A") (A') (A") (A') (A")
                 (A') (A') (A") (A") (A') (A") (A') (A") (A') (A")
                 (A") (A') (A') (A') (A') (A') (A") (A") (A") (A')
                 (A') (A") (A') (A")
 ExpMin= 1.83D-01 ExpMax= 1.72D+02 ExpMxC= 1.72D+02 IAcc=3 IRadAn=         5 AccDes= 0.00D+00
 Harris functional with IExCor=  205 and IRadAn=       5 diagonalized for initial guess.
 HarFok:  IExCor=  205 AccDes= 0.00D+00 IRadAn=         5 IDoV= 1 UseB2=F ITyADJ=14
 ICtDFT=  3500011 ScaDFX=  1.000000  1.000000  1.000000  1.000000
 FoFCou: FMM=F IPFlag=           0 FMFlag=      100000 FMFlg1=           0
         NFxFlg=           0 DoJE=T BraDBF=F KetDBF=T FulRan=T
         wScrn=  0.000000 ICntrl=       500 IOpCl=  0 I1Cent=   200000004 NGrid=           0
         NMat0=    1 NMatS0=      1 NMatT0=    0 NMatD0=    1 NMtDS0=    0 NMtDT0=    0
 Petite list used in FoFCou.
 Keep R1 ints in memory in symmetry-blocked form, NReq=7502338.
 Requested convergence on RMS density matrix=1.00D-08 within 128 cycles.
 Requested convergence on MAX density matrix=1.00D-06.
 Requested convergence on             energy=1.00D-06.
 No special actions if energy rises.
 SCF Done:  E(RHF) =  -268.175045789     A.U. after   11 cycles
            NFock= 11  Conv=0.99D-08     -V/T= 2.0040
 ExpMin= 1.83D-01 ExpMax= 1.72D+02 ExpMxC= 1.72D+02 IAcc=3 IRadAn=         5 AccDes= 0.00D+00
 HarFok:  IExCor=  205 AccDes= 0.00D+00 IRadAn=         5 IDoV=-2 UseB2=F ITyADJ=14
 ICtDFT= 12500011 ScaDFX=  1.000000  1.000000  1.000000  1.000000
 Range of M.O.s used for correlation:     8    79
 NBasis=    79 NAE=    25 NBE=    25 NFC=     7 NFV=     0
 NROrb=     72 NOA=    18 NOB=    18 NVA=    54 NVB=    54
 Fully direct method using O(ONN) memory.
 JobTyp=1 Pass  1:  I=   8 to  25 NPSUse=  8 ParTrn=T ParDer=T DoDerP=T.
 Spin components of T(2) and E(2):
     alpha-alpha T2 =       0.3111471830D-01 E2=     -0.7451501331D-01
     alpha-beta  T2 =       0.1969693675D+00 E2=     -0.4742045722D+00
     beta-beta   T2 =       0.3111471830D-01 E2=     -0.7451501331D-01
 ANorm=    0.1122140278D+01
 E2 =    -0.6232345988D+00 EUMP2 =    -0.26879828038768D+03
          IDoAtm=111111111111111
          Differentiating once with respect to electric field.
                with respect to dipole field.
          Differentiating once with respect to nuclear coordinates.
 Keep R1 ints in memory in symmetry-blocked form, NReq=7504047.
          There are     1 degrees of freedom in the 1st order CPHF.  IDoFFX=0 NUNeed=     1.
 LinEq1:  Iter=  0 NonCon=     1 RMS=5.12D-03 Max=6.64D-02 NDo=     1
 AX will form     1 AO Fock derivatives at one time.
 LinEq1:  Iter=  1 NonCon=     1 RMS=1.44D-03 Max=1.37D-02 NDo=     1
 LinEq1:  Iter=  2 NonCon=     1 RMS=3.50D-04 Max=7.87D-03 NDo=     1
 LinEq1:  Iter=  3 NonCon=     1 RMS=1.14D-04 Max=2.95D-03 NDo=     1
 LinEq1:  Iter=  4 NonCon=     1 RMS=4.95D-05 Max=9.33D-04 NDo=     1
 LinEq1:  Iter=  5 NonCon=     1 RMS=9.54D-06 Max=1.07D-04 NDo=     1
 LinEq1:  Iter=  6 NonCon=     1 RMS=1.91D-06 Max=2.34D-05 NDo=     1
 LinEq1:  Iter=  7 NonCon=     1 RMS=6.91D-07 Max=6.53D-06 NDo=     1
 LinEq1:  Iter=  8 NonCon=     1 RMS=1.30D-07 Max=1.27D-06 NDo=     1
 LinEq1:  Iter=  9 NonCon=     1 RMS=2.98D-08 Max=2.24D-07 NDo=     1
 LinEq1:  Iter= 10 NonCon=     1 RMS=9.45D-09 Max=9.96D-08 NDo=     1
 LinEq1:  Iter= 11 NonCon=     1 RMS=1.73D-09 Max=1.31D-08 NDo=     1
 LinEq1:  Iter= 12 NonCon=     1 RMS=2.53D-10 Max=3.58D-09 NDo=     1
 LinEq1:  Iter= 13 NonCon=     0 RMS=3.45D-11 Max=5.10D-10 NDo=     1
 Linear equations converged to 1.000D-10 1.000D-09 after    13 iterations.
 End of Minotr F.D. properties file   721 does not exist.
 End of Minotr F.D. properties file   722 does not exist.
 End of Minotr F.D. properties file   788 does not exist.
 Calling FoFJK, ICntrl=  10002127 FMM=F ISym2X=1 I1Cent= 0 IOpClX= 0 NMat=1 NMatS=1 NMatT=0.
 ***** Axes restored to original set *****
 -------------------------------------------------------------------
 Center     Atomic                   Forces (Hartrees/Bohr)
 Number     Number              X              Y              Z
 -------------------------------------------------------------------
      1        6           0.001590657   -0.006203934    0.004872820
      2        6           0.006735350    0.002799266   -0.001307554
      3        6          -0.006603834   -0.003059373   -0.002531789
      4        6          -0.006759332   -0.002846686   -0.002363924
      5        6           0.004595628    0.005725912    0.001002327
      6        6          -0.000795708   -0.002939937    0.007448959
      7        6          -0.002480240    0.004693835   -0.008244675
      8        1          -0.000155246    0.000187304   -0.000526285
      9        1           0.000428446   -0.000259526   -0.000488935
     10        1           0.000837701   -0.000094669    0.001049607
     11        1           0.000919903   -0.000207102    0.000960868
     12        1          -0.000221297    0.000629173    0.000212478
     13        1          -0.000232895    0.000293510   -0.000442461
     14        1           0.001078348    0.000367622    0.000533130
     15        1           0.001062519    0.000914604   -0.000174566
 -------------------------------------------------------------------
 Cartesian Forces:  Max     0.008244675 RMS     0.003208052

 GradGradGradGradGradGradGradGradGradGradGradGradGradGradGradGradGradGrad
 Berny optimization.
 Using GEDIIS/GDIIS optimizer.
 FormGI is forming the generalized inverse of G from B-inverse, IUseBI=4.
 Internal  Forces:  Max     0.007248066 RMS     0.001735609
 Search for a local minimum.
 Step number   5 out of a maximum of   81
 All quantities printed in internal units (Hartrees-Bohrs-Radians)
 Mixed Optimization -- RFO/linear search
 Update second derivatives using D2CorX and points    4    5
 DE= -1.38D-03 DEPred=-1.25D-03 R= 1.10D+00
 TightC=F SS=  1.41D+00  RLast= 4.46D-01 DXNew= 2.4000D+00 1.3372D+00
 Trust test= 1.10D+00 RLast= 4.46D-01 DXMaxT set to 1.43D+00
 ITU=  1  1  1  1  0
 Use linear search instead of GDIIS.
     Eigenvalues ---    0.00514   0.01481   0.01588   0.01843   0.02094
     Eigenvalues ---    0.02149   0.02332   0.02445   0.02673   0.02743
     Eigenvalues ---    0.05243   0.07297   0.08839   0.10108   0.15712
     Eigenvalues ---    0.15796   0.15960   0.15984   0.15992   0.16170
     Eigenvalues ---    0.18185   0.18694   0.21293   0.21925   0.31102
     Eigenvalues ---    0.31401   0.33954   0.34351   0.34861   0.34896
     Eigenvalues ---    0.34908   0.34910   0.34913   0.35174   0.37570
     Eigenvalues ---    0.38640   0.53563   0.55160   0.61014
 RFO step:  Lambda=-1.12442042D-03 EMin= 5.14471262D-03
 Quartic linear search produced a step of  0.46530.
 Iteration  1 RMS(Cart)=  0.02130872 RMS(Int)=  0.00044168
 Iteration  2 RMS(Cart)=  0.00041543 RMS(Int)=  0.00028692
 Iteration  3 RMS(Cart)=  0.00000011 RMS(Int)=  0.00028692
 ClnCor:  largest displacement from symmetrization is 1.69D-08 for atom    11.
 Variable       Old X    -DE/DX   Delta X   Delta X   Delta X     New X
                                 (Linear)    (Quad)   (Total)
    R1        2.56349   0.00088   0.00206   0.00329   0.00533   2.56882
    R2        2.89610  -0.00461  -0.00302  -0.01240  -0.01548   2.88061
    R3        2.05509   0.00022  -0.00082   0.00101   0.00019   2.05527
    R4        2.78196  -0.00725  -0.00607  -0.01900  -0.02503   2.75694
    R5        2.06124  -0.00043  -0.00031  -0.00161  -0.00192   2.05932
    R6        2.59884  -0.00323   0.00130  -0.00821  -0.00683   2.59202
    R7        2.05654   0.00084   0.00008   0.00268   0.00277   2.05931
    R8        2.78196  -0.00725  -0.00607  -0.01900  -0.02503   2.75694
    R9        2.05654   0.00084   0.00008   0.00268   0.00277   2.05931
   R10        2.56349   0.00088   0.00206   0.00329   0.00533   2.56882
   R11        2.06124  -0.00043  -0.00031  -0.00161  -0.00192   2.05932
   R12        2.89610  -0.00461  -0.00302  -0.01240  -0.01548   2.88061
   R13        2.05509   0.00022  -0.00082   0.00101   0.00019   2.05527
   R14        2.07079  -0.00106   0.00008  -0.00098  -0.00090   2.06989
   R15        2.07236   0.00033  -0.00202   0.00354   0.00151   2.07387
    A1        2.11203  -0.00044  -0.01291   0.01747   0.00348   2.11550
    A2        2.10294   0.00008   0.00701  -0.00579   0.00096   2.10390
    A3        2.06649   0.00040   0.00705  -0.00951  -0.00272   2.06376
    A4        2.19028  -0.00211  -0.00839  -0.00393  -0.01285   2.17742
    A5        2.07076   0.00136   0.00639   0.00250   0.00908   2.07984
    A6        2.02062   0.00077   0.00169   0.00263   0.00450   2.02512
    A7        2.18500   0.00200  -0.00170   0.00878   0.00661   2.19162
    A8        2.02870  -0.00049   0.00167   0.00158   0.00339   2.03209
    A9        2.05931  -0.00143  -0.00107  -0.00694  -0.00788   2.05143
   A10        2.18500   0.00200  -0.00170   0.00878   0.00661   2.19162
   A11        2.05931  -0.00143  -0.00107  -0.00694  -0.00788   2.05143
   A12        2.02870  -0.00049   0.00167   0.00158   0.00339   2.03209
   A13        2.19028  -0.00211  -0.00839  -0.00393  -0.01285   2.17742
   A14        2.02062   0.00077   0.00169   0.00263   0.00450   2.02512
   A15        2.07076   0.00136   0.00639   0.00250   0.00908   2.07984
   A16        2.11203  -0.00044  -0.01291   0.01747   0.00348   2.11550
   A17        2.10294   0.00008   0.00701  -0.00579   0.00096   2.10390
   A18        2.06649   0.00040   0.00705  -0.00951  -0.00272   2.06376
   A19        1.83614   0.00272  -0.01265   0.04548   0.03184   1.86798
   A20        1.92552  -0.00022   0.01100   0.00294   0.01358   1.93910
   A21        1.93375  -0.00140  -0.00884  -0.02331  -0.03231   1.90144
   A22        1.92552  -0.00022   0.01100   0.00294   0.01358   1.93910
   A23        1.93375  -0.00140  -0.00884  -0.02331  -0.03231   1.90144
   A24        1.90846   0.00055   0.00846  -0.00347   0.00522   1.91368
    D1        0.17949  -0.00125  -0.00065  -0.05207  -0.05271   0.12678
    D2       -3.02428  -0.00069  -0.00770  -0.02773  -0.03550  -3.05978
    D3       -3.02638  -0.00049   0.01630  -0.01238   0.00408  -3.02230
    D4        0.05304   0.00007   0.00925   0.01196   0.02128   0.07433
    D5       -1.22902   0.00095  -0.03432   0.07376   0.03978  -1.18924
    D6        2.97760  -0.00024  -0.04592   0.04266  -0.00341   2.97419
    D7        0.86164   0.00014  -0.05812   0.06053   0.00253   0.86417
    D8        1.97553   0.00021  -0.05096   0.03478  -0.01587   1.95966
    D9       -0.10103  -0.00097  -0.06256   0.00367  -0.05905  -0.16009
   D10       -2.21700  -0.00059  -0.07475   0.02155  -0.05311  -2.27011
   D11        0.54369   0.00048   0.01964   0.01712   0.03664   0.58033
   D12       -2.75435   0.00095   0.01063   0.04260   0.05318  -2.70117
   D13       -2.53731  -0.00009   0.02639  -0.00661   0.01975  -2.51756
   D14        0.44783   0.00038   0.01738   0.01887   0.03629   0.48412
   D15       -0.00000   0.00000   0.00000   0.00000   0.00000   0.00000
   D16        2.98265   0.00056  -0.00896   0.02661   0.01764   3.00029
   D17       -2.98265  -0.00056   0.00896  -0.02661  -0.01764  -3.00029
   D18       -0.00000   0.00000   0.00000  -0.00000   0.00000   0.00000
   D19       -0.54369  -0.00048  -0.01964  -0.01712  -0.03664  -0.58033
   D20        2.53731   0.00009  -0.02639   0.00661  -0.01975   2.51756
   D21        2.75435  -0.00095  -0.01063  -0.04260  -0.05318   2.70117
   D22       -0.44783  -0.00038  -0.01738  -0.01887  -0.03629  -0.48412
   D23       -0.17949   0.00125   0.00065   0.05207   0.05271  -0.12678
   D24        3.02638   0.00049  -0.01630   0.01238  -0.00408   3.02230
   D25        3.02428   0.00069   0.00770   0.02773   0.03550   3.05978
   D26       -0.05304  -0.00007  -0.00925  -0.01196  -0.02128  -0.07433
   D27        1.22902  -0.00095   0.03432  -0.07376  -0.03978   1.18924
   D28       -2.97760   0.00024   0.04592  -0.04266   0.00341  -2.97419
   D29       -0.86164  -0.00014   0.05812  -0.06053  -0.00253  -0.86417
   D30       -1.97553  -0.00021   0.05096  -0.03478   0.01587  -1.95966
   D31        0.10103   0.00097   0.06256  -0.00367   0.05905   0.16009
   D32        2.21700   0.00059   0.07475  -0.02155   0.05311   2.27011
         Item               Value     Threshold  Converged?
 Maximum Force            0.007248     0.000450     NO 
 RMS     Force            0.001736     0.000300     NO 
 Maximum Displacement     0.071463     0.001800     NO 
 RMS     Displacement     0.021464     0.001200     NO 
 Predicted change in Energy=-7.578653D-04
 GradGradGradGradGradGradGradGradGradGradGradGradGradGradGradGradGradGrad

                          Input orientation:                          
 ---------------------------------------------------------------------
 Center     Atomic      Atomic             Coordinates (Angstroms)
 Number     Number       Type             X           Y           Z
 ---------------------------------------------------------------------
      1          6           0       -1.483811   -0.252814   -1.428077
      2          6           0       -0.587952    0.762752   -1.310093
      3          6           0        0.861616    0.601004   -1.341737
      4          6           0        1.544355   -0.332825   -2.078770
      5          6           0        0.939629   -1.326627   -2.959154
      6          6           0       -0.263733   -1.921600   -2.745181
      7          6           0       -1.030392   -1.708073   -1.445066
      8          1           0       -2.548417   -0.044470   -1.506119
      9          1           0       -0.953232    1.785848   -1.224103
     10          1           0        1.446363    1.366919   -0.832840
     11          1           0        2.630674   -0.252946   -2.111333
     12          1           0        1.494762   -1.562443   -3.866771
     13          1           0       -0.701345   -2.570838   -3.500077
     14          1           0       -1.885906   -2.388525   -1.375418
     15          1           0       -0.352458   -1.879924   -0.599336
 ---------------------------------------------------------------------
                    Distance matrix (angstroms):
                    1          2          3          4          5
     1  C    0.000000
     2  C    1.359359   0.000000
     3  C    2.497497   1.458908   0.000000
     4  C    3.098321   2.517516   1.371637   0.000000
     5  C    3.061101   3.068943   2.517516   1.458908   0.000000
     6  C    2.451163   3.061101   3.098321   2.497497   1.359359
     7  C    1.524355   2.513752   2.987006   2.987006   2.513752
     8  H    1.087604   2.129191   3.474476   4.142687   3.990201
     9  H    2.116427   1.089747   2.170568   3.384845   4.034951
    10  H    3.400553   2.175138   1.089739   2.109757   3.468888
    11  H    4.170831   3.468888   2.109757   1.089739   2.175138
    12  H    4.066234   4.034951   3.384845   2.170568   1.089747
    13  H    3.206037   3.990201   4.142687   3.474476   2.129191
    14  H    2.173871   3.408739   4.060455   4.060455   3.408739
    15  H    2.148082   2.746701   2.860094   2.860094   2.746701
                    6          7          8          9         10
     6  C    0.000000
     7  C    1.524355   0.000000
     8  H    3.206037   2.252932   0.000000
     9  H    4.066234   3.501752   2.444220   0.000000
    10  H    4.170831   3.995586   4.289941   2.467113   0.000000
    11  H    3.400553   3.995586   5.218499   4.217611   2.379306
    12  H    2.116427   3.501752   4.921810   4.918071   4.217611
    13  H    1.087604   2.252932   3.710805   4.921810   5.218499
    14  H    2.173871   1.095340   2.439385   4.279973   5.049928
    15  H    2.148082   1.097445   3.002230   3.766848   3.719176
                   11         12         13         14         15
    11  H    0.000000
    12  H    2.467113   0.000000
    13  H    4.289941   2.444220   0.000000
    14  H    5.049928   4.279973   2.439385   0.000000
    15  H    3.719176   3.766848   3.002230   1.792328   0.000000
 Stoichiometry    C7H8
 Framework group  CS[SG(CH2),X(C6H6)]
 Deg. of freedom    21
 Full point group                 CS      NOp   2
 Largest Abelian subgroup         CS      NOp   2
 Largest concise Abelian subgroup CS      NOp   2
                         Standard orientation:                         
 ---------------------------------------------------------------------
 Center     Atomic      Atomic             Coordinates (Angstroms)
 Number     Number       Type             X           Y           Z
 ---------------------------------------------------------------------
      1          6           0       -0.265981    0.959091   -1.225582
      2          6           0       -0.265981   -0.364708   -1.534472
      3          6           0        0.282941   -1.416794   -0.685818
      4          6           0        0.282941   -1.416794    0.685818
      5          6           0       -0.265981   -0.364708    1.534472
      6          6           0       -0.265981    0.959091    1.225582
      7          6           0        0.472844    1.484205    0.000000
      8          1           0       -0.791001    1.673627   -1.855403
      9          1           0       -0.739359   -0.694320   -2.459036
     10          1           0        0.604806   -2.327884   -1.189653
     11          1           0        0.604806   -2.327884    1.189653
     12          1           0       -0.739359   -0.694320    2.459036
     13          1           0       -0.791001    1.673627    1.855403
     14          1           0        0.508398    2.578969    0.000000
     15          1           0        1.493885    1.081887    0.000000
 ---------------------------------------------------------------------
 Rotational constants (GHZ):           3.6383935           3.6342812           2.0094693
 Standard basis: 3-21G* (6D, 7F)
 There are    44 symmetry adapted cartesian basis functions of A'  symmetry.
 There are    35 symmetry adapted cartesian basis functions of A"  symmetry.
 There are    44 symmetry adapted basis functions of A'  symmetry.
 There are    35 symmetry adapted basis functions of A"  symmetry.
    79 basis functions,   129 primitive gaussians,    79 cartesian basis functions
    25 alpha electrons       25 beta electrons
       nuclear repulsion energy       269.7523514577 Hartrees.
 NAtoms=   15 NActive=   15 NUniq=    9 SFac= 2.78D+00 NAtFMM=   60 NAOKFM=F Big=F
 Integral buffers will be    131072 words long.
 Raffenetti 1 integral format.
 Two-electron integral symmetry is turned on.
 One-electron integrals computed using PRISM.
 NBasis=    79 RedAO= T EigKep=  4.84D-03  NBF=    44    35
 NBsUse=    79 1.00D-06 EigRej= -1.00D+00 NBFU=    44    35
 Initial guess from the checkpoint file:  "Cycloheptatriene.chk"
 B after Tr=     0.000000   -0.000000    0.000000
         Rot=    0.999962    0.000000   -0.000000   -0.008768 Ang=  -1.00 deg.
 Initial guess orbital symmetries:
       Occupied  (A") (A') (A") (A') (A') (A") (A') (A') (A") (A')
                 (A') (A") (A') (A') (A") (A") (A') (A') (A') (A")
                 (A') (A") (A') (A") (A')
       Virtual   (A") (A') (A') (A") (A") (A') (A') (A') (A") (A")
                 (A') (A') (A") (A") (A') (A') (A") (A") (A') (A')
                 (A") (A') (A') (A") (A') (A') (A") (A") (A') (A')
                 (A") (A') (A") (A") (A") (A') (A') (A") (A') (A")
                 (A") (A') (A') (A') (A') (A') (A") (A") (A') (A")
                 (A') (A") (A') (A")
 ExpMin= 1.83D-01 ExpMax= 1.72D+02 ExpMxC= 1.72D+02 IAcc=3 IRadAn=         5 AccDes= 0.00D+00
 Harris functional with IExCor=  205 and IRadAn=       5 diagonalized for initial guess.
 HarFok:  IExCor=  205 AccDes= 0.00D+00 IRadAn=         5 IDoV= 1 UseB2=F ITyADJ=14
 ICtDFT=  3500011 ScaDFX=  1.000000  1.000000  1.000000  1.000000
 FoFCou: FMM=F IPFlag=           0 FMFlag=      100000 FMFlg1=           0
         NFxFlg=           0 DoJE=T BraDBF=F KetDBF=T FulRan=T
         wScrn=  0.000000 ICntrl=       500 IOpCl=  0 I1Cent=   200000004 NGrid=           0
         NMat0=    1 NMatS0=      1 NMatT0=    0 NMatD0=    1 NMtDS0=    0 NMtDT0=    0
 Petite list used in FoFCou.
 Keep R1 ints in memory in symmetry-blocked form, NReq=7502338.
 Requested convergence on RMS density matrix=1.00D-08 within 128 cycles.
 Requested convergence on MAX density matrix=1.00D-06.
 Requested convergence on             energy=1.00D-06.
 No special actions if energy rises.
 SCF Done:  E(RHF) =  -268.176391109     A.U. after   11 cycles
            NFock= 11  Conv=0.96D-08     -V/T= 2.0037
 ExpMin= 1.83D-01 ExpMax= 1.72D+02 ExpMxC= 1.72D+02 IAcc=3 IRadAn=         5 AccDes= 0.00D+00
 HarFok:  IExCor=  205 AccDes= 0.00D+00 IRadAn=         5 IDoV=-2 UseB2=F ITyADJ=14
 ICtDFT= 12500011 ScaDFX=  1.000000  1.000000  1.000000  1.000000
 Range of M.O.s used for correlation:     8    79
 NBasis=    79 NAE=    25 NBE=    25 NFC=     7 NFV=     0
 NROrb=     72 NOA=    18 NOB=    18 NVA=    54 NVB=    54
 Fully direct method using O(ONN) memory.
 JobTyp=1 Pass  1:  I=   8 to  25 NPSUse=  8 ParTrn=T ParDer=T DoDerP=T.
 Spin components of T(2) and E(2):
     alpha-alpha T2 =       0.3101107929D-01 E2=     -0.7447355711D-01
     alpha-beta  T2 =       0.1962782235D+00 E2=     -0.4734726160D+00
     beta-beta   T2 =       0.3101107929D-01 E2=     -0.7447355711D-01
 ANorm=    0.1121739891D+01
 E2 =    -0.6224197302D+00 EUMP2 =    -0.26879881083905D+03
          IDoAtm=111111111111111
          Differentiating once with respect to electric field.
                with respect to dipole field.
          Differentiating once with respect to nuclear coordinates.
 Keep R1 ints in memory in symmetry-blocked form, NReq=7504047.
          There are     1 degrees of freedom in the 1st order CPHF.  IDoFFX=0 NUNeed=     1.
 LinEq1:  Iter=  0 NonCon=     1 RMS=5.10D-03 Max=6.41D-02 NDo=     1
 AX will form     1 AO Fock derivatives at one time.
 LinEq1:  Iter=  1 NonCon=     1 RMS=1.43D-03 Max=1.36D-02 NDo=     1
 LinEq1:  Iter=  2 NonCon=     1 RMS=3.47D-04 Max=7.84D-03 NDo=     1
 LinEq1:  Iter=  3 NonCon=     1 RMS=1.14D-04 Max=2.94D-03 NDo=     1
 LinEq1:  Iter=  4 NonCon=     1 RMS=4.94D-05 Max=9.41D-04 NDo=     1
 LinEq1:  Iter=  5 NonCon=     1 RMS=9.50D-06 Max=1.09D-04 NDo=     1
 LinEq1:  Iter=  6 NonCon=     1 RMS=1.91D-06 Max=2.32D-05 NDo=     1
 LinEq1:  Iter=  7 NonCon=     1 RMS=6.83D-07 Max=6.72D-06 NDo=     1
 LinEq1:  Iter=  8 NonCon=     1 RMS=1.29D-07 Max=1.26D-06 NDo=     1
 LinEq1:  Iter=  9 NonCon=     1 RMS=3.03D-08 Max=2.35D-07 NDo=     1
 LinEq1:  Iter= 10 NonCon=     1 RMS=9.53D-09 Max=1.10D-07 NDo=     1
 LinEq1:  Iter= 11 NonCon=     1 RMS=1.72D-09 Max=1.29D-08 NDo=     1
 LinEq1:  Iter= 12 NonCon=     1 RMS=2.39D-10 Max=3.34D-09 NDo=     1
 LinEq1:  Iter= 13 NonCon=     0 RMS=3.02D-11 Max=4.16D-10 NDo=     1
 Linear equations converged to 1.000D-10 1.000D-09 after    13 iterations.
 End of Minotr F.D. properties file   721 does not exist.
 End of Minotr F.D. properties file   722 does not exist.
 End of Minotr F.D. properties file   788 does not exist.
 Calling FoFJK, ICntrl=  10002127 FMM=F ISym2X=1 I1Cent= 0 IOpClX= 0 NMat=1 NMatS=1 NMatT=0.
 ***** Axes restored to original set *****
 -------------------------------------------------------------------
 Center     Atomic                   Forces (Hartrees/Bohr)
 Number     Number              X              Y              Z
 -------------------------------------------------------------------
      1        6          -0.000652089    0.000301370   -0.002159761
      2        6          -0.001921997   -0.001088943   -0.000331951
      3        6           0.001385521   -0.000098277    0.000086033
      4        6           0.000678381    0.000868927    0.000849407
      5        6          -0.001885217   -0.001139250   -0.000371655
      6        6          -0.001280022    0.001160238   -0.001481892
      7        6           0.003341281    0.001573928    0.001100958
      8        1          -0.000321211    0.000747640    0.000280373
      9        1          -0.000675269   -0.000251248    0.000245584
     10        1           0.000163020   -0.000105716    0.000344908
     11        1           0.000195090   -0.000149582    0.000310287
     12        1          -0.000379576   -0.000655688   -0.000073624
     13        1           0.000494652   -0.000368273   -0.000600371
     14        1           0.001062180    0.000709456    0.000085045
     15        1          -0.000204746   -0.001504582    0.001716659
 -------------------------------------------------------------------
 Cartesian Forces:  Max     0.003341281 RMS     0.001042577

 GradGradGradGradGradGradGradGradGradGradGradGradGradGradGradGradGradGrad
 Berny optimization.
 Using GEDIIS/GDIIS optimizer.
 FormGI is forming the generalized inverse of G from B-inverse, IUseBI=4.
 Internal  Forces:  Max     0.001824869 RMS     0.000712752
 Search for a local minimum.
 Step number   6 out of a maximum of   81
 All quantities printed in internal units (Hartrees-Bohrs-Radians)
 Mixed Optimization -- En-DIIS/RFO-DIIS
 Update second derivatives using D2CorX and points    4    5    6
 DE= -5.30D-04 DEPred=-7.58D-04 R= 7.00D-01
 TightC=F SS=  1.41D+00  RLast= 2.09D-01 DXNew= 2.4000D+00 6.2847D-01
 Trust test= 7.00D-01 RLast= 2.09D-01 DXMaxT set to 1.43D+00
 ITU=  1  1  1  1  1  0
 Use linear search instead of GDIIS.
     Eigenvalues ---    0.00412   0.01483   0.01817   0.01831   0.02075
     Eigenvalues ---    0.02154   0.02325   0.02417   0.02672   0.02693
     Eigenvalues ---    0.05876   0.08164   0.09095   0.10376   0.15782
     Eigenvalues ---    0.15841   0.15989   0.16000   0.16121   0.16373
     Eigenvalues ---    0.17992   0.18814   0.21318   0.21883   0.31047
     Eigenvalues ---    0.31172   0.34028   0.34283   0.34886   0.34896
     Eigenvalues ---    0.34910   0.34913   0.34916   0.35078   0.37536
     Eigenvalues ---    0.40079   0.53499   0.55491   0.60636
 RFO step:  Lambda=-2.91784717D-04 EMin= 4.11794531D-03
 Quartic linear search produced a step of -0.21365.
 Iteration  1 RMS(Cart)=  0.02972432 RMS(Int)=  0.00045923
 Iteration  2 RMS(Cart)=  0.00066038 RMS(Int)=  0.00019304
 Iteration  3 RMS(Cart)=  0.00000021 RMS(Int)=  0.00019304
 ClnCor:  largest displacement from symmetrization is 8.78D-09 for atom    11.
 Variable       Old X    -DE/DX   Delta X   Delta X   Delta X     New X
                                 (Linear)    (Quad)   (Total)
    R1        2.56882  -0.00182  -0.00114  -0.00111  -0.00227   2.56654
    R2        2.88061   0.00008   0.00331  -0.00560  -0.00237   2.87824
    R3        2.05527   0.00044  -0.00004   0.00055   0.00051   2.05578
    R4        2.75694   0.00158   0.00535  -0.00355   0.00186   2.75879
    R5        2.05932   0.00001   0.00041  -0.00055  -0.00014   2.05918
    R6        2.59202   0.00004   0.00146   0.00176   0.00331   2.59533
    R7        2.05931   0.00017  -0.00059   0.00092   0.00033   2.05964
    R8        2.75694   0.00158   0.00535  -0.00355   0.00186   2.75879
    R9        2.05931   0.00017  -0.00059   0.00092   0.00033   2.05964
   R10        2.56882  -0.00182  -0.00114  -0.00111  -0.00227   2.56654
   R11        2.05932   0.00001   0.00041  -0.00055  -0.00014   2.05918
   R12        2.88061   0.00008   0.00331  -0.00560  -0.00237   2.87824
   R13        2.05527   0.00044  -0.00004   0.00055   0.00051   2.05578
   R14        2.06989  -0.00126   0.00019  -0.00434  -0.00414   2.06575
   R15        2.07387   0.00143  -0.00032   0.00316   0.00284   2.07671
    A1        2.11550  -0.00059  -0.00074  -0.01871  -0.01980   2.09570
    A2        2.10390  -0.00042  -0.00021   0.00554   0.00562   2.10951
    A3        2.06376   0.00100   0.00058   0.01316   0.01402   2.07778
    A4        2.17742   0.00002   0.00275  -0.01203  -0.00961   2.16781
    A5        2.07984  -0.00073  -0.00194   0.00365   0.00186   2.08170
    A6        2.02512   0.00072  -0.00096   0.00877   0.00798   2.03310
    A7        2.19162  -0.00043  -0.00141  -0.00263  -0.00405   2.18757
    A8        2.03209   0.00031  -0.00072   0.00418   0.00348   2.03556
    A9        2.05143   0.00012   0.00168  -0.00076   0.00096   2.05239
   A10        2.19162  -0.00043  -0.00141  -0.00263  -0.00405   2.18757
   A11        2.05143   0.00012   0.00168  -0.00076   0.00096   2.05239
   A12        2.03209   0.00031  -0.00072   0.00418   0.00348   2.03556
   A13        2.17742   0.00002   0.00275  -0.01203  -0.00961   2.16781
   A14        2.02512   0.00072  -0.00096   0.00877   0.00798   2.03310
   A15        2.07984  -0.00073  -0.00194   0.00365   0.00186   2.08170
   A16        2.11550  -0.00059  -0.00074  -0.01871  -0.01980   2.09570
   A17        2.10390  -0.00042  -0.00021   0.00554   0.00562   2.10951
   A18        2.06376   0.00100   0.00058   0.01316   0.01402   2.07778
   A19        1.86798  -0.00025  -0.00680  -0.01343  -0.02098   1.84701
   A20        1.93910  -0.00059  -0.00290   0.00420   0.00166   1.94076
   A21        1.90144   0.00114   0.00690   0.00311   0.01019   1.91163
   A22        1.93910  -0.00059  -0.00290   0.00420   0.00166   1.94076
   A23        1.90144   0.00114   0.00690   0.00311   0.01019   1.91163
   A24        1.91368  -0.00075  -0.00112  -0.00137  -0.00264   1.91104
    D1        0.12678   0.00013   0.01126  -0.00104   0.00999   0.13677
    D2       -3.05978   0.00056   0.00759   0.00993   0.01725  -3.04253
    D3       -3.02230  -0.00047  -0.00087  -0.00285  -0.00376  -3.02606
    D4        0.07433  -0.00003  -0.00455   0.00812   0.00350   0.07783
    D5       -1.18924  -0.00160  -0.00850  -0.04741  -0.05576  -1.24500
    D6        2.97419  -0.00036   0.00073  -0.04647  -0.04552   2.92868
    D7        0.86417   0.00020  -0.00054  -0.04945  -0.05002   0.81416
    D8        1.95966  -0.00102   0.00339  -0.04561  -0.04223   1.91744
    D9       -0.16009   0.00022   0.01262  -0.04467  -0.03199  -0.19207
   D10       -2.27011   0.00078   0.01135  -0.04766  -0.03648  -2.30659
   D11        0.58033   0.00036  -0.00783   0.02487   0.01679   0.59712
   D12       -2.70117   0.00045  -0.01136   0.03173   0.02027  -2.68090
   D13       -2.51756  -0.00002  -0.00422   0.01431   0.00984  -2.50773
   D14        0.48412   0.00006  -0.00775   0.02117   0.01332   0.49744
   D15        0.00000   0.00000   0.00000  -0.00000   0.00000   0.00000
   D16        3.00029   0.00010  -0.00377   0.00728   0.00369   3.00398
   D17       -3.00029  -0.00010   0.00377  -0.00728  -0.00369  -3.00398
   D18        0.00000  -0.00000   0.00000   0.00000   0.00000   0.00000
   D19       -0.58033  -0.00036   0.00783  -0.02487  -0.01679  -0.59712
   D20        2.51756   0.00002   0.00422  -0.01431  -0.00984   2.50773
   D21        2.70117  -0.00045   0.01136  -0.03173  -0.02027   2.68090
   D22       -0.48412  -0.00006   0.00775  -0.02117  -0.01332  -0.49744
   D23       -0.12678  -0.00013  -0.01126   0.00104  -0.00999  -0.13677
   D24        3.02230   0.00047   0.00087   0.00285   0.00376   3.02606
   D25        3.05978  -0.00056  -0.00759  -0.00993  -0.01725   3.04253
   D26       -0.07433   0.00003   0.00455  -0.00812  -0.00350  -0.07783
   D27        1.18924   0.00160   0.00850   0.04741   0.05576   1.24500
   D28       -2.97419   0.00036  -0.00073   0.04647   0.04552  -2.92868
   D29       -0.86417  -0.00020   0.00054   0.04945   0.05002  -0.81416
   D30       -1.95966   0.00102  -0.00339   0.04561   0.04223  -1.91744
   D31        0.16009  -0.00022  -0.01262   0.04467   0.03199   0.19207
   D32        2.27011  -0.00078  -0.01135   0.04766   0.03648   2.30659
         Item               Value     Threshold  Converged?
 Maximum Force            0.001825     0.000450     NO 
 RMS     Force            0.000713     0.000300     NO 
 Maximum Displacement     0.094498     0.001800     NO 
 RMS     Displacement     0.030101     0.001200     NO 
 Predicted change in Energy=-1.904495D-04
 GradGradGradGradGradGradGradGradGradGradGradGradGradGradGradGradGradGrad

                          Input orientation:                          
 ---------------------------------------------------------------------
 Center     Atomic      Atomic             Coordinates (Angstroms)
 Number     Number       Type             X           Y           Z
 ---------------------------------------------------------------------
      1          6           0       -1.487334   -0.254013   -1.449501
      2          6           0       -0.595647    0.762631   -1.323342
      3          6           0        0.853829    0.588771   -1.331819
      4          6           0        1.537441   -0.346252   -2.069794
      5          6           0        0.928579   -1.322158   -2.968780
      6          6           0       -0.277783   -1.908399   -2.755241
      7          6           0       -1.005064   -1.698656   -1.433535
      8          1           0       -2.552503   -0.053741   -1.543178
      9          1           0       -0.961957    1.785721   -1.242791
     10          1           0        1.439158    1.340858   -0.802986
     11          1           0        2.625346   -0.281574   -2.083505
     12          1           0        1.480278   -1.554692   -3.879241
     13          1           0       -0.729515   -2.547169   -3.511138
     14          1           0       -1.842225   -2.393695   -1.328404
     15          1           0       -0.302452   -1.842193   -0.600820
 ---------------------------------------------------------------------
                    Distance matrix (angstroms):
                    1          2          3          4          5
     1  C    0.000000
     2  C    1.358156   0.000000
     3  C    2.491020   1.459890   0.000000
     4  C    3.089099   2.517315   1.373390   0.000000
     5  C    3.047257   3.062201   2.517315   1.459890   0.000000
     6  C    2.430013   3.047257   3.089099   2.491020   1.358156
     7  C    1.523100   2.497539   2.949263   2.949263   2.497539
     8  H    1.087874   2.131685   3.472837   4.134069   3.969780
     9  H    2.116427   1.089671   2.176624   3.387659   4.026422
    10  H    3.394989   2.178428   1.089913   2.112062   3.470304
    11  H    4.161353   3.470304   2.112062   1.089913   2.178428
    12  H    4.049953   4.026422   3.387659   2.176624   1.089671
    13  H    3.175406   3.969780   4.134069   3.472837   2.131685
    14  H    2.172292   3.393579   4.020426   4.020426   3.393579
    15  H    2.155579   2.719027   2.789432   2.789432   2.719027
                    6          7          8          9         10
     6  C    0.000000
     7  C    1.523100   0.000000
     8  H    3.175406   2.261047   0.000000
     9  H    4.049953   3.489860   2.450243   0.000000
    10  H    4.161353   3.951008   4.292569   2.481267   0.000000
    11  H    3.394989   3.951008   5.210949   4.224837   2.383077
    12  H    2.116427   3.489860   4.896260   4.906500   4.224837
    13  H    1.087874   2.261047   3.662422   4.896260   5.210949
    14  H    2.172292   1.093147   2.454792   4.271969   4.999043
    15  H    2.155579   1.098946   3.024786   3.742837   3.633991
                   11         12         13         14         15
    11  H    0.000000
    12  H    2.481267   0.000000
    13  H    4.292569   2.450243   0.000000
    14  H    4.999043   4.271969   2.454792   0.000000
    15  H    3.633991   3.742837   3.024786   1.790094   0.000000
 Stoichiometry    C7H8
 Framework group  CS[SG(CH2),X(C6H6)]
 Deg. of freedom    21
 Full point group                 CS      NOp   2
 Largest Abelian subgroup         CS      NOp   2
 Largest concise Abelian subgroup CS      NOp   2
                         Standard orientation:                         
 ---------------------------------------------------------------------
 Center     Atomic      Atomic             Coordinates (Angstroms)
 Number     Number       Type             X           Y           Z
 ---------------------------------------------------------------------
      1          6           0       -0.278235    0.960949   -1.215007
      2          6           0       -0.278235   -0.359911   -1.531101
      3          6           0        0.291174   -1.405871   -0.686695
      4          6           0        0.291174   -1.405871    0.686695
      5          6           0       -0.278235   -0.359911    1.531101
      6          6           0       -0.278235    0.960949    1.215007
      7          6           0        0.496038    1.455009   -0.000000
      8          1           0       -0.810615    1.682290   -1.831211
      9          1           0       -0.757794   -0.687092   -2.453250
     10          1           0        0.632277   -2.309581   -1.191539
     11          1           0        0.632277   -2.309581    1.191539
     12          1           0       -0.757794   -0.687092    2.453250
     13          1           0       -0.810615    1.682290    1.831211
     14          1           0        0.578005    2.545079   -0.000000
     15          1           0        1.501572    1.011631   -0.000000
 ---------------------------------------------------------------------
 Rotational constants (GHZ):           3.6709746           3.6375097           2.0357151
 Standard basis: 3-21G* (6D, 7F)
 There are    44 symmetry adapted cartesian basis functions of A'  symmetry.
 There are    35 symmetry adapted cartesian basis functions of A"  symmetry.
 There are    44 symmetry adapted basis functions of A'  symmetry.
 There are    35 symmetry adapted basis functions of A"  symmetry.
    79 basis functions,   129 primitive gaussians,    79 cartesian basis functions
    25 alpha electrons       25 beta electrons
       nuclear repulsion energy       270.3799887577 Hartrees.
 NAtoms=   15 NActive=   15 NUniq=    9 SFac= 2.78D+00 NAtFMM=   60 NAOKFM=F Big=F
 Integral buffers will be    131072 words long.
 Raffenetti 1 integral format.
 Two-electron integral symmetry is turned on.
 One-electron integrals computed using PRISM.
 NBasis=    79 RedAO= T EigKep=  4.77D-03  NBF=    44    35
 NBsUse=    79 1.00D-06 EigRej= -1.00D+00 NBFU=    44    35
 Initial guess from the checkpoint file:  "Cycloheptatriene.chk"
 B after Tr=     0.000000   -0.000000   -0.000000
         Rot=    0.999999    0.000000   -0.000000    0.001129 Ang=   0.13 deg.
 Initial guess orbital symmetries:
       Occupied  (A") (A') (A") (A') (A') (A") (A') (A') (A") (A')
                 (A') (A") (A') (A') (A") (A") (A') (A') (A") (A')
                 (A') (A") (A') (A") (A')
       Virtual   (A") (A') (A') (A") (A') (A") (A') (A') (A") (A")
                 (A') (A') (A") (A") (A') (A') (A") (A") (A') (A')
                 (A") (A') (A') (A") (A') (A') (A") (A") (A') (A')
                 (A") (A') (A") (A") (A') (A") (A') (A") (A') (A")
                 (A') (A") (A') (A') (A') (A") (A') (A") (A') (A")
                 (A') (A") (A') (A")
 ExpMin= 1.83D-01 ExpMax= 1.72D+02 ExpMxC= 1.72D+02 IAcc=3 IRadAn=         5 AccDes= 0.00D+00
 Harris functional with IExCor=  205 and IRadAn=       5 diagonalized for initial guess.
 HarFok:  IExCor=  205 AccDes= 0.00D+00 IRadAn=         5 IDoV= 1 UseB2=F ITyADJ=14
 ICtDFT=  3500011 ScaDFX=  1.000000  1.000000  1.000000  1.000000
 FoFCou: FMM=F IPFlag=           0 FMFlag=      100000 FMFlg1=           0
         NFxFlg=           0 DoJE=T BraDBF=F KetDBF=T FulRan=T
         wScrn=  0.000000 ICntrl=       500 IOpCl=  0 I1Cent=   200000004 NGrid=           0
         NMat0=    1 NMatS0=      1 NMatT0=    0 NMatD0=    1 NMtDS0=    0 NMtDT0=    0
 Petite list used in FoFCou.
 Keep R1 ints in memory in symmetry-blocked form, NReq=7502338.
 Requested convergence on RMS density matrix=1.00D-08 within 128 cycles.
 Requested convergence on MAX density matrix=1.00D-06.
 Requested convergence on             energy=1.00D-06.
 No special actions if energy rises.
 SCF Done:  E(RHF) =  -268.176215562     A.U. after   11 cycles
            NFock= 11  Conv=0.47D-08     -V/T= 2.0036
 ExpMin= 1.83D-01 ExpMax= 1.72D+02 ExpMxC= 1.72D+02 IAcc=3 IRadAn=         5 AccDes= 0.00D+00
 HarFok:  IExCor=  205 AccDes= 0.00D+00 IRadAn=         5 IDoV=-2 UseB2=F ITyADJ=14
 ICtDFT= 12500011 ScaDFX=  1.000000  1.000000  1.000000  1.000000
 Range of M.O.s used for correlation:     8    79
 NBasis=    79 NAE=    25 NBE=    25 NFC=     7 NFV=     0
 NROrb=     72 NOA=    18 NOB=    18 NVA=    54 NVB=    54
 Fully direct method using O(ONN) memory.
 JobTyp=1 Pass  1:  I=   8 to  25 NPSUse=  8 ParTrn=T ParDer=T DoDerP=T.
 Spin components of T(2) and E(2):
     alpha-alpha T2 =       0.3109462365D-01 E2=     -0.7459623751D-01
     alpha-beta  T2 =       0.1962265404D+00 E2=     -0.4734907527D+00
     beta-beta   T2 =       0.3109462365D-01 E2=     -0.7459623751D-01
 ANorm=    0.1121791330D+01
 E2 =    -0.6226832277D+00 EUMP2 =    -0.26879889878971D+03
          IDoAtm=111111111111111
          Differentiating once with respect to electric field.
                with respect to dipole field.
          Differentiating once with respect to nuclear coordinates.
 Keep R1 ints in memory in symmetry-blocked form, NReq=7504047.
          There are     1 degrees of freedom in the 1st order CPHF.  IDoFFX=0 NUNeed=     1.
 LinEq1:  Iter=  0 NonCon=     1 RMS=5.10D-03 Max=6.32D-02 NDo=     1
 AX will form     1 AO Fock derivatives at one time.
 LinEq1:  Iter=  1 NonCon=     1 RMS=1.43D-03 Max=1.37D-02 NDo=     1
 LinEq1:  Iter=  2 NonCon=     1 RMS=3.50D-04 Max=7.94D-03 NDo=     1
 LinEq1:  Iter=  3 NonCon=     1 RMS=1.16D-04 Max=2.99D-03 NDo=     1
 LinEq1:  Iter=  4 NonCon=     1 RMS=5.02D-05 Max=9.55D-04 NDo=     1
 LinEq1:  Iter=  5 NonCon=     1 RMS=9.76D-06 Max=1.15D-04 NDo=     1
 LinEq1:  Iter=  6 NonCon=     1 RMS=2.03D-06 Max=2.57D-05 NDo=     1
 LinEq1:  Iter=  7 NonCon=     1 RMS=7.29D-07 Max=7.30D-06 NDo=     1
 LinEq1:  Iter=  8 NonCon=     1 RMS=1.37D-07 Max=1.43D-06 NDo=     1
 LinEq1:  Iter=  9 NonCon=     1 RMS=3.31D-08 Max=2.53D-07 NDo=     1
 LinEq1:  Iter= 10 NonCon=     1 RMS=1.00D-08 Max=1.08D-07 NDo=     1
 LinEq1:  Iter= 11 NonCon=     1 RMS=1.75D-09 Max=1.28D-08 NDo=     1
 LinEq1:  Iter= 12 NonCon=     1 RMS=2.46D-10 Max=3.31D-09 NDo=     1
 LinEq1:  Iter= 13 NonCon=     0 RMS=3.19D-11 Max=4.47D-10 NDo=     1
 Linear equations converged to 1.000D-10 1.000D-09 after    13 iterations.
 End of Minotr F.D. properties file   721 does not exist.
 End of Minotr F.D. properties file   722 does not exist.
 End of Minotr F.D. properties file   788 does not exist.
 Calling FoFJK, ICntrl=  10002127 FMM=F ISym2X=1 I1Cent= 0 IOpClX= 0 NMat=1 NMatS=1 NMatT=0.
 ***** Axes restored to original set *****
 -------------------------------------------------------------------
 Center     Atomic                   Forces (Hartrees/Bohr)
 Number     Number              X              Y              Z
 -------------------------------------------------------------------
      1        6          -0.000044390   -0.000662210    0.000586986
      2        6          -0.000336823    0.000790676    0.000042064
      3        6           0.000894199    0.000072043   -0.000127732
      4        6           0.000431606    0.000704763    0.000371648
      5        6           0.000388466   -0.000201353   -0.000740904
      6        6          -0.000157217   -0.000507888    0.000708785
      7        6          -0.000492793    0.000532849   -0.001131617
      8        1           0.000021971    0.000006056    0.000271234
      9        1          -0.000026537    0.000005331   -0.000177921
     10        1           0.000029948   -0.000003744   -0.000002195
     11        1           0.000011396    0.000021630    0.000017832
     12        1          -0.000104949    0.000112580   -0.000093273
     13        1           0.000160278   -0.000183117    0.000121928
     14        1          -0.000405059   -0.000346161    0.000063371
     15        1          -0.000370095   -0.000341454    0.000089795
 -------------------------------------------------------------------
 Cartesian Forces:  Max     0.001131617 RMS     0.000401794

 GradGradGradGradGradGradGradGradGradGradGradGradGradGradGradGradGradGrad
 Berny optimization.
 Using GEDIIS/GDIIS optimizer.
 FormGI is forming the generalized inverse of G from B-inverse, IUseBI=4.
 Internal  Forces:  Max     0.000977787 RMS     0.000301143
 Search for a local minimum.
 Step number   7 out of a maximum of   81
 All quantities printed in internal units (Hartrees-Bohrs-Radians)
 Mixed Optimization -- En-DIIS/RFO-DIIS
 Swapping is turned off.
 Update second derivatives using D2CorX and points    5    6    7
 DE= -8.80D-05 DEPred=-1.90D-04 R= 4.62D-01
 Trust test= 4.62D-01 RLast= 1.70D-01 DXMaxT set to 1.43D+00
 ITU=  0  1  1  1  1  1  0
     Eigenvalues ---    0.00786   0.01479   0.01697   0.01820   0.02072
     Eigenvalues ---    0.02153   0.02327   0.02462   0.02674   0.02749
     Eigenvalues ---    0.06158   0.08029   0.08924   0.10206   0.15547
     Eigenvalues ---    0.15847   0.15991   0.15996   0.16012   0.16138
     Eigenvalues ---    0.17717   0.18585   0.21152   0.21885   0.30567
     Eigenvalues ---    0.31098   0.34041   0.34313   0.34878   0.34896
     Eigenvalues ---    0.34910   0.34913   0.34922   0.35013   0.37496
     Eigenvalues ---    0.40505   0.53424   0.55478   0.61567
 En-DIIS/RFO-DIIS/Sim-DIIS IScMMF=       -3 using points:     7    6
 RFO step:  Lambda=-1.28287813D-04.
 DidBck=T Rises=F RFO-DIIS coefs:    0.38467    0.61533
 Iteration  1 RMS(Cart)=  0.01742033 RMS(Int)=  0.00016776
 Iteration  2 RMS(Cart)=  0.00018513 RMS(Int)=  0.00007430
 Iteration  3 RMS(Cart)=  0.00000001 RMS(Int)=  0.00007430
 ClnCor:  largest displacement from symmetrization is 8.11D-09 for atom    11.
 Variable       Old X    -DE/DX   Delta X   Delta X   Delta X     New X
                                 (Linear)    (Quad)   (Total)
    R1        2.56654   0.00098   0.00140  -0.00116   0.00025   2.56679
    R2        2.87824  -0.00002   0.00146  -0.00055   0.00093   2.87917
    R3        2.05578  -0.00004  -0.00031   0.00054   0.00023   2.05601
    R4        2.75879   0.00094  -0.00114   0.00339   0.00222   2.76102
    R5        2.05918   0.00000   0.00009   0.00002   0.00011   2.05929
    R6        2.59533   0.00005  -0.00204   0.00023  -0.00184   2.59349
    R7        2.05964   0.00001  -0.00020   0.00020   0.00000   2.05964
    R8        2.75879   0.00094  -0.00114   0.00339   0.00222   2.76102
    R9        2.05964   0.00001  -0.00020   0.00020   0.00000   2.05964
   R10        2.56654   0.00098   0.00140  -0.00116   0.00025   2.56679
   R11        2.05918   0.00000   0.00009   0.00002   0.00011   2.05929
   R12        2.87824  -0.00002   0.00146  -0.00055   0.00093   2.87917
   R13        2.05578  -0.00004  -0.00031   0.00054   0.00023   2.05601
   R14        2.06575   0.00054   0.00255  -0.00121   0.00134   2.06709
   R15        2.07671  -0.00012  -0.00174   0.00184   0.00009   2.07680
    A1        2.09570   0.00039   0.01218  -0.00269   0.00967   2.10537
    A2        2.10951  -0.00021  -0.00346  -0.00132  -0.00484   2.10467
    A3        2.07778  -0.00017  -0.00863   0.00386  -0.00483   2.07295
    A4        2.16781   0.00010   0.00592  -0.00085   0.00520   2.17301
    A5        2.08170  -0.00009  -0.00115  -0.00192  -0.00313   2.07858
    A6        2.03310  -0.00002  -0.00491   0.00291  -0.00207   2.03103
    A7        2.18757  -0.00006   0.00249  -0.00108   0.00143   2.18900
    A8        2.03556   0.00006  -0.00214   0.00105  -0.00110   2.03447
    A9        2.05239   0.00001  -0.00059   0.00064   0.00003   2.05243
   A10        2.18757  -0.00006   0.00249  -0.00108   0.00143   2.18900
   A11        2.05239   0.00001  -0.00059   0.00064   0.00003   2.05243
   A12        2.03556   0.00006  -0.00214   0.00105  -0.00110   2.03447
   A13        2.16781   0.00010   0.00592  -0.00085   0.00520   2.17301
   A14        2.03310  -0.00002  -0.00491   0.00291  -0.00207   2.03103
   A15        2.08170  -0.00009  -0.00115  -0.00192  -0.00313   2.07858
   A16        2.09570   0.00039   0.01218  -0.00269   0.00967   2.10537
   A17        2.10951  -0.00021  -0.00346  -0.00132  -0.00484   2.10467
   A18        2.07778  -0.00017  -0.00863   0.00386  -0.00483   2.07295
   A19        1.84701   0.00013   0.01291  -0.00225   0.01095   1.85796
   A20        1.94076   0.00018  -0.00102  -0.00344  -0.00451   1.93625
   A21        1.91163  -0.00016  -0.00627   0.00789   0.00149   1.91312
   A22        1.94076   0.00018  -0.00102  -0.00344  -0.00451   1.93625
   A23        1.91163  -0.00016  -0.00627   0.00789   0.00149   1.91312
   A24        1.91104  -0.00017   0.00163  -0.00608  -0.00440   1.90664
    D1        0.13677  -0.00006  -0.00615   0.00092  -0.00513   0.13163
    D2       -3.04253  -0.00025  -0.01062   0.00544  -0.00507  -3.04760
    D3       -3.02606   0.00014   0.00231  -0.00733  -0.00501  -3.03107
    D4        0.07783  -0.00005  -0.00216  -0.00282  -0.00495   0.07288
    D5       -1.24500   0.00059   0.03431  -0.00728   0.02693  -1.21807
    D6        2.92868   0.00019   0.02801   0.00021   0.02816   2.95684
    D7        0.81416   0.00039   0.03078   0.00478   0.03559   0.84975
    D8        1.91744   0.00039   0.02598   0.00088   0.02682   1.94426
    D9       -0.19207  -0.00001   0.01968   0.00837   0.02805  -0.16402
   D10       -2.30659   0.00019   0.02245   0.01295   0.03548  -2.27111
   D11        0.59712  -0.00021  -0.01033   0.00200  -0.00823   0.58889
   D12       -2.68090  -0.00013  -0.01248   0.00749  -0.00495  -2.68585
   D13       -2.50773  -0.00003  -0.00605  -0.00231  -0.00826  -2.51599
   D14        0.49744   0.00005  -0.00820   0.00318  -0.00498   0.49246
   D15       -0.00000   0.00000   0.00000   0.00000   0.00000   0.00000
   D16        3.00398   0.00008  -0.00227   0.00556   0.00323   3.00721
   D17       -3.00398  -0.00008   0.00227  -0.00556  -0.00323  -3.00721
   D18        0.00000  -0.00000   0.00000  -0.00000   0.00000   0.00000
   D19       -0.59712   0.00021   0.01033  -0.00200   0.00823  -0.58889
   D20        2.50773   0.00003   0.00605   0.00231   0.00826   2.51599
   D21        2.68090   0.00013   0.01248  -0.00749   0.00495   2.68585
   D22       -0.49744  -0.00005   0.00820  -0.00318   0.00498  -0.49246
   D23       -0.13677   0.00006   0.00615  -0.00092   0.00513  -0.13163
   D24        3.02606  -0.00014  -0.00231   0.00733   0.00501   3.03107
   D25        3.04253   0.00025   0.01062  -0.00544   0.00507   3.04760
   D26       -0.07783   0.00005   0.00216   0.00282   0.00495  -0.07288
   D27        1.24500  -0.00059  -0.03431   0.00728  -0.02693   1.21807
   D28       -2.92868  -0.00019  -0.02801  -0.00021  -0.02816  -2.95684
   D29       -0.81416  -0.00039  -0.03078  -0.00478  -0.03559  -0.84975
   D30       -1.91744  -0.00039  -0.02598  -0.00088  -0.02682  -1.94426
   D31        0.19207   0.00001  -0.01968  -0.00837  -0.02805   0.16402
   D32        2.30659  -0.00019  -0.02245  -0.01295  -0.03548   2.27111
         Item               Value     Threshold  Converged?
 Maximum Force            0.000978     0.000450     NO 
 RMS     Force            0.000301     0.000300     NO 
 Maximum Displacement     0.056617     0.001800     NO 
 RMS     Displacement     0.017387     0.001200     NO 
 Predicted change in Energy=-6.493449D-05
 GradGradGradGradGradGradGradGradGradGradGradGradGradGradGradGradGradGrad

                          Input orientation:                          
 ---------------------------------------------------------------------
 Center     Atomic      Atomic             Coordinates (Angstroms)
 Number     Number       Type             X           Y           Z
 ---------------------------------------------------------------------
      1          6           0       -1.485329   -0.252555   -1.439434
      2          6           0       -0.592453    0.763842   -1.318380
      3          6           0        0.858948    0.597304   -1.338795
      4          6           0        1.542075   -0.337056   -2.076247
      5          6           0        0.933665   -1.323536   -2.965861
      6          6           0       -0.270398   -1.914299   -2.750981
      7          6           0       -1.016107   -1.702095   -1.439409
      8          1           0       -2.550801   -0.047034   -1.518542
      9          1           0       -0.961232    1.785657   -1.232312
     10          1           0        1.443846    1.354284   -0.816503
     11          1           0        2.629580   -0.267527   -2.096532
     12          1           0        1.486205   -1.561873   -3.874379
     13          1           0       -0.710932   -2.563551   -3.504725
     14          1           0       -1.864501   -2.387605   -1.356755
     15          1           0       -0.332412   -1.868517   -0.595219
 ---------------------------------------------------------------------
                    Distance matrix (angstroms):
                    1          2          3          4          5
     1  C    0.000000
     2  C    1.358287   0.000000
     3  C    2.495600   1.461067   0.000000
     4  C    3.094809   2.518442   1.372417   0.000000
     5  C    3.054261   3.066004   2.518442   1.461067   0.000000
     6  C    2.440821   3.054261   3.094809   2.495600   1.358287
     7  C    1.523593   2.504990   2.968701   2.968701   2.504990
     8  H    1.087993   2.129017   3.474747   4.140867   3.983176
     9  H    2.114682   1.089729   2.176368   3.388906   4.032729
    10  H    3.398534   2.178765   1.089914   2.111216   3.471418
    11  H    4.167070   3.471418   2.111216   1.089914   2.178765
    12  H    4.058729   4.032729   3.388906   2.176368   1.089729
    13  H    3.194655   3.983176   4.140867   3.474747   2.129017
    14  H    2.170033   3.398705   4.040690   4.040690   3.398705
    15  H    2.157139   2.742243   2.837696   2.837696   2.742243
                    6          7          8          9         10
     6  C    0.000000
     7  C    1.523593   0.000000
     8  H    3.194655   2.258489   0.000000
     9  H    4.058729   3.494325   2.442829   0.000000
    10  H    4.167070   3.972509   4.291125   2.478584   0.000000
    11  H    3.398534   3.972509   5.217187   4.225680   2.382165
    12  H    2.114682   3.494325   4.913463   4.916952   4.225680
    13  H    1.087993   2.258489   3.696336   4.913463   5.217187
    14  H    2.170033   1.093859   2.444474   4.271708   5.023819
    15  H    2.157139   1.098995   3.015224   3.762219   3.686530
                   11         12         13         14         15
    11  H    0.000000
    12  H    2.478584   0.000000
    13  H    4.291125   2.442829   0.000000
    14  H    5.023819   4.271708   2.444474   0.000000
    15  H    3.686530   3.762219   3.015224   1.787927   0.000000
 Stoichiometry    C7H8
 Framework group  CS[SG(CH2),X(C6H6)]
 Deg. of freedom    21
 Full point group                 CS      NOp   2
 Largest Abelian subgroup         CS      NOp   2
 Largest concise Abelian subgroup CS      NOp   2
                         Standard orientation:                         
 ---------------------------------------------------------------------
 Center     Atomic      Atomic             Coordinates (Angstroms)
 Number     Number       Type             X           Y           Z
 ---------------------------------------------------------------------
      1          6           0       -0.272820    0.959906   -1.220410
      2          6           0       -0.272820   -0.361922   -1.533002
      3          6           0        0.287208   -1.412649   -0.686208
      4          6           0        0.287208   -1.412649    0.686208
      5          6           0       -0.272820   -0.361922    1.533002
      6          6           0       -0.272820    0.959906    1.220410
      7          6           0        0.484026    1.468943   -0.000000
      8          1           0       -0.797240    1.677285   -1.848168
      9          1           0       -0.747137   -0.687546   -2.458476
     10          1           0        0.623236   -2.318243   -1.191082
     11          1           0        0.623236   -2.318243    1.191082
     12          1           0       -0.747137   -0.687546    2.458476
     13          1           0       -0.797240    1.677285    1.848168
     14          1           0        0.536096    2.561561   -0.000000
     15          1           0        1.503207    1.057773   -0.000000
 ---------------------------------------------------------------------
 Rotational constants (GHZ):           3.6528660           3.6335023           2.0213918
 Standard basis: 3-21G* (6D, 7F)
 There are    44 symmetry adapted cartesian basis functions of A'  symmetry.
 There are    35 symmetry adapted cartesian basis functions of A"  symmetry.
 There are    44 symmetry adapted basis functions of A'  symmetry.
 There are    35 symmetry adapted basis functions of A"  symmetry.
    79 basis functions,   129 primitive gaussians,    79 cartesian basis functions
    25 alpha electrons       25 beta electrons
       nuclear repulsion energy       269.9913699787 Hartrees.
 NAtoms=   15 NActive=   15 NUniq=    9 SFac= 2.78D+00 NAtFMM=   60 NAOKFM=F Big=F
 Integral buffers will be    131072 words long.
 Raffenetti 1 integral format.
 Two-electron integral symmetry is turned on.
 One-electron integrals computed using PRISM.
 NBasis=    79 RedAO= T EigKep=  4.81D-03  NBF=    44    35
 NBsUse=    79 1.00D-06 EigRej= -1.00D+00 NBFU=    44    35
 Initial guess from the checkpoint file:  "Cycloheptatriene.chk"
 B after Tr=    -0.000000    0.000000   -0.000000
         Rot=    1.000000   -0.000000    0.000000   -0.000810 Ang=  -0.09 deg.
 Initial guess orbital symmetries:
       Occupied  (A") (A') (A") (A') (A') (A") (A') (A') (A") (A')
                 (A') (A") (A') (A') (A") (A") (A') (A') (A') (A")
                 (A') (A") (A') (A") (A')
       Virtual   (A") (A') (A') (A") (A') (A") (A') (A') (A") (A")
                 (A') (A') (A") (A") (A') (A') (A") (A") (A') (A')
                 (A") (A') (A') (A") (A') (A') (A") (A") (A') (A')
                 (A") (A') (A") (A") (A") (A') (A') (A") (A') (A")
                 (A') (A") (A') (A') (A') (A") (A') (A") (A') (A")
                 (A') (A") (A') (A")
 ExpMin= 1.83D-01 ExpMax= 1.72D+02 ExpMxC= 1.72D+02 IAcc=3 IRadAn=         5 AccDes= 0.00D+00
 Harris functional with IExCor=  205 and IRadAn=       5 diagonalized for initial guess.
 HarFok:  IExCor=  205 AccDes= 0.00D+00 IRadAn=         5 IDoV= 1 UseB2=F ITyADJ=14
 ICtDFT=  3500011 ScaDFX=  1.000000  1.000000  1.000000  1.000000
 FoFCou: FMM=F IPFlag=           0 FMFlag=      100000 FMFlg1=           0
         NFxFlg=           0 DoJE=T BraDBF=F KetDBF=T FulRan=T
         wScrn=  0.000000 ICntrl=       500 IOpCl=  0 I1Cent=   200000004 NGrid=           0
         NMat0=    1 NMatS0=      1 NMatT0=    0 NMatD0=    1 NMtDS0=    0 NMtDT0=    0
 Petite list used in FoFCou.
 Keep R1 ints in memory in symmetry-blocked form, NReq=7502338.
 Requested convergence on RMS density matrix=1.00D-08 within 128 cycles.
 Requested convergence on MAX density matrix=1.00D-06.
 Requested convergence on             energy=1.00D-06.
 No special actions if energy rises.
 SCF Done:  E(RHF) =  -268.176422652     A.U. after   11 cycles
            NFock= 11  Conv=0.27D-08     -V/T= 2.0037
 ExpMin= 1.83D-01 ExpMax= 1.72D+02 ExpMxC= 1.72D+02 IAcc=3 IRadAn=         5 AccDes= 0.00D+00
 HarFok:  IExCor=  205 AccDes= 0.00D+00 IRadAn=         5 IDoV=-2 UseB2=F ITyADJ=14
 ICtDFT= 12500011 ScaDFX=  1.000000  1.000000  1.000000  1.000000
 Range of M.O.s used for correlation:     8    79
 NBasis=    79 NAE=    25 NBE=    25 NFC=     7 NFV=     0
 NROrb=     72 NOA=    18 NOB=    18 NVA=    54 NVB=    54
 Fully direct method using O(ONN) memory.
 JobTyp=1 Pass  1:  I=   8 to  25 NPSUse=  8 ParTrn=T ParDer=T DoDerP=T.
 Spin components of T(2) and E(2):
     alpha-alpha T2 =       0.3102789754D-01 E2=     -0.7450619872D-01
     alpha-beta  T2 =       0.1962680642D+00 E2=     -0.4735273794D+00
     beta-beta   T2 =       0.3102789754D-01 E2=     -0.7450619872D-01
 ANorm=    0.1121750355D+01
 E2 =    -0.6225397768D+00 EUMP2 =    -0.26879896242844D+03
          IDoAtm=111111111111111
          Differentiating once with respect to electric field.
                with respect to dipole field.
          Differentiating once with respect to nuclear coordinates.
 Keep R1 ints in memory in symmetry-blocked form, NReq=7504047.
          There are     1 degrees of freedom in the 1st order CPHF.  IDoFFX=0 NUNeed=     1.
 LinEq1:  Iter=  0 NonCon=     1 RMS=5.10D-03 Max=6.26D-02 NDo=     1
 AX will form     1 AO Fock derivatives at one time.
 LinEq1:  Iter=  1 NonCon=     1 RMS=1.43D-03 Max=1.36D-02 NDo=     1
 LinEq1:  Iter=  2 NonCon=     1 RMS=3.47D-04 Max=7.83D-03 NDo=     1
 LinEq1:  Iter=  3 NonCon=     1 RMS=1.14D-04 Max=2.93D-03 NDo=     1
 LinEq1:  Iter=  4 NonCon=     1 RMS=4.95D-05 Max=9.45D-04 NDo=     1
 LinEq1:  Iter=  5 NonCon=     1 RMS=9.58D-06 Max=1.11D-04 NDo=     1
 LinEq1:  Iter=  6 NonCon=     1 RMS=1.98D-06 Max=2.47D-05 NDo=     1
 LinEq1:  Iter=  7 NonCon=     1 RMS=7.06D-07 Max=7.02D-06 NDo=     1
 LinEq1:  Iter=  8 NonCon=     1 RMS=1.31D-07 Max=1.32D-06 NDo=     1
 LinEq1:  Iter=  9 NonCon=     1 RMS=3.18D-08 Max=2.42D-07 NDo=     1
 LinEq1:  Iter= 10 NonCon=     1 RMS=9.72D-09 Max=1.07D-07 NDo=     1
 LinEq1:  Iter= 11 NonCon=     1 RMS=1.71D-09 Max=1.24D-08 NDo=     1
 LinEq1:  Iter= 12 NonCon=     1 RMS=2.41D-10 Max=3.31D-09 NDo=     1
 LinEq1:  Iter= 13 NonCon=     0 RMS=3.12D-11 Max=4.38D-10 NDo=     1
 Linear equations converged to 1.000D-10 1.000D-09 after    13 iterations.
 End of Minotr F.D. properties file   721 does not exist.
 End of Minotr F.D. properties file   722 does not exist.
 End of Minotr F.D. properties file   788 does not exist.
 Calling FoFJK, ICntrl=  10002127 FMM=F ISym2X=1 I1Cent= 0 IOpClX= 0 NMat=1 NMatS=1 NMatT=0.
 ***** Axes restored to original set *****
 -------------------------------------------------------------------
 Center     Atomic                   Forces (Hartrees/Bohr)
 Number     Number              X              Y              Z
 -------------------------------------------------------------------
      1        6          -0.000043501   -0.000235935   -0.000135572
      2        6          -0.000265706    0.000153267   -0.000021507
      3        6           0.000339596   -0.000140439   -0.000051815
      4        6           0.000048418    0.000257824    0.000262518
      5        6          -0.000041670   -0.000153162   -0.000263359
      6        6          -0.000254373    0.000052489    0.000092070
      7        6           0.000404081    0.000360452   -0.000082383
      8        1           0.000007557    0.000050698    0.000099015
      9        1          -0.000028465    0.000002660   -0.000068083
     10        1          -0.000017565   -0.000022277    0.000057242
     11        1           0.000006661   -0.000055412    0.000031090
     12        1          -0.000048977    0.000030715   -0.000045941
     13        1           0.000091139   -0.000063623    0.000008787
     14        1          -0.000083461   -0.000100267    0.000049726
     15        1          -0.000113732   -0.000136990    0.000068214
 -------------------------------------------------------------------
 Cartesian Forces:  Max     0.000404081 RMS     0.000150275

 GradGradGradGradGradGradGradGradGradGradGradGradGradGradGradGradGradGrad
 Berny optimization.
 Using GEDIIS/GDIIS optimizer.
 FormGI is forming the generalized inverse of G from B-inverse, IUseBI=4.
 Internal  Forces:  Max     0.000273204 RMS     0.000068492
 Search for a local minimum.
 Step number   8 out of a maximum of   81
 All quantities printed in internal units (Hartrees-Bohrs-Radians)
 Mixed Optimization -- En-DIIS/RFO-DIIS
 Swapping is turned off.
 Update second derivatives using D2CorX and points    5    6    7    8
 DE= -6.36D-05 DEPred=-6.49D-05 R= 9.80D-01
 TightC=F SS=  1.41D+00  RLast= 1.11D-01 DXNew= 2.4000D+00 3.3225D-01
 Trust test= 9.80D-01 RLast= 1.11D-01 DXMaxT set to 1.43D+00
 ITU=  1  0  1  1  1  1  1  0
     Eigenvalues ---    0.00738   0.01479   0.01680   0.01825   0.02080
     Eigenvalues ---    0.02152   0.02324   0.02463   0.02672   0.02821
     Eigenvalues ---    0.06215   0.07891   0.09027   0.10296   0.15686
     Eigenvalues ---    0.15855   0.15909   0.15992   0.15997   0.16163
     Eigenvalues ---    0.17899   0.18700   0.21266   0.21883   0.30539
     Eigenvalues ---    0.31135   0.34046   0.34426   0.34885   0.34896
     Eigenvalues ---    0.34910   0.34913   0.34924   0.35082   0.37512
     Eigenvalues ---    0.39746   0.53460   0.55471   0.61623
 En-DIIS/RFO-DIIS/Sim-DIIS IScMMF=       -3 using points:     8    7    6
 RFO step:  Lambda=-3.71484142D-06.
 DidBck=F Rises=F RFO-DIIS coefs:    1.20704   -0.09251   -0.11453
 Iteration  1 RMS(Cart)=  0.00152329 RMS(Int)=  0.00000983
 Iteration  2 RMS(Cart)=  0.00000204 RMS(Int)=  0.00000971
 Iteration  3 RMS(Cart)=  0.00000000 RMS(Int)=  0.00000971
 ClnCor:  largest displacement from symmetrization is 6.92D-09 for atom    11.
 Variable       Old X    -DE/DX   Delta X   Delta X   Delta X     New X
                                 (Linear)    (Quad)   (Total)
    R1        2.56679   0.00003  -0.00021   0.00028   0.00007   2.56686
    R2        2.87917  -0.00009  -0.00008  -0.00040  -0.00049   2.87869
    R3        2.05601  -0.00001   0.00010  -0.00013  -0.00003   2.05598
    R4        2.76102   0.00027   0.00067   0.00014   0.00082   2.76183
    R5        2.05929   0.00001   0.00001   0.00000   0.00001   2.05930
    R6        2.59349  -0.00011  -0.00000  -0.00029  -0.00029   2.59320
    R7        2.05964   0.00000   0.00004  -0.00004   0.00000   2.05964
    R8        2.76102   0.00027   0.00067   0.00014   0.00082   2.76183
    R9        2.05964   0.00000   0.00004  -0.00004   0.00000   2.05964
   R10        2.56679   0.00003  -0.00021   0.00028   0.00007   2.56686
   R11        2.05929   0.00001   0.00001   0.00000   0.00001   2.05930
   R12        2.87917  -0.00009  -0.00008  -0.00040  -0.00049   2.87869
   R13        2.05601  -0.00001   0.00010  -0.00013  -0.00003   2.05598
   R14        2.06709   0.00013  -0.00020   0.00072   0.00053   2.06762
   R15        2.07680   0.00000   0.00034  -0.00033   0.00002   2.07682
    A1        2.10537   0.00002  -0.00027   0.00014  -0.00015   2.10522
    A2        2.10467  -0.00007  -0.00036  -0.00007  -0.00042   2.10425
    A3        2.07295   0.00005   0.00061  -0.00007   0.00055   2.07350
    A4        2.17301  -0.00006  -0.00002  -0.00070  -0.00074   2.17226
    A5        2.07858   0.00000  -0.00043   0.00055   0.00012   2.07870
    A6        2.03103   0.00006   0.00049   0.00016   0.00065   2.03168
    A7        2.18900  -0.00003  -0.00017  -0.00021  -0.00038   2.18861
    A8        2.03447  -0.00001   0.00017  -0.00005   0.00012   2.03459
    A9        2.05243   0.00003   0.00012   0.00028   0.00039   2.05282
   A10        2.18900  -0.00003  -0.00017  -0.00021  -0.00038   2.18861
   A11        2.05243   0.00003   0.00012   0.00028   0.00039   2.05282
   A12        2.03447  -0.00001   0.00017  -0.00005   0.00012   2.03459
   A13        2.17301  -0.00006  -0.00002  -0.00070  -0.00074   2.17226
   A14        2.03103   0.00006   0.00049   0.00016   0.00065   2.03168
   A15        2.07858   0.00000  -0.00043   0.00055   0.00012   2.07870
   A16        2.10537   0.00002  -0.00027   0.00014  -0.00015   2.10522
   A17        2.10467  -0.00007  -0.00036  -0.00007  -0.00042   2.10425
   A18        2.07295   0.00005   0.00061  -0.00007   0.00055   2.07350
   A19        1.85796  -0.00002  -0.00014   0.00009  -0.00009   1.85786
   A20        1.93625  -0.00002  -0.00074   0.00035  -0.00039   1.93586
   A21        1.91312   0.00008   0.00148  -0.00026   0.00122   1.91434
   A22        1.93625  -0.00002  -0.00074   0.00035  -0.00039   1.93586
   A23        1.91312   0.00008   0.00148  -0.00026   0.00122   1.91434
   A24        1.90664  -0.00009  -0.00121  -0.00026  -0.00148   1.90516
    D1        0.13163  -0.00003   0.00008  -0.00222  -0.00215   0.12948
    D2       -3.04760   0.00000   0.00093  -0.00194  -0.00103  -3.04863
    D3       -3.03107  -0.00007  -0.00147  -0.00212  -0.00358  -3.03465
    D4        0.07288  -0.00004  -0.00062  -0.00184  -0.00246   0.07042
    D5       -1.21807  -0.00009  -0.00081   0.00057  -0.00023  -1.21830
    D6        2.95684  -0.00003   0.00062  -0.00011   0.00051   2.95735
    D7        0.84975   0.00004   0.00164   0.00016   0.00180   0.85155
    D8        1.94426  -0.00004   0.00072   0.00046   0.00118   1.94544
    D9       -0.16402   0.00001   0.00214  -0.00022   0.00193  -0.16209
   D10       -2.27111   0.00008   0.00317   0.00006   0.00322  -2.26789
   D11        0.58889   0.00007   0.00022   0.00248   0.00269   0.59158
   D12       -2.68585   0.00007   0.00130   0.00260   0.00389  -2.68196
   D13       -2.51599   0.00004  -0.00058   0.00220   0.00160  -2.51439
   D14        0.49246   0.00004   0.00049   0.00232   0.00281   0.49526
   D15        0.00000  -0.00000   0.00000  -0.00000   0.00000   0.00000
   D16        3.00721  -0.00000   0.00109   0.00010   0.00120   3.00841
   D17       -3.00721   0.00000  -0.00109  -0.00010  -0.00120  -3.00841
   D18       -0.00000   0.00000   0.00000   0.00000   0.00000   0.00000
   D19       -0.58889  -0.00007  -0.00022  -0.00248  -0.00269  -0.59158
   D20        2.51599  -0.00004   0.00058  -0.00220  -0.00160   2.51439
   D21        2.68585  -0.00007  -0.00130  -0.00260  -0.00389   2.68196
   D22       -0.49246  -0.00004  -0.00049  -0.00232  -0.00281  -0.49526
   D23       -0.13163   0.00003  -0.00008   0.00222   0.00215  -0.12948
   D24        3.03107   0.00007   0.00147   0.00212   0.00358   3.03465
   D25        3.04760  -0.00000  -0.00093   0.00194   0.00103   3.04863
   D26       -0.07288   0.00004   0.00062   0.00184   0.00246  -0.07042
   D27        1.21807   0.00009   0.00081  -0.00057   0.00023   1.21830
   D28       -2.95684   0.00003  -0.00062   0.00011  -0.00051  -2.95735
   D29       -0.84975  -0.00004  -0.00164  -0.00016  -0.00180  -0.85155
   D30       -1.94426   0.00004  -0.00072  -0.00046  -0.00118  -1.94544
   D31        0.16402  -0.00001  -0.00214   0.00022  -0.00193   0.16209
   D32        2.27111  -0.00008  -0.00317  -0.00006  -0.00322   2.26789
         Item               Value     Threshold  Converged?
 Maximum Force            0.000273     0.000450     YES
 RMS     Force            0.000068     0.000300     YES
 Maximum Displacement     0.005407     0.001800     NO 
 RMS     Displacement     0.001524     0.001200     NO 
 Predicted change in Energy=-1.822453D-06
 GradGradGradGradGradGradGradGradGradGradGradGradGradGradGradGradGradGrad

                          Input orientation:                          
 ---------------------------------------------------------------------
 Center     Atomic      Atomic             Coordinates (Angstroms)
 Number     Number       Type             X           Y           Z
 ---------------------------------------------------------------------
      1          6           0       -1.485216   -0.252523   -1.439832
      2          6           0       -0.592751    0.764417   -1.319912
      3          6           0        0.859026    0.597165   -1.338689
      4          6           0        1.542077   -0.337091   -2.076059
      5          6           0        0.933085   -1.322574   -2.967088
      6          6           0       -0.270533   -1.913930   -2.751112
      7          6           0       -1.015129   -1.701512   -1.439240
      8          1           0       -2.550850   -0.047196   -1.517033
      9          1           0       -0.961834    1.786238   -1.235173
     10          1           0        1.443693    1.352821   -0.814224
     11          1           0        2.629730   -0.269405   -2.094580
     12          1           0        1.484765   -1.560145   -3.876336
     13          1           0       -0.710259   -2.564701   -3.503995
     14          1           0       -1.863545   -2.387385   -1.356148
     15          1           0       -0.332106   -1.868739   -0.594654
 ---------------------------------------------------------------------
                    Distance matrix (angstroms):
                    1          2          3          4          5
     1  C    0.000000
     2  C    1.358324   0.000000
     3  C    2.495531   1.461500   0.000000
     4  C    3.094583   2.518445   1.372263   0.000000
     5  C    3.053801   3.065435   2.518445   1.461500   0.000000
     6  C    2.440325   3.053801   3.094583   2.495531   1.358324
     7  C    1.523336   2.504685   2.967572   2.967572   2.504685
     8  H    1.087977   2.128785   3.474805   4.141087   3.983347
     9  H    2.114796   1.089735   2.177187   3.388980   4.031744
    10  H    3.398091   2.179230   1.089915   2.111328   3.471783
    11  H    4.166745   3.471783   2.111328   1.089915   2.179230
    12  H    4.057982   4.031744   3.388980   2.177187   1.089735
    13  H    3.194917   3.983347   4.141087   3.474805   2.128785
    14  H    2.169740   3.398542   4.039832   4.039832   3.398542
    15  H    2.157810   2.743620   2.837793   2.837793   2.743620
                    6          7          8          9         10
     6  C    0.000000
     7  C    1.523336   0.000000
     8  H    3.194917   2.258595   0.000000
     9  H    4.057982   3.494122   2.442519   0.000000
    10  H    4.166745   3.970566   4.290730   2.480244   0.000000
    11  H    3.398091   3.970566   5.217409   4.226533   2.382774
    12  H    2.114796   3.494122   4.913402   4.915269   4.226533
    13  H    1.087977   2.258595   3.697786   4.913402   5.217409
    14  H    2.169740   1.094137   2.444332   4.271634   5.022016
    15  H    2.157810   1.099005   3.015233   3.763733   3.685122
                   11         12         13         14         15
    11  H    0.000000
    12  H    2.480244   0.000000
    13  H    4.290730   2.442519   0.000000
    14  H    5.022016   4.271634   2.444332   0.000000
    15  H    3.685122   3.763733   3.015233   1.787225   0.000000
 Stoichiometry    C7H8
 Framework group  CS[SG(CH2),X(C6H6)]
 Deg. of freedom    21
 Full point group                 CS      NOp   2
 Largest Abelian subgroup         CS      NOp   2
 Largest concise Abelian subgroup CS      NOp   2
                         Standard orientation:                         
 ---------------------------------------------------------------------
 Center     Atomic      Atomic             Coordinates (Angstroms)
 Number     Number       Type             X           Y           Z
 ---------------------------------------------------------------------
      1          6           0       -0.273760    0.959676   -1.220163
      2          6           0       -0.273760   -0.362199   -1.532718
      3          6           0        0.289123   -1.412169   -0.686131
      4          6           0        0.289123   -1.412169    0.686131
      5          6           0       -0.273760   -0.362199    1.532718
      6          6           0       -0.273760    0.959676    1.220163
      7          6           0        0.483133    1.468468    0.000000
      8          1           0       -0.797268    1.676845   -1.848893
      9          1           0       -0.748980   -0.688108   -2.457634
     10          1           0        0.628346   -2.316358   -1.191387
     11          1           0        0.628346   -2.316358    1.191387
     12          1           0       -0.748980   -0.688108    2.457634
     13          1           0       -0.797268    1.676845    1.848893
     14          1           0        0.534620    2.561393    0.000000
     15          1           0        1.503151    1.059354    0.000000
 ---------------------------------------------------------------------
 Rotational constants (GHZ):           3.6532386           3.6333901           2.0221783
 Standard basis: 3-21G* (6D, 7F)
 There are    44 symmetry adapted cartesian basis functions of A'  symmetry.
 There are    35 symmetry adapted cartesian basis functions of A"  symmetry.
 There are    44 symmetry adapted basis functions of A'  symmetry.
 There are    35 symmetry adapted basis functions of A"  symmetry.
    79 basis functions,   129 primitive gaussians,    79 cartesian basis functions
    25 alpha electrons       25 beta electrons
       nuclear repulsion energy       269.9986398923 Hartrees.
 NAtoms=   15 NActive=   15 NUniq=    9 SFac= 2.78D+00 NAtFMM=   60 NAOKFM=F Big=F
 Integral buffers will be    131072 words long.
 Raffenetti 1 integral format.
 Two-electron integral symmetry is turned on.
 One-electron integrals computed using PRISM.
 NBasis=    79 RedAO= T EigKep=  4.81D-03  NBF=    44    35
 NBsUse=    79 1.00D-06 EigRej= -1.00D+00 NBFU=    44    35
 Initial guess from the checkpoint file:  "Cycloheptatriene.chk"
 B after Tr=     0.000000   -0.000000    0.000000
         Rot=    1.000000   -0.000000   -0.000000   -0.000476 Ang=  -0.05 deg.
 Initial guess orbital symmetries:
       Occupied  (A") (A') (A") (A') (A') (A") (A') (A') (A") (A')
                 (A') (A") (A') (A') (A") (A") (A') (A') (A") (A')
                 (A') (A") (A') (A") (A')
       Virtual   (A") (A') (A') (A") (A') (A") (A') (A') (A") (A")
                 (A') (A') (A") (A") (A') (A') (A") (A") (A') (A')
                 (A") (A') (A') (A") (A') (A') (A") (A") (A') (A')
                 (A") (A') (A") (A") (A") (A') (A') (A") (A') (A")
                 (A') (A") (A') (A') (A') (A") (A') (A") (A') (A")
                 (A') (A") (A') (A")
 Keep R1 ints in memory in symmetry-blocked form, NReq=7502338.
 Requested convergence on RMS density matrix=1.00D-08 within 128 cycles.
 Requested convergence on MAX density matrix=1.00D-06.
 Requested convergence on             energy=1.00D-06.
 No special actions if energy rises.
 SCF Done:  E(RHF) =  -268.176414405     A.U. after    9 cycles
            NFock=  9  Conv=0.68D-08     -V/T= 2.0037
 ExpMin= 1.83D-01 ExpMax= 1.72D+02 ExpMxC= 1.72D+02 IAcc=3 IRadAn=         5 AccDes= 0.00D+00
 HarFok:  IExCor=  205 AccDes= 0.00D+00 IRadAn=         5 IDoV=-2 UseB2=F ITyADJ=14
 ICtDFT= 12500011 ScaDFX=  1.000000  1.000000  1.000000  1.000000
 Range of M.O.s used for correlation:     8    79
 NBasis=    79 NAE=    25 NBE=    25 NFC=     7 NFV=     0
 NROrb=     72 NOA=    18 NOB=    18 NVA=    54 NVB=    54
 Fully direct method using O(ONN) memory.
 JobTyp=1 Pass  1:  I=   8 to  25 NPSUse=  8 ParTrn=T ParDer=T DoDerP=T.
 Spin components of T(2) and E(2):
     alpha-alpha T2 =       0.3101950179D-01 E2=     -0.7449953313D-01
     alpha-beta  T2 =       0.1962763816D+00 E2=     -0.4735513064D+00
     beta-beta   T2 =       0.3101950179D-01 E2=     -0.7449953313D-01
 ANorm=    0.1121746578D+01
 E2 =    -0.6225503727D+00 EUMP2 =    -0.26879896477780D+03
          IDoAtm=111111111111111
          Differentiating once with respect to electric field.
                with respect to dipole field.
          Differentiating once with respect to nuclear coordinates.
 Keep R1 ints in memory in symmetry-blocked form, NReq=7504047.
          There are     1 degrees of freedom in the 1st order CPHF.  IDoFFX=0 NUNeed=     1.
 LinEq1:  Iter=  0 NonCon=     1 RMS=5.10D-03 Max=6.24D-02 NDo=     1
 AX will form     1 AO Fock derivatives at one time.
 LinEq1:  Iter=  1 NonCon=     1 RMS=1.43D-03 Max=1.36D-02 NDo=     1
 LinEq1:  Iter=  2 NonCon=     1 RMS=3.46D-04 Max=7.81D-03 NDo=     1
 LinEq1:  Iter=  3 NonCon=     1 RMS=1.14D-04 Max=2.92D-03 NDo=     1
 LinEq1:  Iter=  4 NonCon=     1 RMS=4.94D-05 Max=9.45D-04 NDo=     1
 LinEq1:  Iter=  5 NonCon=     1 RMS=9.57D-06 Max=1.11D-04 NDo=     1
 LinEq1:  Iter=  6 NonCon=     1 RMS=1.99D-06 Max=2.48D-05 NDo=     1
 LinEq1:  Iter=  7 NonCon=     1 RMS=7.05D-07 Max=7.03D-06 NDo=     1
 LinEq1:  Iter=  8 NonCon=     1 RMS=1.31D-07 Max=1.31D-06 NDo=     1
 LinEq1:  Iter=  9 NonCon=     1 RMS=3.17D-08 Max=2.41D-07 NDo=     1
 LinEq1:  Iter= 10 NonCon=     1 RMS=9.71D-09 Max=1.07D-07 NDo=     1
 LinEq1:  Iter= 11 NonCon=     1 RMS=1.71D-09 Max=1.23D-08 NDo=     1
 LinEq1:  Iter= 12 NonCon=     1 RMS=2.40D-10 Max=3.30D-09 NDo=     1
 LinEq1:  Iter= 13 NonCon=     0 RMS=3.12D-11 Max=4.38D-10 NDo=     1
 Linear equations converged to 1.000D-10 1.000D-09 after    13 iterations.
 End of Minotr F.D. properties file   721 does not exist.
 End of Minotr F.D. properties file   722 does not exist.
 End of Minotr F.D. properties file   788 does not exist.
 Calling FoFJK, ICntrl=  10002127 FMM=F ISym2X=1 I1Cent= 0 IOpClX= 0 NMat=1 NMatS=1 NMatT=0.
 ***** Axes restored to original set *****
 -------------------------------------------------------------------
 Center     Atomic                   Forces (Hartrees/Bohr)
 Number     Number              X              Y              Z
 -------------------------------------------------------------------
      1        6           0.000037355    0.000021799    0.000018199
      2        6          -0.000158028    0.000013159    0.000032520
      3        6           0.000155876   -0.000055812   -0.000082222
      4        6          -0.000003174    0.000161731    0.000089475
      5        6          -0.000053408   -0.000129938   -0.000080420
      6        6           0.000043354    0.000013593    0.000011723
      7        6          -0.000006611   -0.000009024    0.000005310
      8        1          -0.000003281   -0.000001568    0.000007372
      9        1           0.000020062   -0.000003025   -0.000028767
     10        1          -0.000019303   -0.000007754    0.000028943
     11        1           0.000000489   -0.000034825    0.000007577
     12        1          -0.000007317    0.000034424    0.000000791
     13        1           0.000001226   -0.000007732    0.000002507
     14        1          -0.000003315    0.000005551   -0.000010104
     15        1          -0.000003925   -0.000000578   -0.000002903
 -------------------------------------------------------------------
 Cartesian Forces:  Max     0.000161731 RMS     0.000053879

 GradGradGradGradGradGradGradGradGradGradGradGradGradGradGradGradGradGrad
 Berny optimization.
 Using GEDIIS/GDIIS optimizer.
 FormGI is forming the generalized inverse of G from B-inverse, IUseBI=4.
 Internal  Forces:  Max     0.000104093 RMS     0.000022490
 Search for a local minimum.
 Step number   9 out of a maximum of   81
 All quantities printed in internal units (Hartrees-Bohrs-Radians)
 Mixed Optimization -- En-DIIS/RFO-DIIS
 Swapping is turned off.
 Update second derivatives using D2CorX and points    5    6    7    8    9
 DE= -2.35D-06 DEPred=-1.82D-06 R= 1.29D+00
 TightC=F SS=  1.41D+00  RLast= 1.29D-02 DXNew= 2.4000D+00 3.8776D-02
 Trust test= 1.29D+00 RLast= 1.29D-02 DXMaxT set to 1.43D+00
 ITU=  1  1  0  1  1  1  1  1  0
     Eigenvalues ---    0.00746   0.01362   0.01478   0.01825   0.02019
     Eigenvalues ---    0.02152   0.02324   0.02469   0.02672   0.02857
     Eigenvalues ---    0.06210   0.07966   0.09030   0.10297   0.15733
     Eigenvalues ---    0.15857   0.15959   0.15992   0.15996   0.16455
     Eigenvalues ---    0.17938   0.18695   0.21164   0.21880   0.30512
     Eigenvalues ---    0.31134   0.34092   0.34468   0.34896   0.34903
     Eigenvalues ---    0.34910   0.34913   0.34945   0.35164   0.37507
     Eigenvalues ---    0.38081   0.53453   0.55292   0.61967
 En-DIIS/RFO-DIIS/Sim-DIIS IScMMF=       -3 using points:     9    8    7    6
 RFO step:  Lambda=-3.42988063D-07.
 DidBck=F Rises=F RFO-DIIS coefs:    1.30091   -0.30558   -0.00277    0.00744
 Iteration  1 RMS(Cart)=  0.00043611 RMS(Int)=  0.00000029
 Iteration  2 RMS(Cart)=  0.00000018 RMS(Int)=  0.00000024
 ClnCor:  largest displacement from symmetrization is 8.05D-12 for atom    11.
 Variable       Old X    -DE/DX   Delta X   Delta X   Delta X     New X
                                 (Linear)    (Quad)   (Total)
    R1        2.56686  -0.00003   0.00004  -0.00012  -0.00008   2.56678
    R2        2.87869   0.00001  -0.00013   0.00014   0.00001   2.87869
    R3        2.05598   0.00000  -0.00001   0.00003   0.00001   2.05599
    R4        2.76183   0.00010   0.00022   0.00017   0.00039   2.76222
    R5        2.05930  -0.00001   0.00000  -0.00005  -0.00004   2.05926
    R6        2.59320  -0.00007  -0.00010  -0.00011  -0.00021   2.59299
    R7        2.05964  -0.00000  -0.00000  -0.00000  -0.00000   2.05964
    R8        2.76183   0.00010   0.00022   0.00017   0.00039   2.76222
    R9        2.05964  -0.00000  -0.00000  -0.00000  -0.00000   2.05964
   R10        2.56686  -0.00003   0.00004  -0.00012  -0.00008   2.56678
   R11        2.05930  -0.00001   0.00000  -0.00005  -0.00004   2.05926
   R12        2.87869   0.00001  -0.00013   0.00014   0.00001   2.87869
   R13        2.05598   0.00000  -0.00001   0.00003   0.00001   2.05599
   R14        2.06762  -0.00000   0.00018  -0.00015   0.00003   2.06765
   R15        2.07682  -0.00000  -0.00002   0.00002   0.00001   2.07682
    A1        2.10522   0.00001   0.00006   0.00011   0.00016   2.10538
    A2        2.10425  -0.00000  -0.00015   0.00002  -0.00012   2.10413
    A3        2.07350  -0.00001   0.00008  -0.00012  -0.00004   2.07346
    A4        2.17226  -0.00002  -0.00018   0.00005  -0.00013   2.17214
    A5        2.07870   0.00003   0.00004   0.00011   0.00014   2.07885
    A6        2.03168  -0.00001   0.00015  -0.00017  -0.00002   2.03166
    A7        2.18861   0.00001  -0.00009   0.00009   0.00000   2.18862
    A8        2.03459  -0.00002   0.00001  -0.00014  -0.00013   2.03446
    A9        2.05282   0.00002   0.00011   0.00013   0.00024   2.05306
   A10        2.18861   0.00001  -0.00009   0.00009   0.00000   2.18862
   A11        2.05282   0.00002   0.00011   0.00013   0.00024   2.05306
   A12        2.03459  -0.00002   0.00001  -0.00014  -0.00013   2.03446
   A13        2.17226  -0.00002  -0.00018   0.00005  -0.00013   2.17214
   A14        2.03168  -0.00001   0.00015  -0.00017  -0.00002   2.03166
   A15        2.07870   0.00003   0.00004   0.00011   0.00014   2.07885
   A16        2.10522   0.00001   0.00006   0.00011   0.00016   2.10538
   A17        2.10425  -0.00000  -0.00015   0.00002  -0.00012   2.10413
   A18        2.07350  -0.00001   0.00008  -0.00012  -0.00004   2.07346
   A19        1.85786   0.00001   0.00008   0.00014   0.00022   1.85808
   A20        1.93586  -0.00001  -0.00011  -0.00009  -0.00020   1.93567
   A21        1.91434  -0.00000   0.00028  -0.00012   0.00016   1.91450
   A22        1.93586  -0.00001  -0.00011  -0.00009  -0.00020   1.93567
   A23        1.91434  -0.00000   0.00028  -0.00012   0.00016   1.91450
   A24        1.90516   0.00000  -0.00040   0.00026  -0.00014   1.90502
    D1        0.12948  -0.00000  -0.00070   0.00021  -0.00049   0.12899
    D2       -3.04863  -0.00001  -0.00042  -0.00033  -0.00075  -3.04938
    D3       -3.03465  -0.00000  -0.00103   0.00059  -0.00044  -3.03509
    D4        0.07042  -0.00001  -0.00074   0.00005  -0.00069   0.06972
    D5       -1.21830   0.00000   0.00022   0.00022   0.00043  -1.21787
    D6        2.95735   0.00001   0.00036   0.00029   0.00065   2.95800
    D7        0.85155   0.00000   0.00075   0.00009   0.00084   0.85239
    D8        1.94544  -0.00000   0.00054  -0.00016   0.00038   1.94582
    D9       -0.16209   0.00000   0.00069  -0.00009   0.00060  -0.16150
   D10       -2.26789   0.00000   0.00107  -0.00029   0.00079  -2.26710
   D11        0.59158  -0.00000   0.00072  -0.00037   0.00035   0.59192
   D12       -2.68196   0.00002   0.00104   0.00035   0.00139  -2.68057
   D13       -2.51439   0.00001   0.00045   0.00015   0.00060  -2.51379
   D14        0.49526   0.00002   0.00077   0.00087   0.00164   0.49690
   D15       -0.00000   0.00000   0.00000   0.00000   0.00000   0.00000
   D16        3.00841   0.00001   0.00032   0.00071   0.00103   3.00943
   D17       -3.00841  -0.00001  -0.00032  -0.00071  -0.00103  -3.00943
   D18       -0.00000  -0.00000   0.00000  -0.00000   0.00000   0.00000
   D19       -0.59158   0.00000  -0.00072   0.00037  -0.00035  -0.59192
   D20        2.51439  -0.00001  -0.00045  -0.00015  -0.00060   2.51379
   D21        2.68196  -0.00002  -0.00104  -0.00035  -0.00139   2.68057
   D22       -0.49526  -0.00002  -0.00077  -0.00087  -0.00164  -0.49690
   D23       -0.12948   0.00000   0.00070  -0.00021   0.00049  -0.12899
   D24        3.03465   0.00000   0.00103  -0.00059   0.00044   3.03509
   D25        3.04863   0.00001   0.00042   0.00033   0.00075   3.04938
   D26       -0.07042   0.00001   0.00074  -0.00005   0.00069  -0.06972
   D27        1.21830  -0.00000  -0.00022  -0.00022  -0.00043   1.21787
   D28       -2.95735  -0.00001  -0.00036  -0.00029  -0.00065  -2.95800
   D29       -0.85155  -0.00000  -0.00075  -0.00009  -0.00084  -0.85239
   D30       -1.94544   0.00000  -0.00054   0.00016  -0.00038  -1.94582
   D31        0.16209  -0.00000  -0.00069   0.00009  -0.00060   0.16150
   D32        2.26789  -0.00000  -0.00107   0.00029  -0.00079   2.26710
         Item               Value     Threshold  Converged?
 Maximum Force            0.000104     0.000450     YES
 RMS     Force            0.000022     0.000300     YES
 Maximum Displacement     0.001505     0.001800     YES
 RMS     Displacement     0.000436     0.001200     YES
 Predicted change in Energy=-1.713704D-07
 Optimization completed.
    -- Stationary point found.
                           ----------------------------
                           !   Optimized Parameters   !
                           ! (Angstroms and Degrees)  !
 --------------------------                            --------------------------
 ! Name  Definition              Value          Derivative Info.                !
 --------------------------------------------------------------------------------
 ! R1    R(1,2)                  1.3583         -DE/DX =    0.0                 !
 ! R2    R(1,7)                  1.5233         -DE/DX =    0.0                 !
 ! R3    R(1,8)                  1.088          -DE/DX =    0.0                 !
 ! R4    R(2,3)                  1.4615         -DE/DX =    0.0001              !
 ! R5    R(2,9)                  1.0897         -DE/DX =    0.0                 !
 ! R6    R(3,4)                  1.3723         -DE/DX =   -0.0001              !
 ! R7    R(3,10)                 1.0899         -DE/DX =    0.0                 !
 ! R8    R(4,5)                  1.4615         -DE/DX =    0.0001              !
 ! R9    R(4,11)                 1.0899         -DE/DX =    0.0                 !
 ! R10   R(5,6)                  1.3583         -DE/DX =    0.0                 !
 ! R11   R(5,12)                 1.0897         -DE/DX =    0.0                 !
 ! R12   R(6,7)                  1.5233         -DE/DX =    0.0                 !
 ! R13   R(6,13)                 1.088          -DE/DX =    0.0                 !
 ! R14   R(7,14)                 1.0941         -DE/DX =    0.0                 !
 ! R15   R(7,15)                 1.099          -DE/DX =    0.0                 !
 ! A1    A(2,1,7)              120.6202         -DE/DX =    0.0                 !
 ! A2    A(2,1,8)              120.5649         -DE/DX =    0.0                 !
 ! A3    A(7,1,8)              118.8026         -DE/DX =    0.0                 !
 ! A4    A(1,2,3)              124.4615         -DE/DX =    0.0                 !
 ! A5    A(1,2,9)              119.1008         -DE/DX =    0.0                 !
 ! A6    A(3,2,9)              116.4069         -DE/DX =    0.0                 !
 ! A7    A(2,3,4)              125.3984         -DE/DX =    0.0                 !
 ! A8    A(2,3,10)             116.5732         -DE/DX =    0.0                 !
 ! A9    A(4,3,10)             117.6179         -DE/DX =    0.0                 !
 ! A10   A(3,4,5)              125.3984         -DE/DX =    0.0                 !
 ! A11   A(3,4,11)             117.6179         -DE/DX =    0.0                 !
 ! A12   A(5,4,11)             116.5732         -DE/DX =    0.0                 !
 ! A13   A(4,5,6)              124.4615         -DE/DX =    0.0                 !
 ! A14   A(4,5,12)             116.4069         -DE/DX =    0.0                 !
 ! A15   A(6,5,12)             119.1008         -DE/DX =    0.0                 !
 ! A16   A(5,6,7)              120.6202         -DE/DX =    0.0                 !
 ! A17   A(5,6,13)             120.5649         -DE/DX =    0.0                 !
 ! A18   A(7,6,13)             118.8026         -DE/DX =    0.0                 !
 ! A19   A(1,7,6)              106.4477         -DE/DX =    0.0                 !
 ! A20   A(1,7,14)             110.9167         -DE/DX =    0.0                 !
 ! A21   A(1,7,15)             109.6833         -DE/DX =    0.0                 !
 ! A22   A(6,7,14)             110.9167         -DE/DX =    0.0                 !
 ! A23   A(6,7,15)             109.6833         -DE/DX =    0.0                 !
 ! A24   A(14,7,15)            109.1577         -DE/DX =    0.0                 !
 ! D1    D(7,1,2,3)              7.4187         -DE/DX =    0.0                 !
 ! D2    D(7,1,2,9)           -174.6739         -DE/DX =    0.0                 !
 ! D3    D(8,1,2,3)           -173.8729         -DE/DX =    0.0                 !
 ! D4    D(8,1,2,9)              4.0345         -DE/DX =    0.0                 !
 ! D5    D(2,1,7,6)            -69.8035         -DE/DX =    0.0                 !
 ! D6    D(2,1,7,14)           169.4436         -DE/DX =    0.0                 !
 ! D7    D(2,1,7,15)            48.7901         -DE/DX =    0.0                 !
 ! D8    D(8,1,7,6)            111.4656         -DE/DX =    0.0                 !
 ! D9    D(8,1,7,14)            -9.2873         -DE/DX =    0.0                 !
 ! D10   D(8,1,7,15)          -129.9407         -DE/DX =    0.0                 !
 ! D11   D(1,2,3,4)             33.8948         -DE/DX =    0.0                 !
 ! D12   D(1,2,3,10)          -153.6649         -DE/DX =    0.0                 !
 ! D13   D(9,2,3,4)           -144.0638         -DE/DX =    0.0                 !
 ! D14   D(9,2,3,10)            28.3766         -DE/DX =    0.0                 !
 ! D15   D(2,3,4,5)              0.0            -DE/DX =    0.0                 !
 ! D16   D(2,3,4,11)           172.369          -DE/DX =    0.0                 !
 ! D17   D(10,3,4,5)          -172.369          -DE/DX =    0.0                 !
 ! D18   D(10,3,4,11)            0.0            -DE/DX =    0.0                 !
 ! D19   D(3,4,5,6)            -33.8948         -DE/DX =    0.0                 !
 ! D20   D(3,4,5,12)           144.0638         -DE/DX =    0.0                 !
 ! D21   D(11,4,5,6)           153.6649         -DE/DX =    0.0                 !
 ! D22   D(11,4,5,12)          -28.3766         -DE/DX =    0.0                 !
 ! D23   D(4,5,6,7)             -7.4187         -DE/DX =    0.0                 !
 ! D24   D(4,5,6,13)           173.8729         -DE/DX =    0.0                 !
 ! D25   D(12,5,6,7)           174.6739         -DE/DX =    0.0                 !
 ! D26   D(12,5,6,13)           -4.0345         -DE/DX =    0.0                 !
 ! D27   D(5,6,7,1)             69.8035         -DE/DX =    0.0                 !
 ! D28   D(5,6,7,14)          -169.4436         -DE/DX =    0.0                 !
 ! D29   D(5,6,7,15)           -48.7901         -DE/DX =    0.0                 !
 ! D30   D(13,6,7,1)          -111.4656         -DE/DX =    0.0                 !
 ! D31   D(13,6,7,14)            9.2873         -DE/DX =    0.0                 !
 ! D32   D(13,6,7,15)          129.9407         -DE/DX =    0.0                 !
 --------------------------------------------------------------------------------
 GradGradGradGradGradGradGradGradGradGradGradGradGradGradGradGradGradGrad

                          Input orientation:                          
 ---------------------------------------------------------------------
 Center     Atomic      Atomic             Coordinates (Angstroms)
 Number     Number       Type             X           Y           Z
 ---------------------------------------------------------------------
      1          6           0       -1.485216   -0.252523   -1.439832
      2          6           0       -0.592751    0.764417   -1.319912
      3          6           0        0.859026    0.597165   -1.338689
      4          6           0        1.542077   -0.337091   -2.076059
      5          6           0        0.933085   -1.322574   -2.967088
      6          6           0       -0.270533   -1.913930   -2.751112
      7          6           0       -1.015129   -1.701512   -1.439240
      8          1           0       -2.550850   -0.047196   -1.517033
      9          1           0       -0.961834    1.786238   -1.235173
     10          1           0        1.443693    1.352821   -0.814224
     11          1           0        2.629730   -0.269405   -2.094580
     12          1           0        1.484765   -1.560145   -3.876336
     13          1           0       -0.710259   -2.564701   -3.503995
     14          1           0       -1.863545   -2.387385   -1.356148
     15          1           0       -0.332106   -1.868739   -0.594654
 ---------------------------------------------------------------------
                    Distance matrix (angstroms):
                    1          2          3          4          5
     1  C    0.000000
     2  C    1.358324   0.000000
     3  C    2.495531   1.461500   0.000000
     4  C    3.094583   2.518445   1.372263   0.000000
     5  C    3.053801   3.065435   2.518445   1.461500   0.000000
     6  C    2.440325   3.053801   3.094583   2.495531   1.358324
     7  C    1.523336   2.504685   2.967572   2.967572   2.504685
     8  H    1.087977   2.128785   3.474805   4.141087   3.983347
     9  H    2.114796   1.089735   2.177187   3.388980   4.031744
    10  H    3.398091   2.179230   1.089915   2.111328   3.471783
    11  H    4.166745   3.471783   2.111328   1.089915   2.179230
    12  H    4.057982   4.031744   3.388980   2.177187   1.089735
    13  H    3.194917   3.983347   4.141087   3.474805   2.128785
    14  H    2.169740   3.398542   4.039832   4.039832   3.398542
    15  H    2.157810   2.743620   2.837793   2.837793   2.743620
                    6          7          8          9         10
     6  C    0.000000
     7  C    1.523336   0.000000
     8  H    3.194917   2.258595   0.000000
     9  H    4.057982   3.494122   2.442519   0.000000
    10  H    4.166745   3.970566   4.290730   2.480244   0.000000
    11  H    3.398091   3.970566   5.217409   4.226533   2.382774
    12  H    2.114796   3.494122   4.913402   4.915269   4.226533
    13  H    1.087977   2.258595   3.697786   4.913402   5.217409
    14  H    2.169740   1.094137   2.444332   4.271634   5.022016
    15  H    2.157810   1.099005   3.015233   3.763733   3.685122
                   11         12         13         14         15
    11  H    0.000000
    12  H    2.480244   0.000000
    13  H    4.290730   2.442519   0.000000
    14  H    5.022016   4.271634   2.444332   0.000000
    15  H    3.685122   3.763733   3.015233   1.787225   0.000000
 Stoichiometry    C7H8
 Framework group  CS[SG(CH2),X(C6H6)]
 Deg. of freedom    21
 Full point group                 CS      NOp   2
 Largest Abelian subgroup         CS      NOp   2
 Largest concise Abelian subgroup CS      NOp   2
                         Standard orientation:                         
 ---------------------------------------------------------------------
 Center     Atomic      Atomic             Coordinates (Angstroms)
 Number     Number       Type             X           Y           Z
 ---------------------------------------------------------------------
      1          6           0       -0.273760    0.959676   -1.220163
      2          6           0       -0.273760   -0.362199   -1.532718
      3          6           0        0.289123   -1.412169   -0.686131
      4          6           0        0.289123   -1.412169    0.686131
      5          6           0       -0.273760   -0.362199    1.532718
      6          6           0       -0.273760    0.959676    1.220163
      7          6           0        0.483133    1.468468   -0.000000
      8          1           0       -0.797268    1.676845   -1.848893
      9          1           0       -0.748980   -0.688108   -2.457634
     10          1           0        0.628346   -2.316358   -1.191387
     11          1           0        0.628346   -2.316358    1.191387
     12          1           0       -0.748980   -0.688108    2.457634
     13          1           0       -0.797268    1.676845    1.848893
     14          1           0        0.534620    2.561393   -0.000000
     15          1           0        1.503151    1.059354   -0.000000
 ---------------------------------------------------------------------
 Rotational constants (GHZ):           3.6532386           3.6333901           2.0221783

 **********************************************************************

            Population analysis using the SCF Density.

 **********************************************************************

 Orbital symmetries:
       Occupied  (A") (A') (A") (A') (A') (A") (A') (A') (A") (A')
                 (A') (A") (A') (A') (A") (A") (A') (A') (A") (A')
                 (A') (A") (A') (A") (A')
       Virtual   (A") (A') (A') (A") (A') (A") (A') (A') (A") (A")
                 (A') (A') (A") (A") (A') (A') (A") (A") (A') (A')
                 (A") (A') (A') (A") (A') (A") (A') (A") (A') (A')
                 (A") (A') (A") (A") (A") (A') (A') (A") (A') (A")
                 (A') (A") (A') (A') (A') (A") (A') (A") (A') (A")
                 (A') (A") (A') (A")
 The electronic state is 1-A'.
 Alpha  occ. eigenvalues --  -11.18486 -11.18410 -11.18251 -11.18223 -11.17509
 Alpha  occ. eigenvalues --  -11.17387 -11.17367  -1.12548  -1.03187  -1.02825
 Alpha  occ. eigenvalues --   -0.89835  -0.84757  -0.73195  -0.69201  -0.68394
 Alpha  occ. eigenvalues --   -0.61607  -0.61196  -0.58245  -0.52247  -0.52235
 Alpha  occ. eigenvalues --   -0.50082  -0.47754  -0.42791  -0.34419  -0.30173
 Alpha virt. eigenvalues --    0.11716   0.17759   0.25369   0.27817   0.30800
 Alpha virt. eigenvalues --    0.30953   0.33386   0.36826   0.37111   0.37847
 Alpha virt. eigenvalues --    0.39032   0.41254   0.46817   0.53954   0.56183
 Alpha virt. eigenvalues --    0.59928   0.65371   0.71722   0.85620   0.94535
 Alpha virt. eigenvalues --    0.96232   0.96456   0.99340   0.99957   1.03693
 Alpha virt. eigenvalues --    1.06583   1.06591   1.09821   1.11317   1.11910
 Alpha virt. eigenvalues --    1.12651   1.15327   1.18701   1.23302   1.29338
 Alpha virt. eigenvalues --    1.29418   1.32338   1.33438   1.38931   1.41031
 Alpha virt. eigenvalues --    1.43338   1.43406   1.48035   1.58797   1.66467
 Alpha virt. eigenvalues --    1.68823   1.69917   1.74217   1.78071   1.78804
 Alpha virt. eigenvalues --    2.06811   2.19795   2.32738   2.42841
          Condensed to atoms (all electrons):
               1          2          3          4          5          6
     1  C    5.308927   0.523840  -0.091700   0.001260   0.001017  -0.102932
     2  C    0.523840   5.212323   0.364660  -0.085967  -0.004915   0.001017
     3  C   -0.091700   0.364660   5.188337   0.539060  -0.085967   0.001260
     4  C    0.001260  -0.085967   0.539060   5.188337   0.364660  -0.091700
     5  C    0.001017  -0.004915  -0.085967   0.364660   5.212323   0.523840
     6  C   -0.102932   0.001017   0.001260  -0.091700   0.523840   5.308927
     7  C    0.278485  -0.098056  -0.003744  -0.003744  -0.098056   0.278485
     8  H    0.396682  -0.038361   0.002229  -0.000057   0.000119   0.002876
     9  H   -0.036137   0.396029  -0.035875   0.001417  -0.000036   0.000042
    10  H    0.001870  -0.036448   0.396850  -0.040545   0.002318  -0.000104
    11  H   -0.000104   0.002318  -0.040545   0.396850  -0.036448   0.001870
    12  H    0.000042  -0.000036   0.001417  -0.035875   0.396029  -0.036137
    13  H    0.002876   0.000119  -0.000057   0.002229  -0.038361   0.396682
    14  H   -0.038977   0.002975   0.000081   0.000081   0.002975  -0.038977
    15  H   -0.051841  -0.003625   0.005112   0.005112  -0.003625  -0.051841
               7          8          9         10         11         12
     1  C    0.278485   0.396682  -0.036137   0.001870  -0.000104   0.000042
     2  C   -0.098056  -0.038361   0.396029  -0.036448   0.002318  -0.000036
     3  C   -0.003744   0.002229  -0.035875   0.396850  -0.040545   0.001417
     4  C   -0.003744  -0.000057   0.001417  -0.040545   0.396850  -0.035875
     5  C   -0.098056   0.000119  -0.000036   0.002318  -0.036448   0.396029
     6  C    0.278485   0.002876   0.000042  -0.000104   0.001870  -0.036137
     7  C    5.432182  -0.031174   0.002045   0.000046   0.000046   0.002045
     8  H   -0.031174   0.440442  -0.001175  -0.000036   0.000001   0.000002
     9  H    0.002045  -0.001175   0.444128  -0.000451  -0.000042   0.000002
    10  H    0.000046  -0.000036  -0.000451   0.449043  -0.001828  -0.000042
    11  H    0.000046   0.000001  -0.000042  -0.001828   0.449043  -0.000451
    12  H    0.002045   0.000002   0.000002  -0.000042  -0.000451   0.444128
    13  H   -0.031174  -0.000076   0.000002   0.000001  -0.000036  -0.001175
    14  H    0.387966  -0.002025  -0.000035   0.000001   0.000001  -0.000035
    15  H    0.392000   0.001513   0.000082   0.000100   0.000100   0.000082
              13         14         15
     1  C    0.002876  -0.038977  -0.051841
     2  C    0.000119   0.002975  -0.003625
     3  C   -0.000057   0.000081   0.005112
     4  C    0.002229   0.000081   0.005112
     5  C   -0.038361   0.002975  -0.003625
     6  C    0.396682  -0.038977  -0.051841
     7  C   -0.031174   0.387966   0.392000
     8  H   -0.000076  -0.002025   0.001513
     9  H    0.000002  -0.000035   0.000082
    10  H    0.000001   0.000001   0.000100
    11  H   -0.000036   0.000001   0.000100
    12  H   -0.001175  -0.000035   0.000082
    13  H    0.440442  -0.002025   0.001513
    14  H   -0.002025   0.484821  -0.016381
    15  H    0.001513  -0.016381   0.469840
 Mulliken charges:
               1
     1  C   -0.193309
     2  C   -0.235874
     3  C   -0.241116
     4  C   -0.241116
     5  C   -0.235874
     6  C   -0.193309
     7  C   -0.507353
     8  H    0.229042
     9  H    0.230004
    10  H    0.229223
    11  H    0.229223
    12  H    0.230004
    13  H    0.229042
    14  H    0.219553
    15  H    0.251860
 Sum of Mulliken charges =  -0.00000
 Mulliken charges with hydrogens summed into heavy atoms:
               1
     1  C    0.035733
     2  C   -0.005870
     3  C   -0.011893
     4  C   -0.011893
     5  C   -0.005870
     6  C    0.035733
     7  C   -0.035939
 Electronic spatial extent (au):  <R**2>=            656.5757
 Charge=             -0.0000 electrons
 Dipole moment (field-independent basis, Debye):
    X=             -0.1906    Y=              0.3196    Z=             -0.0000  Tot=              0.3721
 Quadrupole moment (field-independent basis, Debye-Ang):
   XX=            -45.7492   YY=            -38.3624   ZZ=            -40.7178
   XY=             -1.6298   XZ=              0.0000   YZ=             -0.0000
 Traceless Quadrupole moment (field-independent basis, Debye-Ang):
   XX=             -4.1394   YY=              3.2474   ZZ=              0.8920
   XY=             -1.6298   XZ=              0.0000   YZ=             -0.0000
 Octapole moment (field-independent basis, Debye-Ang**2):
  XXX=              1.5081  YYY=              1.6700  ZZZ=             -0.0000  XYY=              1.7602
  XXY=              1.8306  XXZ=             -0.0000  XZZ=             -8.4280  YZZ=             -3.3851
  YYZ=             -0.0000  XYZ=              0.0000
 Hexadecapole moment (field-independent basis, Debye-Ang**3):
 XXXX=            -96.5725 YYYY=           -380.5383 ZZZZ=           -394.3226 XXXY=             11.6926
 XXXZ=              0.0000 YYYX=             -2.9735 YYYZ=             -0.0000 ZZZX=              0.0000
 ZZZY=             -0.0000 XXYY=            -84.6797 XXZZ=            -83.0190 YYZZ=           -122.0522
 XXYZ=             -0.0000 YYXZ=              0.0000 ZZXY=             -1.4801
 N-N= 2.699986398923D+02 E-N=-1.163136599532D+03  KE= 2.671929812746D+02
 Symmetry A'   KE= 1.537495334238D+02
 Symmetry A"   KE= 1.134434478508D+02
 Unable to Open any file for archive entry.
 1\1\GINC-BS001\FOpt\RMP2-FC\3-21G*\C7H8\PNATT\07-Aug-2026\0\\# opt fre
 q=hpmodes mp2/3-21g* geom=connectivity symmetry=loose\\1,3,5-Cyclohept
 atriene C7H8 - size6to10_Cs\\0,1\C,-1.4852164912,-0.2525229518,-1.4398
 316194\C,-0.5927507121,0.7644171355,-1.3199123373\C,0.8590263464,0.597
 1649958,-1.3386891364\C,1.5420769441,-0.3370907098,-2.0760586252\C,0.9
 33084743,-1.3225739083,-2.9670882761\C,-0.270532574,-1.9139304434,-2.7
 511120166\C,-1.015128779,-1.7015120537,-1.4392403981\H,-2.5508504291,-
 0.0471964917,-1.5170327951\H,-0.9618340646,1.7862383691,-1.2351733707\
 H,1.4436927672,1.3528206933,-0.8142242642\H,2.6297300796,-0.269404849,
 -2.0945799651\H,1.4847649658,-1.5601449169,-3.8763356542\H,-0.71025918
 13,-2.564700877,-3.5039951549\H,-1.8635449669,-2.3873854844,-1.3561477
 524\H,-0.3321060037,-1.868739348,-0.5946540974\\Version=ES64L-G16RevC.
 01\State=1-A'\HF=-268.1764144\MP2=-268.7989648\RMSD=6.838e-09\RMSF=5.3
 88e-05\Dipole=-0.0830502,-0.0091338,-0.0653596\PG=CS [SG(C1H2),X(C6H6)
 ]\\@
 The archive entry for this job was punched.


 THE MORE ACCURATE THE CALCULATIONS BECOME, THE MORE THE CONCEPTS
 TEND TO VANISH INTO THIN AIR.
     -- R.S. MULLIKEN, J.C.P. 43,S2(1965)
 Job cpu time:       0 days  0 hours  1 minutes 36.6 seconds.
 Elapsed time:       0 days  0 hours  0 minutes 12.7 seconds.
 File lengths (MBytes):  RWF=     10 Int=      0 D2E=      0 Chk=      2 Scr=      1
 Normal termination of Gaussian 16 at Fri Aug  7 15:52:44 2026.
 Link1:  Proceeding to internal job step number  2.
 --------------------------------------------------------------------
 #N Geom=AllCheck Guess=TCheck SCRF=Check GenChk RMP2(FC)/3-21G* Freq
 --------------------------------------------------------------------
 1/10=4,29=7,30=1,38=1,40=1/1,3;
 2/12=2,17=4,18=3,40=1/2;
 3/5=5,7=1,11=1,14=-4,25=1,30=1,70=2,71=2,116=1,140=1/1,2,3;
 4/5=101/1;
 5/5=2,38=6,98=1/2;
 8/6=3,8=1,10=1,19=11,30=-1/1;
 9/15=3,16=-3/6;
 11/6=1,8=1,15=11,17=12,24=-1,27=1,28=-2,29=300,32=6,42=3/1,2,10;
 10/6=2,21=1/2;
 8/6=4,8=1,10=1,19=11,30=-1/11,4;
 10/5=1,20=4/2;
 11/12=2,14=11,16=1,17=2,28=-2,42=3,76=2/2,10,12;
 6/7=2,8=2,9=2,10=2/1;
 7/8=11,10=1,12=2,25=1,44=2/1,2,3,16;
 1/10=4,30=1/3;
 99//99;
 Structure from the checkpoint file:  "Cycloheptatriene.chk"
 ------------------------------------------
 1,3,5-Cycloheptatriene C7H8 - size6to10_Cs
 ------------------------------------------
 Charge =  0 Multiplicity = 1
 Redundant internal coordinates found in file.  (old form).
 C,0,-1.4852164912,-0.2525229518,-1.4398316194
 C,0,-0.5927507121,0.7644171355,-1.3199123373
 C,0,0.8590263464,0.5971649958,-1.3386891364
 C,0,1.5420769441,-0.3370907098,-2.0760586252
 C,0,0.933084743,-1.3225739083,-2.9670882761
 C,0,-0.270532574,-1.9139304434,-2.7511120166
 C,0,-1.015128779,-1.7015120537,-1.4392403981
 H,0,-2.5508504291,-0.0471964917,-1.5170327951
 H,0,-0.9618340646,1.7862383691,-1.2351733707
 H,0,1.4436927672,1.3528206933,-0.8142242642
 H,0,2.6297300796,-0.269404849,-2.0945799651
 H,0,1.4847649658,-1.5601449169,-3.8763356542
 H,0,-0.7102591813,-2.564700877,-3.5039951549
 H,0,-1.8635449669,-2.3873854844,-1.3561477524
 H,0,-0.3321060037,-1.868739348,-0.5946540974
 Recover connectivity data from disk.

 GradGradGradGradGradGradGradGradGradGradGradGradGradGradGradGradGradGrad
 Berny optimization.
 Initialization pass.
                           ----------------------------
                           !    Initial Parameters    !
                           ! (Angstroms and Degrees)  !
 --------------------------                            --------------------------
 ! Name  Definition              Value          Derivative Info.                !
 --------------------------------------------------------------------------------
 ! R1    R(1,2)                  1.3583         calculate D2E/DX2 analytically  !
 ! R2    R(1,7)                  1.5233         calculate D2E/DX2 analytically  !
 ! R3    R(1,8)                  1.088          calculate D2E/DX2 analytically  !
 ! R4    R(2,3)                  1.4615         calculate D2E/DX2 analytically  !
 ! R5    R(2,9)                  1.0897         calculate D2E/DX2 analytically  !
 ! R6    R(3,4)                  1.3723         calculate D2E/DX2 analytically  !
 ! R7    R(3,10)                 1.0899         calculate D2E/DX2 analytically  !
 ! R8    R(4,5)                  1.4615         calculate D2E/DX2 analytically  !
 ! R9    R(4,11)                 1.0899         calculate D2E/DX2 analytically  !
 ! R10   R(5,6)                  1.3583         calculate D2E/DX2 analytically  !
 ! R11   R(5,12)                 1.0897         calculate D2E/DX2 analytically  !
 ! R12   R(6,7)                  1.5233         calculate D2E/DX2 analytically  !
 ! R13   R(6,13)                 1.088          calculate D2E/DX2 analytically  !
 ! R14   R(7,14)                 1.0941         calculate D2E/DX2 analytically  !
 ! R15   R(7,15)                 1.099          calculate D2E/DX2 analytically  !
 ! A1    A(2,1,7)              120.6202         calculate D2E/DX2 analytically  !
 ! A2    A(2,1,8)              120.5649         calculate D2E/DX2 analytically  !
 ! A3    A(7,1,8)              118.8026         calculate D2E/DX2 analytically  !
 ! A4    A(1,2,3)              124.4615         calculate D2E/DX2 analytically  !
 ! A5    A(1,2,9)              119.1008         calculate D2E/DX2 analytically  !
 ! A6    A(3,2,9)              116.4069         calculate D2E/DX2 analytically  !
 ! A7    A(2,3,4)              125.3984         calculate D2E/DX2 analytically  !
 ! A8    A(2,3,10)             116.5732         calculate D2E/DX2 analytically  !
 ! A9    A(4,3,10)             117.6179         calculate D2E/DX2 analytically  !
 ! A10   A(3,4,5)              125.3984         calculate D2E/DX2 analytically  !
 ! A11   A(3,4,11)             117.6179         calculate D2E/DX2 analytically  !
 ! A12   A(5,4,11)             116.5732         calculate D2E/DX2 analytically  !
 ! A13   A(4,5,6)              124.4615         calculate D2E/DX2 analytically  !
 ! A14   A(4,5,12)             116.4069         calculate D2E/DX2 analytically  !
 ! A15   A(6,5,12)             119.1008         calculate D2E/DX2 analytically  !
 ! A16   A(5,6,7)              120.6202         calculate D2E/DX2 analytically  !
 ! A17   A(5,6,13)             120.5649         calculate D2E/DX2 analytically  !
 ! A18   A(7,6,13)             118.8026         calculate D2E/DX2 analytically  !
 ! A19   A(1,7,6)              106.4477         calculate D2E/DX2 analytically  !
 ! A20   A(1,7,14)             110.9167         calculate D2E/DX2 analytically  !
 ! A21   A(1,7,15)             109.6833         calculate D2E/DX2 analytically  !
 ! A22   A(6,7,14)             110.9167         calculate D2E/DX2 analytically  !
 ! A23   A(6,7,15)             109.6833         calculate D2E/DX2 analytically  !
 ! A24   A(14,7,15)            109.1577         calculate D2E/DX2 analytically  !
 ! D1    D(7,1,2,3)              7.4187         calculate D2E/DX2 analytically  !
 ! D2    D(7,1,2,9)           -174.6739         calculate D2E/DX2 analytically  !
 ! D3    D(8,1,2,3)           -173.8729         calculate D2E/DX2 analytically  !
 ! D4    D(8,1,2,9)              4.0345         calculate D2E/DX2 analytically  !
 ! D5    D(2,1,7,6)            -69.8035         calculate D2E/DX2 analytically  !
 ! D6    D(2,1,7,14)           169.4436         calculate D2E/DX2 analytically  !
 ! D7    D(2,1,7,15)            48.7901         calculate D2E/DX2 analytically  !
 ! D8    D(8,1,7,6)            111.4656         calculate D2E/DX2 analytically  !
 ! D9    D(8,1,7,14)            -9.2873         calculate D2E/DX2 analytically  !
 ! D10   D(8,1,7,15)          -129.9407         calculate D2E/DX2 analytically  !
 ! D11   D(1,2,3,4)             33.8948         calculate D2E/DX2 analytically  !
 ! D12   D(1,2,3,10)          -153.6649         calculate D2E/DX2 analytically  !
 ! D13   D(9,2,3,4)           -144.0638         calculate D2E/DX2 analytically  !
 ! D14   D(9,2,3,10)            28.3766         calculate D2E/DX2 analytically  !
 ! D15   D(2,3,4,5)              0.0            calculate D2E/DX2 analytically  !
 ! D16   D(2,3,4,11)           172.369          calculate D2E/DX2 analytically  !
 ! D17   D(10,3,4,5)          -172.369          calculate D2E/DX2 analytically  !
 ! D18   D(10,3,4,11)            0.0            calculate D2E/DX2 analytically  !
 ! D19   D(3,4,5,6)            -33.8948         calculate D2E/DX2 analytically  !
 ! D20   D(3,4,5,12)           144.0638         calculate D2E/DX2 analytically  !
 ! D21   D(11,4,5,6)           153.6649         calculate D2E/DX2 analytically  !
 ! D22   D(11,4,5,12)          -28.3766         calculate D2E/DX2 analytically  !
 ! D23   D(4,5,6,7)             -7.4187         calculate D2E/DX2 analytically  !
 ! D24   D(4,5,6,13)           173.8729         calculate D2E/DX2 analytically  !
 ! D25   D(12,5,6,7)           174.6739         calculate D2E/DX2 analytically  !
 ! D26   D(12,5,6,13)           -4.0345         calculate D2E/DX2 analytically  !
 ! D27   D(5,6,7,1)             69.8035         calculate D2E/DX2 analytically  !
 ! D28   D(5,6,7,14)          -169.4436         calculate D2E/DX2 analytically  !
 ! D29   D(5,6,7,15)           -48.7901         calculate D2E/DX2 analytically  !
 ! D30   D(13,6,7,1)          -111.4656         calculate D2E/DX2 analytically  !
 ! D31   D(13,6,7,14)            9.2873         calculate D2E/DX2 analytically  !
 ! D32   D(13,6,7,15)          129.9407         calculate D2E/DX2 analytically  !
 --------------------------------------------------------------------------------
 Trust Radius=3.00D-01 FncErr=1.00D-07 GrdErr=1.00D-07 EigMax=2.50D+02 EigMin=1.00D-04
 Number of steps in this run=      2 maximum allowed number of steps=      2.
 GradGradGradGradGradGradGradGradGradGradGradGradGradGradGradGradGradGrad

                          Input orientation:                          
 ---------------------------------------------------------------------
 Center     Atomic      Atomic             Coordinates (Angstroms)
 Number     Number       Type             X           Y           Z
 ---------------------------------------------------------------------
      1          6           0       -1.485216   -0.252523   -1.439832
      2          6           0       -0.592751    0.764417   -1.319912
      3          6           0        0.859026    0.597165   -1.338689
      4          6           0        1.542077   -0.337091   -2.076059
      5          6           0        0.933085   -1.322574   -2.967088
      6          6           0       -0.270533   -1.913930   -2.751112
      7          6           0       -1.015129   -1.701512   -1.439240
      8          1           0       -2.550850   -0.047196   -1.517033
      9          1           0       -0.961834    1.786238   -1.235173
     10          1           0        1.443693    1.352821   -0.814224
     11          1           0        2.629730   -0.269405   -2.094580
     12          1           0        1.484765   -1.560145   -3.876336
     13          1           0       -0.710259   -2.564701   -3.503995
     14          1           0       -1.863545   -2.387385   -1.356148
     15          1           0       -0.332106   -1.868739   -0.594654
 ---------------------------------------------------------------------
                    Distance matrix (angstroms):
                    1          2          3          4          5
     1  C    0.000000
     2  C    1.358324   0.000000
     3  C    2.495531   1.461500   0.000000
     4  C    3.094583   2.518445   1.372263   0.000000
     5  C    3.053801   3.065435   2.518445   1.461500   0.000000
     6  C    2.440325   3.053801   3.094583   2.495531   1.358324
     7  C    1.523336   2.504685   2.967572   2.967572   2.504685
     8  H    1.087977   2.128785   3.474805   4.141087   3.983347
     9  H    2.114796   1.089735   2.177187   3.388980   4.031744
    10  H    3.398091   2.179230   1.089915   2.111328   3.471783
    11  H    4.166745   3.471783   2.111328   1.089915   2.179230
    12  H    4.057982   4.031744   3.388980   2.177187   1.089735
    13  H    3.194917   3.983347   4.141087   3.474805   2.128785
    14  H    2.169740   3.398542   4.039832   4.039832   3.398542
    15  H    2.157810   2.743620   2.837793   2.837793   2.743620
                    6          7          8          9         10
     6  C    0.000000
     7  C    1.523336   0.000000
     8  H    3.194917   2.258595   0.000000
     9  H    4.057982   3.494122   2.442519   0.000000
    10  H    4.166745   3.970566   4.290730   2.480244   0.000000
    11  H    3.398091   3.970566   5.217409   4.226533   2.382774
    12  H    2.114796   3.494122   4.913402   4.915269   4.226533
    13  H    1.087977   2.258595   3.697786   4.913402   5.217409
    14  H    2.169740   1.094137   2.444332   4.271634   5.022016
    15  H    2.157810   1.099005   3.015233   3.763733   3.685122
                   11         12         13         14         15
    11  H    0.000000
    12  H    2.480244   0.000000
    13  H    4.290730   2.442519   0.000000
    14  H    5.022016   4.271634   2.444332   0.000000
    15  H    3.685122   3.763733   3.015233   1.787225   0.000000
 Stoichiometry    C7H8
 Framework group  CS[SG(CH2),X(C6H6)]
 Deg. of freedom    21
 Full point group                 CS      NOp   2
 Largest Abelian subgroup         CS      NOp   2
 Largest concise Abelian subgroup CS      NOp   2
                         Standard orientation:                         
 ---------------------------------------------------------------------
 Center     Atomic      Atomic             Coordinates (Angstroms)
 Number     Number       Type             X           Y           Z
 ---------------------------------------------------------------------
      1          6           0       -0.273760    0.959676   -1.220163
      2          6           0       -0.273760   -0.362199   -1.532718
      3          6           0        0.289123   -1.412169   -0.686131
      4          6           0        0.289123   -1.412169    0.686131
      5          6           0       -0.273760   -0.362199    1.532718
      6          6           0       -0.273760    0.959676    1.220163
      7          6           0        0.483133    1.468468    0.000000
      8          1           0       -0.797268    1.676845   -1.848893
      9          1           0       -0.748980   -0.688108   -2.457634
     10          1           0        0.628346   -2.316358   -1.191387
     11          1           0        0.628346   -2.316358    1.191387
     12          1           0       -0.748980   -0.688108    2.457634
     13          1           0       -0.797268    1.676845    1.848893
     14          1           0        0.534620    2.561393    0.000000
     15          1           0        1.503151    1.059354    0.000000
 ---------------------------------------------------------------------
 Rotational constants (GHZ):           3.6532386           3.6333901           2.0221783
 Standard basis: 3-21G* (6D, 7F)
 There are    44 symmetry adapted cartesian basis functions of A'  symmetry.
 There are    35 symmetry adapted cartesian basis functions of A"  symmetry.
 There are    44 symmetry adapted basis functions of A'  symmetry.
 There are    35 symmetry adapted basis functions of A"  symmetry.
    79 basis functions,   129 primitive gaussians,    79 cartesian basis functions
    25 alpha electrons       25 beta electrons
       nuclear repulsion energy       269.9986398923 Hartrees.
 NAtoms=   15 NActive=   15 NUniq=    9 SFac= 2.78D+00 NAtFMM=   60 NAOKFM=F Big=F
 Integral buffers will be    131072 words long.
 Raffenetti 1 integral format.
 Two-electron integral symmetry is turned on.
 One-electron integrals computed using PRISM.
 NBasis=    79 RedAO= T EigKep=  4.81D-03  NBF=    44    35
 NBsUse=    79 1.00D-06 EigRej= -1.00D+00 NBFU=    44    35
 Initial guess from the checkpoint file:  "Cycloheptatriene.chk"
 B after Tr=     0.000000   -0.000000    0.000000
         Rot=    1.000000   -0.000000   -0.000000   -0.000000 Ang=   0.00 deg.
 Initial guess orbital symmetries:
       Occupied  (A") (A') (A") (A') (A') (A") (A') (A') (A") (A')
                 (A') (A") (A') (A') (A") (A") (A') (A') (A") (A')
                 (A') (A") (A') (A") (A')
       Virtual   (A") (A') (A') (A") (A') (A") (A') (A') (A") (A")
                 (A') (A') (A") (A") (A') (A') (A") (A") (A') (A')
                 (A") (A') (A') (A") (A') (A") (A') (A") (A') (A')
                 (A") (A') (A") (A") (A") (A') (A') (A") (A') (A")
                 (A') (A") (A') (A') (A') (A") (A') (A") (A') (A")
                 (A') (A") (A') (A")
 Keep R1 ints in memory in symmetry-blocked form, NReq=7502338.
 Requested convergence on RMS density matrix=1.00D-08 within 128 cycles.
 Requested convergence on MAX density matrix=1.00D-06.
 Requested convergence on             energy=1.00D-06.
 No special actions if energy rises.
 SCF Done:  E(RHF) =  -268.176414405     A.U. after    1 cycles
            NFock=  1  Conv=0.11D-08     -V/T= 2.0037
 ExpMin= 1.83D-01 ExpMax= 1.72D+02 ExpMxC= 1.72D+02 IAcc=3 IRadAn=         5 AccDes= 0.00D+00
 HarFok:  IExCor=  205 AccDes= 0.00D+00 IRadAn=         5 IDoV=-2 UseB2=F ITyADJ=14
 ICtDFT= 12500011 ScaDFX=  1.000000  1.000000  1.000000  1.000000
 Range of M.O.s used for correlation:     8    79
 NBasis=    79 NAE=    25 NBE=    25 NFC=     7 NFV=     0
 NROrb=     72 NOA=    18 NOB=    18 NVA=    54 NVB=    54
 Disk-based method using ON**2 memory for 18 occupieds at a time.
 Permanent disk used for amplitudes=     2251800 words.
 Estimated scratch disk usage=     9844464 words.
 Actual    scratch disk usage=     9114352 words.
 JobTyp=1 Pass  1:  I=   8 to  25 NPSUse=  8 ParTrn=T ParDer=T DoDerP=T.
 (rs|ai) integrals will be sorted in core.
 Spin components of T(2) and E(2):
     alpha-alpha T2 =       0.3101950142D-01 E2=     -0.7449953277D-01
     alpha-beta  T2 =       0.1962763816D+00 E2=     -0.4735513070D+00
     beta-beta   T2 =       0.3101950142D-01 E2=     -0.7449953277D-01
 ANorm=    0.1121746578D+01
 E2 =    -0.6225503725D+00 EUMP2 =    -0.26879896477766D+03
 G2DrvN: will do    16 centers at a time, making    1 passes.
 Calling FoFCou, ICntrl=  3107 FMM=F I1Cent=   0 AccDes= 0.00D+00.
 End of G2Drv F.D. properties file   721 does not exist.
 End of G2Drv F.D. properties file   722 does not exist.
 End of G2Drv F.D. properties file   788 does not exist.
          IDoAtm=111111111111111
          Differentiating once with respect to electric field.
                with respect to dipole field.
          Differentiating once with respect to nuclear coordinates.
 Keep R1 ints in memory in symmetry-blocked form, NReq=7504047.
          There are    48 degrees of freedom in the 1st order CPHF.  IDoFFX=6 NUNeed=    48.
     45 vectors produced by pass  0 Test12= 2.81D-15 2.08D-09 XBig12= 2.89D+01 3.06D+00.
 AX will form    45 AO Fock derivatives at one time.
     45 vectors produced by pass  1 Test12= 2.81D-15 2.08D-09 XBig12= 1.15D+00 1.95D-01.
     45 vectors produced by pass  2 Test12= 2.81D-15 2.08D-09 XBig12= 2.02D-02 2.95D-02.
     45 vectors produced by pass  3 Test12= 2.81D-15 2.08D-09 XBig12= 9.73D-05 1.51D-03.
     45 vectors produced by pass  4 Test12= 2.81D-15 2.08D-09 XBig12= 6.13D-07 1.29D-04.
     45 vectors produced by pass  5 Test12= 2.81D-15 2.08D-09 XBig12= 3.70D-09 1.06D-05.
     31 vectors produced by pass  6 Test12= 2.81D-15 2.08D-09 XBig12= 1.65D-11 6.62D-07.
      3 vectors produced by pass  7 Test12= 2.81D-15 2.08D-09 XBig12= 8.96D-14 3.97D-08.
      1 vectors produced by pass  8 Test12= 2.81D-15 2.08D-09 XBig12= 3.98D-16 2.57D-09.
 InvSVY:  IOpt=1 It=  1 EMax= 3.55D-15
 Solved reduced A of dimension   305 with    48 vectors.
 End of Minotr F.D. properties file   721 does not exist.
 End of Minotr F.D. properties file   722 does not exist.
 End of Minotr F.D. properties file   788 does not exist.
 MDV=  1073741824.
 Form MO integral derivatives with frozen-active canonical formalism.
 Discarding MO integrals.
 Reordered first order wavefunction length =      3645000
 In DefCFB: NBatch=  1 ICI= 25 ICA= 54 LFMax= 27
            Large arrays: LIAPS=    33701400 LIARS=     6718950 words.
 Semi-Direct transformation.
 ModeAB=           4 MOrb=            25 LenV=    1073514093
 LASXX=      4633800 LTotXX=     4633800 LenRXX=     9488050
 LTotAB=     4854250 MaxLAS=     3365400 LenRXY=           0
 NonZer=    14121850 LenScr=    21962752 LnRSAI=     3365400
 LnScr1=     5767168 LExtra=           0 Total=     40583370
 MaxDsk=          -1 SrtSym=           T ITran=            4
 JobTyp=0 Pass  1:  I=   1 to  25.
 (rs|ai) integrals will be sorted in core.
 Spin components of T(2) and E(2):
     alpha-alpha T2 =       0.3101950142D-01 E2=     -0.7449953277D-01
     alpha-beta  T2 =       0.1962763816D+00 E2=     -0.4735513070D+00
     beta-beta   T2 =       0.3101950142D-01 E2=     -0.7449953277D-01
 ANorm=    0.1586389224D+01
 E2 =    -0.6225503725D+00 EUMP2 =    -0.26879896477766D+03
          IDoAtm=111111111111111
          Differentiating once with respect to electric field.
                with respect to dipole field.
          Differentiating once with respect to nuclear coordinates.
          There are     1 degrees of freedom in the 1st order CPHF.  IDoFFX=0 NUNeed=     1.
 LinEq1:  Iter=  0 NonCon=     1 RMS=5.10D-03 Max=6.24D-02 NDo=     1
 LinEq1:  Iter=  1 NonCon=     1 RMS=1.43D-03 Max=1.36D-02 NDo=     1
 LinEq1:  Iter=  2 NonCon=     1 RMS=3.46D-04 Max=7.81D-03 NDo=     1
 LinEq1:  Iter=  3 NonCon=     1 RMS=1.14D-04 Max=2.92D-03 NDo=     1
 LinEq1:  Iter=  4 NonCon=     1 RMS=4.94D-05 Max=9.45D-04 NDo=     1
 LinEq1:  Iter=  5 NonCon=     1 RMS=9.57D-06 Max=1.11D-04 NDo=     1
 LinEq1:  Iter=  6 NonCon=     1 RMS=1.99D-06 Max=2.48D-05 NDo=     1
 LinEq1:  Iter=  7 NonCon=     1 RMS=7.05D-07 Max=7.03D-06 NDo=     1
 LinEq1:  Iter=  8 NonCon=     1 RMS=1.31D-07 Max=1.31D-06 NDo=     1
 LinEq1:  Iter=  9 NonCon=     1 RMS=3.17D-08 Max=2.41D-07 NDo=     1
 LinEq1:  Iter= 10 NonCon=     1 RMS=9.71D-09 Max=1.07D-07 NDo=     1
 LinEq1:  Iter= 11 NonCon=     1 RMS=1.71D-09 Max=1.23D-08 NDo=     1
 LinEq1:  Iter= 12 NonCon=     1 RMS=2.40D-10 Max=3.30D-09 NDo=     1
 LinEq1:  Iter= 13 NonCon=     0 RMS=3.12D-11 Max=4.38D-10 NDo=     1
 Linear equations converged to 1.000D-10 1.000D-09 after    13 iterations.
 End of Minotr F.D. properties file   721 does not exist.
 End of Minotr F.D. properties file   722 does not exist.
 End of Minotr F.D. properties file   788 does not exist.
 Symmetrizing basis deriv contribution to polar:
 IMax=3 JMax=2 DiffMx= 0.00D+00
 G2DrvN: will do    16 centers at a time, making    1 passes.
 Calling FoFCou, ICntrl=  3107 FMM=F I1Cent=   0 AccDes= 0.00D+00.
 End of G2Drv F.D. properties file   721 does not exist.
 End of G2Drv F.D. properties file   722 does not exist.
 End of G2Drv F.D. properties file   788 does not exist.
 R2 and R3 integrals will be kept in memory, NReq=    10788760.
 DD1Dir will call FoFMem   1 times, MxPair=       650
 NAB=   325 NAA=     0 NBB=     0.
 Discarding MO integrals.

 **********************************************************************

            Population analysis using the SCF Density.

 **********************************************************************

 Orbital symmetries:
       Occupied  (A") (A') (A") (A') (A') (A") (A') (A') (A") (A')
                 (A') (A") (A') (A') (A") (A") (A') (A') (A") (A')
                 (A') (A") (A') (A") (A')
       Virtual   (A") (A') (A') (A") (A') (A") (A') (A') (A") (A")
                 (A') (A') (A") (A") (A') (A') (A") (A") (A') (A')
                 (A") (A') (A') (A") (A') (A") (A') (A") (A') (A')
                 (A") (A') (A") (A") (A") (A') (A') (A") (A') (A")
                 (A') (A") (A') (A') (A') (A") (A') (A") (A') (A")
                 (A') (A") (A') (A")
 The electronic state is 1-A'.
 Alpha  occ. eigenvalues --  -11.18486 -11.18410 -11.18251 -11.18223 -11.17509
 Alpha  occ. eigenvalues --  -11.17387 -11.17367  -1.12548  -1.03187  -1.02825
 Alpha  occ. eigenvalues --   -0.89835  -0.84757  -0.73195  -0.69201  -0.68394
 Alpha  occ. eigenvalues --   -0.61607  -0.61196  -0.58245  -0.52247  -0.52235
 Alpha  occ. eigenvalues --   -0.50082  -0.47754  -0.42791  -0.34419  -0.30173
 Alpha virt. eigenvalues --    0.11716   0.17759   0.25369   0.27817   0.30800
 Alpha virt. eigenvalues --    0.30953   0.33386   0.36826   0.37111   0.37847
 Alpha virt. eigenvalues --    0.39032   0.41254   0.46817   0.53954   0.56183
 Alpha virt. eigenvalues --    0.59928   0.65371   0.71722   0.85620   0.94535
 Alpha virt. eigenvalues --    0.96232   0.96456   0.99340   0.99957   1.03693
 Alpha virt. eigenvalues --    1.06583   1.06591   1.09821   1.11317   1.11910
 Alpha virt. eigenvalues --    1.12651   1.15327   1.18701   1.23302   1.29338
 Alpha virt. eigenvalues --    1.29418   1.32338   1.33438   1.38931   1.41031
 Alpha virt. eigenvalues --    1.43338   1.43406   1.48035   1.58797   1.66467
 Alpha virt. eigenvalues --    1.68823   1.69917   1.74217   1.78071   1.78804
 Alpha virt. eigenvalues --    2.06811   2.19795   2.32738   2.42841
          Condensed to atoms (all electrons):
               1          2          3          4          5          6
     1  C    5.308927   0.523840  -0.091700   0.001260   0.001017  -0.102932
     2  C    0.523840   5.212323   0.364660  -0.085967  -0.004915   0.001017
     3  C   -0.091700   0.364660   5.188337   0.539060  -0.085967   0.001260
     4  C    0.001260  -0.085967   0.539060   5.188337   0.364660  -0.091700
     5  C    0.001017  -0.004915  -0.085967   0.364660   5.212323   0.523840
     6  C   -0.102932   0.001017   0.001260  -0.091700   0.523840   5.308927
     7  C    0.278485  -0.098056  -0.003744  -0.003744  -0.098056   0.278485
     8  H    0.396682  -0.038361   0.002229  -0.000057   0.000119   0.002876
     9  H   -0.036137   0.396029  -0.035875   0.001417  -0.000036   0.000042
    10  H    0.001870  -0.036448   0.396850  -0.040545   0.002318  -0.000104
    11  H   -0.000104   0.002318  -0.040545   0.396850  -0.036448   0.001870
    12  H    0.000042  -0.000036   0.001417  -0.035875   0.396029  -0.036137
    13  H    0.002876   0.000119  -0.000057   0.002229  -0.038361   0.396682
    14  H   -0.038977   0.002975   0.000081   0.000081   0.002975  -0.038977
    15  H   -0.051841  -0.003625   0.005112   0.005112  -0.003625  -0.051841
               7          8          9         10         11         12
     1  C    0.278485   0.396682  -0.036137   0.001870  -0.000104   0.000042
     2  C   -0.098056  -0.038361   0.396029  -0.036448   0.002318  -0.000036
     3  C   -0.003744   0.002229  -0.035875   0.396850  -0.040545   0.001417
     4  C   -0.003744  -0.000057   0.001417  -0.040545   0.396850  -0.035875
     5  C   -0.098056   0.000119  -0.000036   0.002318  -0.036448   0.396029
     6  C    0.278485   0.002876   0.000042  -0.000104   0.001870  -0.036137
     7  C    5.432182  -0.031174   0.002045   0.000046   0.000046   0.002045
     8  H   -0.031174   0.440442  -0.001175  -0.000036   0.000001   0.000002
     9  H    0.002045  -0.001175   0.444128  -0.000451  -0.000042   0.000002
    10  H    0.000046  -0.000036  -0.000451   0.449043  -0.001828  -0.000042
    11  H    0.000046   0.000001  -0.000042  -0.001828   0.449043  -0.000451
    12  H    0.002045   0.000002   0.000002  -0.000042  -0.000451   0.444128
    13  H   -0.031174  -0.000076   0.000002   0.000001  -0.000036  -0.001175
    14  H    0.387966  -0.002025  -0.000035   0.000001   0.000001  -0.000035
    15  H    0.392000   0.001513   0.000082   0.000100   0.000100   0.000082
              13         14         15
     1  C    0.002876  -0.038977  -0.051841
     2  C    0.000119   0.002975  -0.003625
     3  C   -0.000057   0.000081   0.005112
     4  C    0.002229   0.000081   0.005112
     5  C   -0.038361   0.002975  -0.003625
     6  C    0.396682  -0.038977  -0.051841
     7  C   -0.031174   0.387966   0.392000
     8  H   -0.000076  -0.002025   0.001513
     9  H    0.000002  -0.000035   0.000082
    10  H    0.000001   0.000001   0.000100
    11  H   -0.000036   0.000001   0.000100
    12  H   -0.001175  -0.000035   0.000082
    13  H    0.440442  -0.002025   0.001513
    14  H   -0.002025   0.484821  -0.016381
    15  H    0.001513  -0.016381   0.469840
 Mulliken charges:
               1
     1  C   -0.193309
     2  C   -0.235874
     3  C   -0.241116
     4  C   -0.241116
     5  C   -0.235874
     6  C   -0.193309
     7  C   -0.507353
     8  H    0.229042
     9  H    0.230004
    10  H    0.229223
    11  H    0.229223
    12  H    0.230004
    13  H    0.229042
    14  H    0.219553
    15  H    0.251860
 Sum of Mulliken charges =  -0.00000
 Mulliken charges with hydrogens summed into heavy atoms:
               1
     1  C    0.035733
     2  C   -0.005870
     3  C   -0.011893
     4  C   -0.011893
     5  C   -0.005870
     6  C    0.035733
     7  C   -0.035939
 APT charges:
               1
     1  C   -0.013408
     2  C   -0.063036
     3  C   -0.016659
     4  C   -0.016659
     5  C   -0.063036
     6  C   -0.013408
     7  C    0.062866
     8  H    0.018647
     9  H    0.025378
    10  H    0.021078
    11  H    0.021078
    12  H    0.025378
    13  H    0.018647
    14  H   -0.004005
    15  H   -0.002860
 Sum of APT charges =   0.00000
 APT charges with hydrogens summed into heavy atoms:
               1
     1  C    0.005239
     2  C   -0.037658
     3  C    0.004419
     4  C    0.004419
     5  C   -0.037658
     6  C    0.005239
     7  C    0.056001
 Electronic spatial extent (au):  <R**2>=            656.5757
 Charge=              0.0000 electrons
 Dipole moment (field-independent basis, Debye):
    X=             -0.1906    Y=              0.3196    Z=              0.0000  Tot=              0.3721
 Quadrupole moment (field-independent basis, Debye-Ang):
   XX=            -45.7492   YY=            -38.3624   ZZ=            -40.7178
   XY=             -1.6298   XZ=             -0.0000   YZ=             -0.0000
 Traceless Quadrupole moment (field-independent basis, Debye-Ang):
   XX=             -4.1394   YY=              3.2474   ZZ=              0.8920
   XY=             -1.6298   XZ=             -0.0000   YZ=             -0.0000
 Octapole moment (field-independent basis, Debye-Ang**2):
  XXX=              1.5081  YYY=              1.6700  ZZZ=             -0.0000  XYY=              1.7602
  XXY=              1.8306  XXZ=             -0.0000  XZZ=             -8.4280  YZZ=             -3.3851
  YYZ=              0.0000  XYZ=             -0.0000
 Hexadecapole moment (field-independent basis, Debye-Ang**3):
 XXXX=            -96.5725 YYYY=           -380.5383 ZZZZ=           -394.3226 XXXY=             11.6926
 XXXZ=              0.0000 YYYX=             -2.9735 YYYZ=             -0.0000 ZZZX=             -0.0000
 ZZZY=             -0.0000 XXYY=            -84.6797 XXZZ=            -83.0190 YYZZ=           -122.0522
 XXYZ=             -0.0000 YYXZ=             -0.0000 ZZXY=             -1.4801
 N-N= 2.699986398923D+02 E-N=-1.163136599723D+03  KE= 2.671929813330D+02
 Symmetry A'   KE= 1.537495334620D+02
 Symmetry A"   KE= 1.134434478709D+02
  Exact polarizability:      33.203      -6.946      76.878       0.000       0.000      70.589
 Approx polarizability:      30.455      -7.301      78.248      -0.000      -0.000      66.706
 Calling FoFJK, ICntrl=  10100127 FMM=F ISym2X=1 I1Cent= 0 IOpClX= 0 NMat=1 NMatS=1 NMatT=0.
 Full mass-weighted force constant matrix:
 Low frequencies ---   -3.2564   -3.0500   -1.8945    0.0005    0.0005    0.0006
 Low frequencies ---  236.6616  290.9831  368.1859
 Diagonal vibrational polarizability:
        5.9792841       1.1693866       2.5464163
 Harmonic frequencies (cm**-1), IR intensities (KM/Mole), Raman scattering
 activities (A**4/AMU), depolarization ratios for plane and unpolarized
 incident light, reduced masses (AMU), force constants (mDyne/A),
 and normal coordinates:
                           1         2         3         4         5
                          A'        A"        A'        A"        A'
       Frequencies ---   236.6616  290.9831  368.1859  415.9992  431.1003
    Reduced masses ---     2.2012    3.0878    3.1077    5.2086    2.1774
   Force constants ---     0.0726    0.1540    0.2482    0.5311    0.2384
    IR Intensities ---     0.2092    0.7929    1.6836    0.7660    8.1383
 Coord Atom Element:
   1     1     6          0.05489  -0.18103   0.02605  -0.03431  -0.10828
   2     1     6         -0.00448  -0.04588   0.00563   0.19329   0.01664
   3     1     6         -0.05745   0.07208   0.12925  -0.18823   0.12129
   1     2     6          0.10724   0.10412  -0.05778  -0.04621   0.15111
   2     2     6         -0.00811  -0.01548  -0.01676   0.13941   0.03353
   3     2     6         -0.03991  -0.03345   0.19297   0.10885  -0.01551
   1     3     6         -0.09081   0.19752   0.03083   0.08799  -0.02712
   2     3     6         -0.07869   0.04013  -0.10805   0.19108  -0.02042
   3     3     6          0.00269  -0.01898   0.00666   0.16876  -0.01530
   1     4     6         -0.09081  -0.19752   0.03083  -0.08799  -0.02712
   2     4     6         -0.07869  -0.04013  -0.10805  -0.19108  -0.02042
   3     4     6         -0.00269  -0.01898  -0.00666   0.16876   0.01530
   1     5     6          0.10724  -0.10412  -0.05778   0.04621   0.15111
   2     5     6         -0.00811   0.01548  -0.01676  -0.13941   0.03353
   3     5     6          0.03991  -0.03345  -0.19297   0.10885   0.01551
   1     6     6          0.05489   0.18103   0.02605   0.03431  -0.10828
   2     6     6         -0.00448   0.04588   0.00563  -0.19329   0.01664
   3     6     6          0.05745   0.07208  -0.12925  -0.18823  -0.12129
   1     7     6         -0.13001  -0.00000   0.08478   0.00000   0.03889
   2     7     6          0.15424   0.00000   0.20485   0.00000  -0.01702
   3     7     6          0.00000  -0.05200  -0.00000  -0.14807  -0.00000
   1     8     1          0.14466  -0.43014  -0.15511   0.04707  -0.32032
   2     8     1         -0.05316  -0.10057  -0.08009   0.16917  -0.01759
   3     8     1         -0.19025   0.21920   0.18017  -0.27888   0.26173
   1     9     1          0.23572   0.08531  -0.28315  -0.00141   0.19277
   2     9     1          0.02448  -0.08088   0.03137  -0.07740   0.06780
   3     9     1         -0.11916  -0.00124   0.28988   0.16054  -0.04950
   1    10     1         -0.22695   0.33602  -0.04257   0.16717  -0.38158
   2    10     1         -0.13642   0.07238  -0.08520   0.29818  -0.17407
   3    10     1          0.01397   0.01764  -0.07970   0.02438   0.02189
   1    11     1         -0.22695  -0.33602  -0.04257  -0.16717  -0.38158
   2    11     1         -0.13642  -0.07238  -0.08520  -0.29818  -0.17407
   3    11     1         -0.01397   0.01764   0.07970   0.02438  -0.02189
   1    12     1          0.23572  -0.08531  -0.28315   0.00141   0.19277
   2    12     1          0.02448   0.08088   0.03137   0.07740   0.06780
   3    12     1          0.11916  -0.00124  -0.28988   0.16054   0.04950
   1    13     1          0.14466   0.43014  -0.15511  -0.04707  -0.32032
   2    13     1         -0.05316   0.10057  -0.08009  -0.16917  -0.01759
   3    13     1          0.19025   0.21920  -0.18017  -0.27888  -0.26173
   1    14     1         -0.46392   0.00000  -0.20370  -0.00000   0.23157
   2    14     1          0.17189   0.00000   0.21813   0.00000  -0.02868
   3    14     1          0.00000  -0.09417   0.00000   0.11932   0.00000
   1    15     1          0.00666  -0.00000   0.17721   0.00000  -0.05034
   2    15     1          0.49536  -0.00000   0.44878   0.00000  -0.22938
   3    15     1          0.00000  -0.22580   0.00000  -0.29655   0.00000
                           6         7         8         9        10
                          A"        A'        A'        A"        A'
       Frequencies ---   605.7796  681.8588  735.0930  771.1146  804.8776
    Reduced masses ---     2.7284    1.9465    1.5490    1.4955    1.7095
   Force constants ---     0.5899    0.5332    0.4932    0.5239    0.6525
    IR Intensities ---     5.0041   17.0945   77.3122   34.7165    4.1244
 Coord Atom Element:
   1     1     6          0.14887   0.04430  -0.03084  -0.04053  -0.00310
   2     1     6         -0.04405  -0.08422  -0.03831  -0.04826   0.04199
   3     1     6         -0.03173   0.03451   0.13129   0.04640  -0.03373
   1     2     6         -0.11802  -0.01065  -0.01025  -0.09217   0.03188
   2     2     6         -0.04494  -0.03370  -0.00451  -0.03735   0.02505
   3     2     6          0.04635  -0.12781   0.01040   0.02712  -0.09087
   1     3     6          0.16604  -0.02194  -0.06072   0.05158  -0.05239
   2     3     6          0.02585   0.10455   0.01338   0.03965  -0.11653
   3     3     6         -0.07531  -0.01099   0.00214  -0.03217  -0.01522
   1     4     6         -0.16604  -0.02194  -0.06072  -0.05158  -0.05239
   2     4     6         -0.02585   0.10455   0.01338  -0.03965  -0.11653
   3     4     6         -0.07531   0.01099  -0.00214  -0.03217   0.01522
   1     5     6          0.11802  -0.01065  -0.01025   0.09217   0.03188
   2     5     6          0.04494  -0.03370  -0.00451   0.03735   0.02505
   3     5     6          0.04635   0.12781  -0.01040   0.02712   0.09087
   1     6     6         -0.14887   0.04430  -0.03084   0.04053  -0.00310
   2     6     6          0.04405  -0.08422  -0.03831   0.04826   0.04199
   3     6     6         -0.03173  -0.03451  -0.13129   0.04640   0.03373
   1     7     6         -0.00000   0.08163   0.03951  -0.00000   0.02377
   2     7     6         -0.00000  -0.00137  -0.01256   0.00000   0.06736
   3     7     6          0.04795   0.00000   0.00000   0.01803  -0.00000
   1     8     1         -0.06850  -0.23635   0.27352   0.45120  -0.28466
   2     8     1         -0.05223  -0.04112   0.03229   0.02336   0.00747
   3     8     1          0.13897   0.31578  -0.03797  -0.28128   0.15271
   1     9     1         -0.48499  -0.23808   0.34936   0.33947  -0.18247
   2     9     1         -0.07402  -0.04258   0.13594   0.01600   0.06696
   3     9     1          0.24566  -0.00592  -0.22108  -0.21156  -0.00066
   1    10     1          0.22024  -0.06831   0.38253   0.13278   0.53222
   2    10     1          0.04538   0.01247   0.18952   0.09300   0.12408
   3    10     1         -0.07336   0.12299  -0.01135  -0.07336  -0.06099
   1    11     1         -0.22024  -0.06831   0.38253  -0.13278   0.53222
   2    11     1         -0.04538   0.01247   0.18952  -0.09300   0.12408
   3    11     1         -0.07336  -0.12299   0.01135  -0.07336   0.06099
   1    12     1          0.48499  -0.23808   0.34936  -0.33947  -0.18247
   2    12     1          0.07402  -0.04258   0.13594  -0.01600   0.06696
   3    12     1          0.24566   0.00592   0.22108  -0.21156   0.00066
   1    13     1          0.06850  -0.23635   0.27352  -0.45120  -0.28466
   2    13     1          0.05223  -0.04112   0.03229  -0.02336   0.00747
   3    13     1          0.13897  -0.31578   0.03797  -0.28128  -0.15271
   1    14     1          0.00000  -0.41844  -0.15447   0.00000   0.18830
   2    14     1         -0.00000   0.02629  -0.00348   0.00000   0.05993
   3    14     1         -0.02273  -0.00000  -0.00000  -0.07264   0.00000
   1    15     1         -0.00000   0.25322   0.09763  -0.00000  -0.03919
   2    15     1         -0.00000   0.45079   0.13855  -0.00000  -0.08035
   3    15     1          0.27478   0.00000  -0.00000   0.00559   0.00000
                          11        12        13        14        15
                          A"        A'        A'        A"        A'
       Frequencies ---   908.3104  918.4362  926.7660  953.1952  967.7494
    Reduced masses ---     3.8604    2.6861    2.6866    3.0714    1.4570
   Force constants ---     1.8765    1.3350    1.3595    1.6442    0.8040
    IR Intensities ---     0.0313    3.7276    0.3006    0.0798    0.2223
 Coord Atom Element:
   1     1     6          0.01352  -0.07123   0.07083  -0.09832   0.07500
   2     1     6          0.03422  -0.01594  -0.04775   0.10716   0.03503
   3     1     6          0.05497  -0.07319  -0.04528  -0.10196  -0.03256
   1     2     6          0.10803  -0.07460   0.08791  -0.03261  -0.07965
   2     2     6          0.04230  -0.10825  -0.05052  -0.03109   0.01340
   3     2     6          0.23256  -0.03146   0.14155   0.01070   0.03152
   1     3     6          0.03268   0.01275  -0.12893   0.08071   0.02805
   2     3     6         -0.11029   0.03083   0.11709  -0.18721  -0.02922
   3     3     6         -0.14237  -0.00705   0.06801  -0.02449  -0.02299
   1     4     6         -0.03268   0.01275  -0.12893  -0.08071   0.02805
   2     4     6          0.11029   0.03083   0.11709   0.18721  -0.02922
   3     4     6         -0.14237   0.00705  -0.06801  -0.02449   0.02299
   1     5     6         -0.10803  -0.07460   0.08791   0.03261  -0.07965
   2     5     6         -0.04230  -0.10825  -0.05052   0.03109   0.01340
   3     5     6          0.23256   0.03146  -0.14155   0.01070  -0.03152
   1     6     6         -0.01352  -0.07123   0.07083   0.09832   0.07500
   2     6     6         -0.03422  -0.01594  -0.04775  -0.10716   0.03503
   3     6     6          0.05497   0.07319   0.04528  -0.10196   0.03256
   1     7     6          0.00000   0.19718  -0.05836  -0.00000  -0.04154
   2     7     6          0.00000   0.23143   0.00880   0.00000  -0.06277
   3     7     6         -0.22060   0.00000  -0.00000   0.18981   0.00000
   1     8     1          0.16125  -0.13329  -0.35958   0.02362  -0.32757
   2     8     1         -0.15048  -0.11850  -0.27004   0.09700   0.04664
   3     8     1         -0.26635  -0.15440   0.06361  -0.22840   0.31463
   1     9     1         -0.05081   0.36684   0.11608  -0.00146   0.40795
   2     9     1          0.20971  -0.15901  -0.14046  -0.05055   0.12307
   3     9     1          0.25930  -0.24511   0.16557  -0.00825  -0.25822
   1    10     1         -0.14944  -0.08335   0.21351   0.10366  -0.04149
   2    10     1         -0.14983  -0.05454   0.23382  -0.29773  -0.02866
   3    10     1         -0.18850   0.07886   0.11260   0.18885  -0.07605
   1    11     1          0.14944  -0.08335   0.21351  -0.10366  -0.04149
   2    11     1          0.14983  -0.05454   0.23382   0.29773  -0.02866
   3    11     1         -0.18850  -0.07886  -0.11260   0.18885   0.07605
   1    12     1          0.05081   0.36684   0.11608   0.00146   0.40794
   2    12     1         -0.20971  -0.15901  -0.14046   0.05055   0.12307
   3    12     1          0.25930   0.24511  -0.16557  -0.00825   0.25822
   1    13     1         -0.16125  -0.13329  -0.35958  -0.02362  -0.32757
   2    13     1          0.15048  -0.11850  -0.27004  -0.09700   0.04664
   3    13     1         -0.26635   0.15440  -0.06361  -0.22840  -0.31463
   1    14     1          0.00000   0.45004   0.17992   0.00000  -0.14718
   2    14     1          0.00000   0.22021  -0.00705   0.00000  -0.05661
   3    14     1         -0.12819   0.00000  -0.00000   0.64053   0.00000
   1    15     1          0.00000   0.07081  -0.13479  -0.00000   0.00678
   2    15     1         -0.00000  -0.08846  -0.19247  -0.00000   0.06439
   3    15     1         -0.31093   0.00000   0.00000  -0.04867   0.00000
                          16        17        18        19        20
                          A"        A"        A"        A'        A'
       Frequencies ---   973.9899  975.9938 1054.4368 1068.0099 1265.8225
    Reduced masses ---     1.2372    1.3191    2.2363    2.3558    1.2178
   Force constants ---     0.6915    0.7403    1.4649    1.5832    1.1497
    IR Intensities ---     0.1719    0.6267    0.5645    0.6886    0.3855
 Coord Atom Element:
   1     1     6         -0.03321   0.03762  -0.05468  -0.11319  -0.01140
   2     1     6         -0.00664   0.01296  -0.05618   0.06270  -0.04615
   3     1     6          0.03779  -0.02592  -0.07384  -0.10791  -0.02347
   1     2     6          0.03937  -0.02749   0.07981   0.04784   0.00610
   2     2     6          0.01774  -0.00593  -0.05700   0.01933   0.04136
   3     2     6         -0.05139   0.05370   0.06762   0.06050   0.01190
   1     3     6         -0.04650  -0.07176  -0.07277  -0.02614   0.00589
   2     3     6         -0.02812  -0.05200   0.09133  -0.02272   0.00894
   3     3     6          0.01796  -0.01610  -0.06179   0.02892  -0.05743
   1     4     6          0.04650   0.07176   0.07277  -0.02614   0.00589
   2     4     6          0.02812   0.05200  -0.09133  -0.02272   0.00894
   3     4     6          0.01796  -0.01610  -0.06179  -0.02892   0.05743
   1     5     6         -0.03937   0.02749  -0.07981   0.04784   0.00610
   2     5     6         -0.01774   0.00593   0.05700   0.01933   0.04136
   3     5     6         -0.05139   0.05370   0.06762  -0.06050  -0.01190
   1     6     6          0.03321  -0.03762   0.05468  -0.11319  -0.01140
   2     6     6          0.00664  -0.01296   0.05618   0.06270  -0.04615
   3     6     6          0.03779  -0.02592  -0.07384   0.10791   0.02347
   1     7     6         -0.00000   0.00000  -0.00000   0.17124   0.04587
   2     7     6         -0.00000   0.00000   0.00000  -0.14077  -0.02783
   3     7     6         -0.01242  -0.01531   0.15897   0.00000   0.00000
   1     8     1          0.29541  -0.25066  -0.09973  -0.07670  -0.14951
   2     8     1          0.05739  -0.05761  -0.22403   0.14103  -0.37334
   3     8     1         -0.16265   0.13280  -0.22840  -0.05273  -0.28195
   1     9     1         -0.38892   0.25803  -0.02370   0.11417  -0.07603
   2     9     1         -0.01737   0.06428  -0.28340  -0.26721   0.37629
   3     9     1          0.18042  -0.11783   0.20165   0.12334  -0.06277
   1    10     1          0.40872   0.52355  -0.07499   0.06369  -0.06598
   2    10     1          0.14392   0.19898   0.23392   0.07616   0.10349
   3    10     1          0.01918  -0.06038  -0.31578  -0.08415  -0.27848
   1    11     1         -0.40872  -0.52355   0.07499   0.06369  -0.06598
   2    11     1         -0.14392  -0.19898  -0.23392   0.07616   0.10349
   3    11     1          0.01918  -0.06038  -0.31578   0.08415   0.27848
   1    12     1          0.38892  -0.25803   0.02370   0.11417  -0.07603
   2    12     1          0.01737  -0.06428   0.28340  -0.26721   0.37629
   3    12     1          0.18042  -0.11783   0.20165  -0.12334   0.06277
   1    13     1         -0.29541   0.25066   0.09973  -0.07670  -0.14951
   2    13     1         -0.05739   0.05761   0.22403   0.14103  -0.37334
   3    13     1         -0.16265   0.13280  -0.22840   0.05273   0.28195
   1    14     1         -0.00000   0.00000   0.00000  -0.45559  -0.05108
   2    14     1         -0.00000   0.00000   0.00000  -0.09988  -0.02401
   3    14     1         -0.02433   0.00789   0.29439   0.00000   0.00000
   1    15     1          0.00000  -0.00000  -0.00000   0.39304   0.07396
   2    15     1          0.00000  -0.00000  -0.00000   0.46376   0.04367
   3    15     1         -0.00538  -0.01283   0.11738   0.00000  -0.00000
                          21        22        23        24        25
                          A"        A'        A"        A"        A"
       Frequencies ---  1267.5811 1307.1060 1326.9812 1351.1449 1442.8455
    Reduced masses ---     1.1018    1.0904    1.1959    1.2927    1.2744
   Force constants ---     1.0431    1.0976    1.2407    1.3904    1.5631
    IR Intensities ---     0.1076    0.3026    1.8310    2.7990    0.8416
 Coord Atom Element:
   1     1     6          0.02664  -0.01224  -0.04724  -0.01693  -0.02973
   2     1     6         -0.03328   0.01817  -0.01212   0.01024  -0.05293
   3     1     6          0.01645  -0.01146  -0.04381   0.02767  -0.05718
   1     2     6         -0.01476  -0.00683   0.00498  -0.00248   0.02677
   2     2     6          0.01244   0.01230   0.04891  -0.01851  -0.04690
   3     2     6         -0.02382   0.01568   0.01664  -0.00852   0.02497
   1     3     6          0.00347   0.00931   0.00729  -0.00196   0.01399
   2     3     6          0.02799  -0.00938  -0.01205   0.00815  -0.01286
   3     3     6          0.02076   0.04275   0.01067  -0.00048   0.03563
   1     4     6         -0.00347   0.00931  -0.00729   0.00196  -0.01399
   2     4     6         -0.02799  -0.00938   0.01205  -0.00815   0.01286
   3     4     6          0.02076  -0.04275   0.01067  -0.00048   0.03563
   1     5     6          0.01476  -0.00683  -0.00498   0.00248  -0.02677
   2     5     6         -0.01244   0.01230  -0.04891   0.01851   0.04690
   3     5     6         -0.02382  -0.01568   0.01664  -0.00852   0.02497
   1     6     6         -0.02664  -0.01224   0.04724   0.01693   0.02973
   2     6     6          0.03328   0.01817   0.01212  -0.01024   0.05293
   3     6     6          0.01645   0.01146  -0.04381   0.02767  -0.05718
   1     7     6         -0.00000   0.01908   0.00000   0.00000  -0.00000
   2     7     6          0.00000  -0.03211  -0.00000   0.00000  -0.00000
   3     7     6          0.00663   0.00000   0.05000  -0.15039  -0.00037
   1     8     1         -0.12585  -0.06584  -0.08794  -0.01363   0.11913
   2     8     1         -0.36545  -0.10827  -0.13598  -0.01820   0.31006
   3     8     1         -0.23702  -0.11433  -0.15666  -0.00759   0.23881
   1     9     1         -0.10229  -0.04108  -0.04176   0.02873  -0.10482
   2     9     1          0.37086   0.28666   0.28712  -0.03421   0.43878
   3     9     1         -0.10355  -0.06229  -0.04342  -0.01857  -0.07980
   1    10     1          0.01436   0.11023   0.00722  -0.00257  -0.06391
   2    10     1         -0.00818  -0.25100  -0.03461   0.00358   0.12995
   3    10     1          0.09412   0.54752   0.05317   0.00654  -0.26704
   1    11     1         -0.01436   0.11023  -0.00722   0.00257   0.06391
   2    11     1          0.00818  -0.25100   0.03461  -0.00358  -0.12995
   3    11     1          0.09412  -0.54752   0.05317   0.00654  -0.26704
   1    12     1          0.10229  -0.04108   0.04176  -0.02873   0.10482
   2    12     1         -0.37086   0.28666  -0.28712   0.03421  -0.43878
   3    12     1         -0.10355   0.06229  -0.04342  -0.01857  -0.07980
   1    13     1          0.12585  -0.06584   0.08794   0.01363  -0.11913
   2    13     1          0.36545  -0.10827   0.13598   0.01820  -0.31006
   3    13     1         -0.23702   0.11433  -0.15666  -0.00759   0.23881
   1    14     1          0.00000  -0.05224  -0.00000   0.00000   0.00000
   2    14     1          0.00000  -0.02777  -0.00000  -0.00000  -0.00000
   3    14     1          0.39406   0.00000  -0.54452   0.62724   0.18576
   1    15     1         -0.00000   0.05090   0.00000   0.00000  -0.00000
   2    15     1         -0.00000   0.05302   0.00000   0.00000  -0.00000
   3    15     1         -0.29885  -0.00000   0.63605   0.75809  -0.04694
                          26        27        28        29        30
                          A'        A"        A'        A'        A"
       Frequencies ---  1469.3393 1506.8695 1548.8901 1559.8316 1637.6737
    Reduced masses ---     1.4643    1.5300    5.9724    1.1006    4.8979
   Force constants ---     1.8626    2.0469    8.4419    1.5778    7.7396
    IR Intensities ---     3.8551    0.4026    0.7180    5.8416    0.1751
 Coord Atom Element:
   1     1     6         -0.03888  -0.01752  -0.03351  -0.00184  -0.01578
   2     1     6         -0.03343  -0.02218  -0.20366   0.01257  -0.26702
   3     1     6         -0.07192  -0.03297  -0.05982   0.01085  -0.07925
   1     2     6          0.04276   0.02531  -0.03261  -0.00080  -0.03416
   2     2     6         -0.08211  -0.03313   0.18770  -0.01472   0.30521
   3     2     6          0.04936   0.04973  -0.03158  -0.00420   0.02230
   1     3     6         -0.00663  -0.04474   0.04639   0.00020   0.00940
   2     3     6          0.02517   0.09483  -0.06027   0.00311  -0.06484
   3     3     6         -0.03003  -0.08159   0.36655  -0.00293   0.00283
   1     4     6         -0.00663   0.04474   0.04639   0.00020  -0.00940
   2     4     6          0.02517  -0.09483  -0.06027   0.00311   0.06484
   3     4     6          0.03003  -0.08159  -0.36655   0.00293   0.00283
   1     5     6          0.04276  -0.02531  -0.03261  -0.00080   0.03416
   2     5     6         -0.08211   0.03313   0.18770  -0.01472  -0.30521
   3     5     6         -0.04936   0.04973   0.03158   0.00420   0.02230
   1     6     6         -0.03888   0.01752  -0.03351  -0.00184   0.01578
   2     6     6         -0.03343   0.02218  -0.20366   0.01257   0.26702
   3     6     6          0.07192  -0.03297   0.05982  -0.01085  -0.07925
   1     7     6          0.00066  -0.00000   0.02398  -0.07042  -0.00000
   2     7     6          0.02735   0.00000   0.06201  -0.04916   0.00000
   3     7     6          0.00000   0.00329   0.00000  -0.00000   0.00007
   1     8     1          0.14354   0.07615   0.05293  -0.00954   0.13762
   2     8     1          0.38645   0.18189   0.09736  -0.02253   0.04044
   3     8     1          0.25513   0.12982   0.24295  -0.02323   0.21118
   1     9     1         -0.12862  -0.02240   0.08224  -0.00366   0.18332
   2     9     1          0.46687   0.13799   0.17727  -0.00362  -0.27548
   3     9     1         -0.05618   0.02305  -0.06876  -0.00866   0.14668
   1    10     1         -0.01405   0.13003  -0.18663  -0.00477   0.01729
   2    10     1          0.03899  -0.20572   0.20504   0.00717  -0.10699
   3    10     1         -0.04932   0.58258  -0.20999  -0.01312   0.08452
   1    11     1         -0.01405  -0.13003  -0.18663  -0.00477  -0.01729
   2    11     1          0.03899   0.20572   0.20504   0.00717   0.10699
   3    11     1          0.04932   0.58258   0.20999   0.01312   0.08452
   1    12     1         -0.12862   0.02240   0.08224  -0.00366  -0.18332
   2    12     1          0.46687  -0.13799   0.17727  -0.00362   0.27548
   3    12     1          0.05618   0.02305   0.06876   0.00866   0.14668
   1    13     1          0.14354  -0.07615   0.05293  -0.00954  -0.13762
   2    13     1          0.38645  -0.18189   0.09736  -0.02253  -0.04044
   3    13     1         -0.25513   0.12982  -0.24295   0.02323   0.21118
   1    14     1          0.06085   0.00000   0.26564   0.70244   0.00000
   2    14     1          0.02964  -0.00000   0.05384  -0.06161   0.00000
   3    14     1          0.00000   0.05592  -0.00000  -0.00000   0.46111
   1    15     1         -0.00474   0.00000   0.02160   0.23030   0.00000
   2    15     1          0.01229   0.00000   0.06356   0.66207   0.00000
   3    15     1         -0.00000  -0.02214  -0.00000   0.00000  -0.05782
                          31        32        33        34        35
                          A'        A'        A'        A"        A'
       Frequencies ---  1644.2190 3069.1635 3146.2346 3152.1006 3163.4470
    Reduced masses ---     3.7107    1.0621    1.0963    1.0837    1.0865
   Force constants ---     5.9105    5.8948    6.3939    6.3437    6.4063
    IR Intensities ---     1.9362   20.2415    9.3389    0.0220    2.6760
 Coord Atom Element:
   1     1     6         -0.02238  -0.00039  -0.00684  -0.00360   0.00780
   2     1     6         -0.18771  -0.00000   0.01079   0.00500  -0.00932
   3     1     6         -0.06980   0.00027  -0.00854  -0.00446   0.00978
   1     2     6         -0.00831   0.00009   0.00304   0.01045  -0.02147
   2     2     6          0.19694   0.00033   0.00184   0.00813  -0.01646
   3     2     6          0.05777  -0.00048   0.00627   0.02085  -0.04253
   1     3     6         -0.01674  -0.00035   0.00101   0.01669  -0.00746
   2     3     6         -0.00395  -0.00004  -0.00231  -0.04365   0.01973
   3     3     6         -0.19693   0.00071  -0.00162  -0.02444   0.01282
   1     4     6         -0.01674  -0.00035   0.00101  -0.01669  -0.00746
   2     4     6         -0.00395  -0.00004  -0.00231   0.04365   0.01973
   3     4     6          0.19693  -0.00071   0.00162  -0.02444  -0.01282
   1     5     6         -0.00831   0.00009   0.00304  -0.01045  -0.02147
   2     5     6          0.19694   0.00033   0.00184  -0.00813  -0.01646
   3     5     6         -0.05777   0.00048  -0.00627   0.02085   0.04253
   1     6     6         -0.02238  -0.00039  -0.00684   0.00360   0.00780
   2     6     6         -0.18771  -0.00000   0.01079  -0.00500  -0.00932
   3     6     6          0.06980  -0.00027   0.00854  -0.00446  -0.00978
   1     7     6          0.00173  -0.07020   0.02309   0.00000   0.00598
   2     7     6          0.04624  -0.00316  -0.08320  -0.00000  -0.01837
   3     7     6          0.00000  -0.00000   0.00000  -0.00023  -0.00000
   1     8     1          0.12730  -0.00463   0.09145   0.04619  -0.09383
   2     8     1          0.11038   0.00274  -0.12833  -0.06394   0.12832
   3     8     1          0.19355  -0.00036   0.10772   0.05481  -0.11314
   1     9     1          0.15805   0.00264  -0.03881  -0.12799   0.25871
   2     9     1         -0.26312   0.00130  -0.02645  -0.09080   0.17977
   3     9     1          0.16006   0.00547  -0.07555  -0.25118   0.50552
   1    10     1          0.15455   0.00233  -0.01125  -0.19849   0.08805
   2    10     1         -0.23607  -0.00422   0.02959   0.52356  -0.23624
   3    10     1          0.29242  -0.00240   0.01678   0.29342  -0.13538
   1    11     1          0.15455   0.00233  -0.01125   0.19849   0.08805
   2    11     1         -0.23607  -0.00422   0.02959  -0.52356  -0.23624
   3    11     1         -0.29242   0.00240  -0.01678   0.29342   0.13538
   1    12     1          0.15805   0.00264  -0.03881   0.12799   0.25871
   2    12     1         -0.26312   0.00130  -0.02645   0.09080   0.17977
   3    12     1         -0.16006  -0.00547   0.07555  -0.25118  -0.50552
   1    13     1          0.12730  -0.00463   0.09145  -0.04619  -0.09383
   2    13     1          0.11038   0.00274  -0.12833   0.06394   0.12832
   3    13     1         -0.19355   0.00036  -0.10772   0.05481   0.11314
   1    14     1          0.21659  -0.00109   0.03603   0.00000   0.00806
   2    14     1          0.03889   0.38204   0.88309   0.00000   0.18873
   3    14     1         -0.00000   0.00000  -0.00000   0.00005   0.00000
   1    15     1          0.01239   0.85188  -0.32707  -0.00000  -0.08191
   2    15     1          0.06255  -0.35102   0.11212   0.00000   0.03034
   3    15     1          0.00000   0.00000   0.00000   0.00027  -0.00000
                          36        37        38        39
                          A"        A'        A"        A'
       Frequencies ---  3167.8923 3181.4390 3196.8387 3202.1559
    Reduced masses ---     1.0853    1.0923    1.0952    1.0967
   Force constants ---     6.4174    6.5140    6.5943    6.6253
    IR Intensities ---     7.8999   40.3493   33.3420    9.3297
 Coord Atom Element:
   1     1     6          0.01211   0.00951   0.02564   0.02485
   2     1     6         -0.01581  -0.01277  -0.03933  -0.03796
   3     1     6          0.01465   0.01142   0.03000   0.02969
   1     2     6         -0.02046  -0.00827   0.01179   0.01126
   2     2     6         -0.01424  -0.00398   0.01181   0.01119
   3     2     6         -0.04012  -0.01582   0.02380   0.02292
   1     3     6          0.00856   0.01686  -0.00168  -0.00382
   2     3     6         -0.02201  -0.04471   0.00415   0.01046
   3     3     6         -0.01123  -0.02849   0.00126   0.00576
   1     4     6         -0.00856   0.01686   0.00168  -0.00382
   2     4     6          0.02201  -0.04471  -0.00415   0.01046
   3     4     6         -0.01123   0.02849   0.00126  -0.00576
   1     5     6          0.02046  -0.00827  -0.01179   0.01126
   2     5     6          0.01424  -0.00398  -0.01181   0.01119
   3     5     6         -0.04012   0.01582   0.02380  -0.02292
   1     6     6         -0.01211   0.00951  -0.02564   0.02485
   2     6     6          0.01581  -0.01277   0.03933  -0.03796
   3     6     6          0.01465  -0.01142   0.03000  -0.02969
   1     7     6          0.00000   0.00165  -0.00000   0.00383
   2     7     6          0.00000  -0.00757   0.00000  -0.01781
   3     7     6         -0.00007   0.00000  -0.00181  -0.00000
   1     8     1         -0.14574  -0.11154  -0.30065  -0.28976
   2     8     1          0.20036   0.15381   0.41942   0.40416
   3     8     1         -0.17469  -0.13518  -0.36038  -0.34918
   1     9     1          0.24288   0.09330  -0.13490  -0.12890
   2     9     1          0.16558   0.05936  -0.09574  -0.09098
   3     9     1          0.47340   0.18068  -0.26421  -0.25243
   1    10     1         -0.09694  -0.19525   0.01618   0.04258
   2    10     1          0.25554   0.51941  -0.04412  -0.11487
   3    10     1          0.13915   0.29229  -0.02107  -0.06215
   1    11     1          0.09694  -0.19525  -0.01618   0.04258
   2    11     1         -0.25554   0.51941   0.04412  -0.11487
   3    11     1          0.13915  -0.29229  -0.02107   0.06215
   1    12     1         -0.24288   0.09330   0.13490  -0.12890
   2    12     1         -0.16558   0.05936   0.09574  -0.09098
   3    12     1          0.47340  -0.18068  -0.26421   0.25242
   1    13     1          0.14574  -0.11154   0.30065  -0.28976
   2    13     1         -0.20036   0.15381  -0.41942   0.40416
   3    13     1         -0.17469   0.13518  -0.36038   0.34918
   1    14     1         -0.00000   0.00357  -0.00000   0.00972
   2    14     1         -0.00000   0.07925  -0.00000   0.18080
   3    14     1          0.00035  -0.00000   0.00554   0.00000
   1    15     1         -0.00000  -0.02740   0.00000  -0.07188
   2    15     1          0.00000   0.00932  -0.00000   0.02326
   3    15     1         -0.00114  -0.00000  -0.00400  -0.00000
 Harmonic frequencies (cm**-1), IR intensities (KM/Mole), Raman scattering
 activities (A**4/AMU), depolarization ratios for plane and unpolarized
 incident light, reduced masses (AMU), force constants (mDyne/A),
 and normal coordinates:
                      1                      2                      3
                     A'                     A"                     A'
 Frequencies --    236.6616               290.9831               368.1859
 Red. masses --      2.2012                 3.0878                 3.1077
 Frc consts  --      0.0726                 0.1540                 0.2482
 IR Inten    --      0.2092                 0.7929                 1.6836
  Atom  AN      X      Y      Z        X      Y      Z        X      Y      Z
     1   6     0.05  -0.00  -0.06    -0.18  -0.05   0.07     0.03   0.01   0.13
     2   6     0.11  -0.01  -0.04     0.10  -0.02  -0.03    -0.06  -0.02   0.19
     3   6    -0.09  -0.08   0.00     0.20   0.04  -0.02     0.03  -0.11   0.01
     4   6    -0.09  -0.08  -0.00    -0.20  -0.04  -0.02     0.03  -0.11  -0.01
     5   6     0.11  -0.01   0.04    -0.10   0.02  -0.03    -0.06  -0.02  -0.19
     6   6     0.05  -0.00   0.06     0.18   0.05   0.07     0.03   0.01  -0.13
     7   6    -0.13   0.15   0.00    -0.00   0.00  -0.05     0.08   0.20  -0.00
     8   1     0.14  -0.05  -0.19    -0.43  -0.10   0.22    -0.16  -0.08   0.18
     9   1     0.24   0.02  -0.12     0.09  -0.08  -0.00    -0.28   0.03   0.29
    10   1    -0.23  -0.14   0.01     0.34   0.07   0.02    -0.04  -0.09  -0.08
    11   1    -0.23  -0.14  -0.01    -0.34  -0.07   0.02    -0.04  -0.09   0.08
    12   1     0.24   0.02   0.12    -0.09   0.08  -0.00    -0.28   0.03  -0.29
    13   1     0.14  -0.05   0.19     0.43   0.10   0.22    -0.16  -0.08  -0.18
    14   1    -0.46   0.17   0.00     0.00   0.00  -0.09    -0.20   0.22   0.00
    15   1     0.01   0.50   0.00    -0.00  -0.00  -0.23     0.18   0.45   0.00
                      4                      5                      6
                     A"                     A'                     A"
 Frequencies --    415.9992               431.1003               605.7796
 Red. masses --      5.2086                 2.1774                 2.7284
 Frc consts  --      0.5311                 0.2384                 0.5899
 IR Inten    --      0.7660                 8.1383                 5.0041
  Atom  AN      X      Y      Z        X      Y      Z        X      Y      Z
     1   6    -0.03   0.19  -0.19    -0.11   0.02   0.12     0.15  -0.04  -0.03
     2   6    -0.05   0.14   0.11     0.15   0.03  -0.02    -0.12  -0.04   0.05
     3   6     0.09   0.19   0.17    -0.03  -0.02  -0.02     0.17   0.03  -0.08
     4   6    -0.09  -0.19   0.17    -0.03  -0.02   0.02    -0.17  -0.03  -0.08
     5   6     0.05  -0.14   0.11     0.15   0.03   0.02     0.12   0.04   0.05
     6   6     0.03  -0.19  -0.19    -0.11   0.02  -0.12    -0.15   0.04  -0.03
     7   6     0.00   0.00  -0.15     0.04  -0.02  -0.00    -0.00  -0.00   0.05
     8   1     0.05   0.17  -0.28    -0.32  -0.02   0.26    -0.07  -0.05   0.14
     9   1    -0.00  -0.08   0.16     0.19   0.07  -0.05    -0.48  -0.07   0.25
    10   1     0.17   0.30   0.02    -0.38  -0.17   0.02     0.22   0.05  -0.07
    11   1    -0.17  -0.30   0.02    -0.38  -0.17  -0.02    -0.22  -0.05  -0.07
    12   1     0.00   0.08   0.16     0.19   0.07   0.05     0.48   0.07   0.25
    13   1    -0.05  -0.17  -0.28    -0.32  -0.02  -0.26     0.07   0.05   0.14
    14   1    -0.00   0.00   0.12     0.23  -0.03   0.00     0.00  -0.00  -0.02
    15   1     0.00   0.00  -0.30    -0.05  -0.23   0.00    -0.00  -0.00   0.27
                      7                      8                      9
                     A'                     A'                     A"
 Frequencies --    681.8588               735.0930               771.1146
 Red. masses --      1.9465                 1.5490                 1.4955
 Frc consts  --      0.5332                 0.4932                 0.5239
 IR Inten    --     17.0945                77.3122                34.7165
  Atom  AN      X      Y      Z        X      Y      Z        X      Y      Z
     1   6     0.04  -0.08   0.03    -0.03  -0.04   0.13    -0.04  -0.05   0.05
     2   6    -0.01  -0.03  -0.13    -0.01  -0.00   0.01    -0.09  -0.04   0.03
     3   6    -0.02   0.10  -0.01    -0.06   0.01   0.00     0.05   0.04  -0.03
     4   6    -0.02   0.10   0.01    -0.06   0.01  -0.00    -0.05  -0.04  -0.03
     5   6    -0.01  -0.03   0.13    -0.01  -0.00  -0.01     0.09   0.04   0.03
     6   6     0.04  -0.08  -0.03    -0.03  -0.04  -0.13     0.04   0.05   0.05
     7   6     0.08  -0.00   0.00     0.04  -0.01   0.00    -0.00   0.00   0.02
     8   1    -0.24  -0.04   0.32     0.27   0.03  -0.04     0.45   0.02  -0.28
     9   1    -0.24  -0.04  -0.01     0.35   0.14  -0.22     0.34   0.02  -0.21
    10   1    -0.07   0.01   0.12     0.38   0.19  -0.01     0.13   0.09  -0.07
    11   1    -0.07   0.01  -0.12     0.38   0.19   0.01    -0.13  -0.09  -0.07
    12   1    -0.24  -0.04   0.01     0.35   0.14   0.22    -0.34  -0.02  -0.21
    13   1    -0.24  -0.04  -0.32     0.27   0.03   0.04    -0.45  -0.02  -0.28
    14   1    -0.42   0.03  -0.00    -0.15  -0.00  -0.00     0.00   0.00  -0.07
    15   1     0.25   0.45   0.00     0.10   0.14  -0.00    -0.00  -0.00   0.01
                     10                     11                     12
                     A'                     A"                     A'
 Frequencies --    804.8776               908.3104               918.4362
 Red. masses --      1.7095                 3.8604                 2.6861
 Frc consts  --      0.6525                 1.8765                 1.3350
 IR Inten    --      4.1244                 0.0313                 3.7276
  Atom  AN      X      Y      Z        X      Y      Z        X      Y      Z
     1   6    -0.00   0.04  -0.03     0.01   0.03   0.05    -0.07  -0.02  -0.07
     2   6     0.03   0.03  -0.09     0.11   0.04   0.23    -0.07  -0.11  -0.03
     3   6    -0.05  -0.12  -0.02     0.03  -0.11  -0.14     0.01   0.03  -0.01
     4   6    -0.05  -0.12   0.02    -0.03   0.11  -0.14     0.01   0.03   0.01
     5   6     0.03   0.03   0.09    -0.11  -0.04   0.23    -0.07  -0.11   0.03
     6   6    -0.00   0.04   0.03    -0.01  -0.03   0.05    -0.07  -0.02   0.07
     7   6     0.02   0.07  -0.00     0.00   0.00  -0.22     0.20   0.23   0.00
     8   1    -0.28   0.01   0.15     0.16  -0.15  -0.27    -0.13  -0.12  -0.15
     9   1    -0.18   0.07  -0.00    -0.05   0.21   0.26     0.37  -0.16  -0.25
    10   1     0.53   0.12  -0.06    -0.15  -0.15  -0.19    -0.08  -0.05   0.08
    11   1     0.53   0.12   0.06     0.15   0.15  -0.19    -0.08  -0.05  -0.08
    12   1    -0.18   0.07   0.00     0.05  -0.21   0.26     0.37  -0.16   0.25
    13   1    -0.28   0.01  -0.15    -0.16   0.15  -0.27    -0.13  -0.12   0.15
    14   1     0.19   0.06   0.00     0.00   0.00  -0.13     0.45   0.22   0.00
    15   1    -0.04  -0.08   0.00     0.00  -0.00  -0.31     0.07  -0.09   0.00
                     13                     14                     15
                     A'                     A"                     A'
 Frequencies --    926.7660               953.1952               967.7494
 Red. masses --      2.6866                 3.0714                 1.4570
 Frc consts  --      1.3595                 1.6442                 0.8040
 IR Inten    --      0.3006                 0.0798                 0.2223
  Atom  AN      X      Y      Z        X      Y      Z        X      Y      Z
     1   6     0.07  -0.05  -0.05    -0.10   0.11  -0.10     0.07   0.04  -0.03
     2   6     0.09  -0.05   0.14    -0.03  -0.03   0.01    -0.08   0.01   0.03
     3   6    -0.13   0.12   0.07     0.08  -0.19  -0.02     0.03  -0.03  -0.02
     4   6    -0.13   0.12  -0.07    -0.08   0.19  -0.02     0.03  -0.03   0.02
     5   6     0.09  -0.05  -0.14     0.03   0.03   0.01    -0.08   0.01  -0.03
     6   6     0.07  -0.05   0.05     0.10  -0.11  -0.10     0.07   0.04   0.03
     7   6    -0.06   0.01  -0.00    -0.00   0.00   0.19    -0.04  -0.06   0.00
     8   1    -0.36  -0.27   0.06     0.02   0.10  -0.23    -0.33   0.05   0.31
     9   1     0.12  -0.14   0.17    -0.00  -0.05  -0.01     0.41   0.12  -0.26
    10   1     0.21   0.23   0.11     0.10  -0.30   0.19    -0.04  -0.03  -0.08
    11   1     0.21   0.23  -0.11    -0.10   0.30   0.19    -0.04  -0.03   0.08
    12   1     0.12  -0.14  -0.17     0.00   0.05  -0.01     0.41   0.12   0.26
    13   1    -0.36  -0.27  -0.06    -0.02  -0.10  -0.23    -0.33   0.05  -0.31
    14   1     0.18  -0.01  -0.00     0.00   0.00   0.64    -0.15  -0.06   0.00
    15   1    -0.13  -0.19   0.00    -0.00  -0.00  -0.05     0.01   0.06   0.00
                     16                     17                     18
                     A"                     A"                     A"
 Frequencies --    973.9899               975.9938              1054.4368
 Red. masses --      1.2372                 1.3191                 2.2363
 Frc consts  --      0.6915                 0.7403                 1.4649
 IR Inten    --      0.1719                 0.6267                 0.5645
  Atom  AN      X      Y      Z        X      Y      Z        X      Y      Z
     1   6    -0.03  -0.01   0.04     0.04   0.01  -0.03    -0.05  -0.06  -0.07
     2   6     0.04   0.02  -0.05    -0.03  -0.01   0.05     0.08  -0.06   0.07
     3   6    -0.05  -0.03   0.02    -0.07  -0.05  -0.02    -0.07   0.09  -0.06
     4   6     0.05   0.03   0.02     0.07   0.05  -0.02     0.07  -0.09  -0.06
     5   6    -0.04  -0.02  -0.05     0.03   0.01   0.05    -0.08   0.06   0.07
     6   6     0.03   0.01   0.04    -0.04  -0.01  -0.03     0.05   0.06  -0.07
     7   6    -0.00  -0.00  -0.01     0.00   0.00  -0.02    -0.00   0.00   0.16
     8   1     0.30   0.06  -0.16    -0.25  -0.06   0.13    -0.10  -0.22  -0.23
     9   1    -0.39  -0.02   0.18     0.26   0.06  -0.12    -0.02  -0.28   0.20
    10   1     0.41   0.14   0.02     0.52   0.20  -0.06    -0.07   0.23  -0.32
    11   1    -0.41  -0.14   0.02    -0.52  -0.20  -0.06     0.07  -0.23  -0.32
    12   1     0.39   0.02   0.18    -0.26  -0.06  -0.12     0.02   0.28   0.20
    13   1    -0.30  -0.06  -0.16     0.25   0.06   0.13     0.10   0.22  -0.23
    14   1    -0.00  -0.00  -0.02     0.00   0.00   0.01     0.00   0.00   0.29
    15   1     0.00   0.00  -0.01    -0.00  -0.00  -0.01    -0.00  -0.00   0.12
                     19                     20                     21
                     A'                     A'                     A"
 Frequencies --   1068.0099              1265.8225              1267.5811
 Red. masses --      2.3558                 1.2178                 1.1018
 Frc consts  --      1.5832                 1.1497                 1.0431
 IR Inten    --      0.6886                 0.3855                 0.1076
  Atom  AN      X      Y      Z        X      Y      Z        X      Y      Z
     1   6    -0.11   0.06  -0.11    -0.01  -0.05  -0.02     0.03  -0.03   0.02
     2   6     0.05   0.02   0.06     0.01   0.04   0.01    -0.01   0.01  -0.02
     3   6    -0.03  -0.02   0.03     0.01   0.01  -0.06     0.00   0.03   0.02
     4   6    -0.03  -0.02  -0.03     0.01   0.01   0.06    -0.00  -0.03   0.02
     5   6     0.05   0.02  -0.06     0.01   0.04  -0.01     0.01  -0.01  -0.02
     6   6    -0.11   0.06   0.11    -0.01  -0.05   0.02    -0.03   0.03   0.02
     7   6     0.17  -0.14   0.00     0.05  -0.03   0.00    -0.00   0.00   0.01
     8   1    -0.08   0.14  -0.05    -0.15  -0.37  -0.28    -0.13  -0.37  -0.24
     9   1     0.11  -0.27   0.12    -0.08   0.38  -0.06    -0.10   0.37  -0.10
    10   1     0.06   0.08  -0.08    -0.07   0.10  -0.28     0.01  -0.01   0.09
    11   1     0.06   0.08   0.08    -0.07   0.10   0.28    -0.01   0.01   0.09
    12   1     0.11  -0.27  -0.12    -0.08   0.38   0.06     0.10  -0.37  -0.10
    13   1    -0.08   0.14   0.05    -0.15  -0.37   0.28     0.13   0.37  -0.24
    14   1    -0.46  -0.10   0.00    -0.05  -0.02   0.00     0.00   0.00   0.39
    15   1     0.39   0.46   0.00     0.07   0.04  -0.00    -0.00  -0.00  -0.30
                     22                     23                     24
                     A'                     A"                     A"
 Frequencies --   1307.1060              1326.9812              1351.1449
 Red. masses --      1.0904                 1.1959                 1.2927
 Frc consts  --      1.0976                 1.2407                 1.3904
 IR Inten    --      0.3026                 1.8310                 2.7990
  Atom  AN      X      Y      Z        X      Y      Z        X      Y      Z
     1   6    -0.01   0.02  -0.01    -0.05  -0.01  -0.04    -0.02   0.01   0.03
     2   6    -0.01   0.01   0.02     0.00   0.05   0.02    -0.00  -0.02  -0.01
     3   6     0.01  -0.01   0.04     0.01  -0.01   0.01    -0.00   0.01  -0.00
     4   6     0.01  -0.01  -0.04    -0.01   0.01   0.01     0.00  -0.01  -0.00
     5   6    -0.01   0.01  -0.02    -0.00  -0.05   0.02     0.00   0.02  -0.01
     6   6    -0.01   0.02   0.01     0.05   0.01  -0.04     0.02  -0.01   0.03
     7   6     0.02  -0.03   0.00     0.00  -0.00   0.05     0.00   0.00  -0.15
     8   1    -0.07  -0.11  -0.11    -0.09  -0.14  -0.16    -0.01  -0.02  -0.01
     9   1    -0.04   0.29  -0.06    -0.04   0.29  -0.04     0.03  -0.03  -0.02
    10   1     0.11  -0.25   0.55     0.01  -0.03   0.05    -0.00   0.00   0.01
    11   1     0.11  -0.25  -0.55    -0.01   0.03   0.05     0.00  -0.00   0.01
    12   1    -0.04   0.29   0.06     0.04  -0.29  -0.04    -0.03   0.03  -0.02
    13   1    -0.07  -0.11   0.11     0.09   0.14  -0.16     0.01   0.02  -0.01
    14   1    -0.05  -0.03   0.00    -0.00  -0.00  -0.54     0.00  -0.00   0.63
    15   1     0.05   0.05  -0.00     0.00   0.00   0.64     0.00   0.00   0.76
                     25                     26                     27
                     A"                     A'                     A"
 Frequencies --   1442.8455              1469.3393              1506.8695
 Red. masses --      1.2744                 1.4643                 1.5300
 Frc consts  --      1.5631                 1.8626                 2.0469
 IR Inten    --      0.8416                 3.8551                 0.4026
  Atom  AN      X      Y      Z        X      Y      Z        X      Y      Z
     1   6    -0.03  -0.05  -0.06    -0.04  -0.03  -0.07    -0.02  -0.02  -0.03
     2   6     0.03  -0.05   0.02     0.04  -0.08   0.05     0.03  -0.03   0.05
     3   6     0.01  -0.01   0.04    -0.01   0.03  -0.03    -0.04   0.09  -0.08
     4   6    -0.01   0.01   0.04    -0.01   0.03   0.03     0.04  -0.09  -0.08
     5   6    -0.03   0.05   0.02     0.04  -0.08  -0.05    -0.03   0.03   0.05
     6   6     0.03   0.05  -0.06    -0.04  -0.03   0.07     0.02   0.02  -0.03
     7   6    -0.00  -0.00  -0.00     0.00   0.03   0.00    -0.00   0.00   0.00
     8   1     0.12   0.31   0.24     0.14   0.39   0.26     0.08   0.18   0.13
     9   1    -0.10   0.44  -0.08    -0.13   0.47  -0.06    -0.02   0.14   0.02
    10   1    -0.06   0.13  -0.27    -0.01   0.04  -0.05     0.13  -0.21   0.58
    11   1     0.06  -0.13  -0.27    -0.01   0.04   0.05    -0.13   0.21   0.58
    12   1     0.10  -0.44  -0.08    -0.13   0.47   0.06     0.02  -0.14   0.02
    13   1    -0.12  -0.31   0.24     0.14   0.39  -0.26    -0.08  -0.18   0.13
    14   1     0.00  -0.00   0.19     0.06   0.03   0.00     0.00  -0.00   0.06
    15   1    -0.00  -0.00  -0.05    -0.00   0.01  -0.00     0.00   0.00  -0.02
                     28                     29                     30
                     A'                     A'                     A"
 Frequencies --   1548.8901              1559.8316              1637.6737
 Red. masses --      5.9724                 1.1006                 4.8979
 Frc consts  --      8.4419                 1.5778                 7.7396
 IR Inten    --      0.7180                 5.8416                 0.1751
  Atom  AN      X      Y      Z        X      Y      Z        X      Y      Z
     1   6    -0.03  -0.20  -0.06    -0.00   0.01   0.01    -0.02  -0.27  -0.08
     2   6    -0.03   0.19  -0.03    -0.00  -0.01  -0.00    -0.03   0.31   0.02
     3   6     0.05  -0.06   0.37     0.00   0.00  -0.00     0.01  -0.06   0.00
     4   6     0.05  -0.06  -0.37     0.00   0.00   0.00    -0.01   0.06   0.00
     5   6    -0.03   0.19   0.03    -0.00  -0.01   0.00     0.03  -0.31   0.02
     6   6    -0.03  -0.20   0.06    -0.00   0.01  -0.01     0.02   0.27  -0.08
     7   6     0.02   0.06   0.00    -0.07  -0.05  -0.00    -0.00   0.00   0.00
     8   1     0.05   0.10   0.24    -0.01  -0.02  -0.02     0.14   0.04   0.21
     9   1     0.08   0.18  -0.07    -0.00  -0.00  -0.01     0.18  -0.28   0.15
    10   1    -0.19   0.21  -0.21    -0.00   0.01  -0.01     0.02  -0.11   0.08
    11   1    -0.19   0.21   0.21    -0.00   0.01   0.01    -0.02   0.11   0.08
    12   1     0.08   0.18   0.07    -0.00  -0.00   0.01    -0.18   0.28   0.15
    13   1     0.05   0.10  -0.24    -0.01  -0.02   0.02    -0.14  -0.04   0.21
    14   1     0.27   0.05  -0.00     0.70  -0.06  -0.00     0.00   0.00   0.46
    15   1     0.02   0.06  -0.00     0.23   0.66   0.00     0.00   0.00  -0.06
                     31                     32                     33
                     A'                     A'                     A'
 Frequencies --   1644.2190              3069.1635              3146.2346
 Red. masses --      3.7107                 1.0621                 1.0963
 Frc consts  --      5.9105                 5.8948                 6.3939
 IR Inten    --      1.9362                20.2415                 9.3389
  Atom  AN      X      Y      Z        X      Y      Z        X      Y      Z
     1   6    -0.02  -0.19  -0.07    -0.00  -0.00   0.00    -0.01   0.01  -0.01
     2   6    -0.01   0.20   0.06     0.00   0.00  -0.00     0.00   0.00   0.01
     3   6    -0.02  -0.00  -0.20    -0.00  -0.00   0.00     0.00  -0.00  -0.00
     4   6    -0.02  -0.00   0.20    -0.00  -0.00  -0.00     0.00  -0.00   0.00
     5   6    -0.01   0.20  -0.06     0.00   0.00   0.00     0.00   0.00  -0.01
     6   6    -0.02  -0.19   0.07    -0.00  -0.00  -0.00    -0.01   0.01   0.01
     7   6     0.00   0.05   0.00    -0.07  -0.00  -0.00     0.02  -0.08   0.00
     8   1     0.13   0.11   0.19    -0.00   0.00  -0.00     0.09  -0.13   0.11
     9   1     0.16  -0.26   0.16     0.00   0.00   0.01    -0.04  -0.03  -0.08
    10   1     0.15  -0.24   0.29     0.00  -0.00  -0.00    -0.01   0.03   0.02
    11   1     0.15  -0.24  -0.29     0.00  -0.00   0.00    -0.01   0.03  -0.02
    12   1     0.16  -0.26  -0.16     0.00   0.00  -0.01    -0.04  -0.03   0.08
    13   1     0.13   0.11  -0.19    -0.00   0.00   0.00     0.09  -0.13  -0.11
    14   1     0.22   0.04  -0.00    -0.00   0.38   0.00     0.04   0.88  -0.00
    15   1     0.01   0.06   0.00     0.85  -0.35   0.00    -0.33   0.11   0.00
                     34                     35                     36
                     A"                     A'                     A"
 Frequencies --   3152.1006              3163.4470              3167.8923
 Red. masses --      1.0837                 1.0865                 1.0853
 Frc consts  --      6.3437                 6.4063                 6.4174
 IR Inten    --      0.0220                 2.6760                 7.8999
  Atom  AN      X      Y      Z        X      Y      Z        X      Y      Z
     1   6    -0.00   0.00  -0.00     0.01  -0.01   0.01     0.01  -0.02   0.01
     2   6     0.01   0.01   0.02    -0.02  -0.02  -0.04    -0.02  -0.01  -0.04
     3   6     0.02  -0.04  -0.02    -0.01   0.02   0.01     0.01  -0.02  -0.01
     4   6    -0.02   0.04  -0.02    -0.01   0.02  -0.01    -0.01   0.02  -0.01
     5   6    -0.01  -0.01   0.02    -0.02  -0.02   0.04     0.02   0.01  -0.04
     6   6     0.00  -0.00  -0.00     0.01  -0.01  -0.01    -0.01   0.02   0.01
     7   6     0.00  -0.00  -0.00     0.01  -0.02  -0.00     0.00   0.00  -0.00
     8   1     0.05  -0.06   0.05    -0.09   0.13  -0.11    -0.15   0.20  -0.17
     9   1    -0.13  -0.09  -0.25     0.26   0.18   0.51     0.24   0.17   0.47
    10   1    -0.20   0.52   0.29     0.09  -0.24  -0.14    -0.10   0.26   0.14
    11   1     0.20  -0.52   0.29     0.09  -0.24   0.14     0.10  -0.26   0.14
    12   1     0.13   0.09  -0.25     0.26   0.18  -0.51    -0.24  -0.17   0.47
    13   1    -0.05   0.06   0.05    -0.09   0.13   0.11     0.15  -0.20  -0.17
    14   1     0.00   0.00   0.00     0.01   0.19   0.00    -0.00  -0.00   0.00
    15   1    -0.00   0.00   0.00    -0.08   0.03  -0.00    -0.00   0.00  -0.00
                     37                     38                     39
                     A'                     A"                     A'
 Frequencies --   3181.4390              3196.8387              3202.1559
 Red. masses --      1.0923                 1.0952                 1.0967
 Frc consts  --      6.5140                 6.5943                 6.6253
 IR Inten    --     40.3493                33.3420                 9.3297
  Atom  AN      X      Y      Z        X      Y      Z        X      Y      Z
     1   6     0.01  -0.01   0.01     0.03  -0.04   0.03     0.02  -0.04   0.03
     2   6    -0.01  -0.00  -0.02     0.01   0.01   0.02     0.01   0.01   0.02
     3   6     0.02  -0.04  -0.03    -0.00   0.00   0.00    -0.00   0.01   0.01
     4   6     0.02  -0.04   0.03     0.00  -0.00   0.00    -0.00   0.01  -0.01
     5   6    -0.01  -0.00   0.02    -0.01  -0.01   0.02     0.01   0.01  -0.02
     6   6     0.01  -0.01  -0.01    -0.03   0.04   0.03     0.02  -0.04  -0.03
     7   6     0.00  -0.01   0.00    -0.00   0.00  -0.00     0.00  -0.02  -0.00
     8   1    -0.11   0.15  -0.14    -0.30   0.42  -0.36    -0.29   0.40  -0.35
     9   1     0.09   0.06   0.18    -0.13  -0.10  -0.26    -0.13  -0.09  -0.25
    10   1    -0.20   0.52   0.29     0.02  -0.04  -0.02     0.04  -0.11  -0.06
    11   1    -0.20   0.52  -0.29    -0.02   0.04  -0.02     0.04  -0.11   0.06
    12   1     0.09   0.06  -0.18     0.13   0.10  -0.26    -0.13  -0.09   0.25
    13   1    -0.11   0.15   0.14     0.30  -0.42  -0.36    -0.29   0.40   0.35
    14   1     0.00   0.08  -0.00    -0.00  -0.00   0.01     0.01   0.18   0.00
    15   1    -0.03   0.01  -0.00     0.00  -0.00  -0.00    -0.07   0.02  -0.00

 -------------------
 - Thermochemistry -
 -------------------
 Temperature   298.150 Kelvin.  Pressure   1.00000 Atm.
 Atom     1 has atomic number  6 and mass  12.00000
 Atom     2 has atomic number  6 and mass  12.00000
 Atom     3 has atomic number  6 and mass  12.00000
 Atom     4 has atomic number  6 and mass  12.00000
 Atom     5 has atomic number  6 and mass  12.00000
 Atom     6 has atomic number  6 and mass  12.00000
 Atom     7 has atomic number  6 and mass  12.00000
 Atom     8 has atomic number  1 and mass   1.00783
 Atom     9 has atomic number  1 and mass   1.00783
 Atom    10 has atomic number  1 and mass   1.00783
 Atom    11 has atomic number  1 and mass   1.00783
 Atom    12 has atomic number  1 and mass   1.00783
 Atom    13 has atomic number  1 and mass   1.00783
 Atom    14 has atomic number  1 and mass   1.00783
 Atom    15 has atomic number  1 and mass   1.00783
 Molecular mass:    92.06260 amu.
 Principal axes and moments of inertia in atomic units:
                           1         2         3
     Eigenvalues --   494.01131 496.71000 892.47381
           X           -0.00000  -0.06164   0.99810
           Y            0.00000   0.99810   0.06164
           Z            1.00000  -0.00000   0.00000
 This molecule is an asymmetric top.
 Rotational symmetry number  1.
 Warning -- assumption of classical behavior for rotation
           may cause significant error
 Rotational temperatures (Kelvin)      0.17533     0.17438     0.09705
 Rotational constants (GHZ):           3.65324     3.63339     2.02218
 Zero-point vibrational energy     339118.1 (Joules/Mol)
                                   81.05117 (Kcal/Mol)
 Warning -- explicit consideration of   6 degrees of freedom as
           vibrations may cause significant error
 Vibrational temperatures:    340.50   418.66   529.74   598.53   620.26
          (Kelvin)            871.58   981.04  1057.63  1109.46  1158.04
                             1306.86  1321.42  1333.41  1371.44  1392.38
                             1401.35  1404.24  1517.10  1536.63  1821.24
                             1823.77  1880.63  1909.23  1944.00  2075.93
                             2114.05  2168.05  2228.51  2244.25  2356.25
                             2365.66  4415.84  4526.73  4535.17  4551.49
                             4557.89  4577.38  4599.54  4607.19
 
 Zero-point correction=                           0.129163 (Hartree/Particle)
 Thermal correction to Energy=                    0.134851
 Thermal correction to Enthalpy=                  0.135796
 Thermal correction to Gibbs Free Energy=         0.100094
 Sum of electronic and zero-point Energies=           -268.669802
 Sum of electronic and thermal Energies=              -268.664113
 Sum of electronic and thermal Enthalpies=            -268.663169
 Sum of electronic and thermal Free Energies=         -268.698871
 
                     E (Thermal)             CV                S
                      KCal/Mol        Cal/Mol-Kelvin    Cal/Mol-Kelvin
 Total                   84.621             22.715             75.141
 Electronic               0.000              0.000              0.000
 Translational            0.889              2.981             39.471
 Rotational               0.889              2.981             26.885
 Vibrational             82.843             16.753              8.785
 Vibration     1          0.656              1.785              1.828
 Vibration     2          0.687              1.691              1.468
 Vibration     3          0.741              1.538              1.087
 Vibration     4          0.779              1.435              0.906
 Vibration     5          0.792              1.402              0.855
 Vibration     6          0.964              1.020              0.440
                       Q            Log10(Q)             Ln(Q)
 Total Bot       0.912301D-46        -46.039862       -106.010700
 Total V=0       0.234996D+14         13.371060         30.788003
 Vib (Bot)       0.156854D-58        -58.804504       -135.402374
 Vib (Bot)    1  0.829780D+00         -0.081037         -0.186594
 Vib (Bot)    2  0.656844D+00         -0.182538         -0.420309
 Vib (Bot)    3  0.495087D+00         -0.305319         -0.703023
 Vib (Bot)    4  0.423377D+00         -0.373273         -0.859492
 Vib (Bot)    5  0.403824D+00         -0.393807         -0.906775
 Vib (Bot)    6  0.245025D+00         -0.610789         -1.406395
 Vib (V=0)       0.404034D+01          0.606418          1.396329
 Vib (V=0)    1  0.146878D+01          0.166957          0.384432
 Vib (V=0)    2  0.132550D+01          0.122378          0.281787
 Vib (V=0)    3  0.120364D+01          0.080497          0.185351
 Vib (V=0)    4  0.115517D+01          0.062646          0.144248
 Vib (V=0)    5  0.114271D+01          0.057935          0.133401
 Vib (V=0)    6  0.105681D+01          0.023997          0.055255
 Electronic      0.100000D+01          0.000000          0.000000
 Translational   0.347199D+08          7.540579         17.362824
 Rotational      0.167519D+06          5.224063         12.028850
 ***** Axes restored to original set *****
 -------------------------------------------------------------------
 Center     Atomic                   Forces (Hartrees/Bohr)
 Number     Number              X              Y              Z
 -------------------------------------------------------------------
      1        6           0.000037355    0.000021801    0.000018199
      2        6          -0.000158034    0.000013157    0.000032521
      3        6           0.000155877   -0.000055812   -0.000082222
      4        6          -0.000003173    0.000161732    0.000089476
      5        6          -0.000053412   -0.000129943   -0.000080422
      6        6           0.000043356    0.000013593    0.000011721
      7        6          -0.000006615   -0.000009022    0.000005304
      8        1          -0.000003278   -0.000001569    0.000007372
      9        1           0.000020064   -0.000003026   -0.000028767
     10        1          -0.000019301   -0.000007754    0.000028944
     11        1           0.000000491   -0.000034824    0.000007579
     12        1          -0.000007318    0.000034425    0.000000791
     13        1           0.000001227   -0.000007730    0.000002509
     14        1          -0.000003314    0.000005552   -0.000010104
     15        1          -0.000003923   -0.000000579   -0.000002900
 -------------------------------------------------------------------
 Cartesian Forces:  Max     0.000161732 RMS     0.000053880
 FormGI is forming the generalized inverse of G from B-inverse, IUseBI=4.

 GradGradGradGradGradGradGradGradGradGradGradGradGradGradGradGradGradGrad
 Berny optimization.
 Internal  Forces:  Max     0.000104096 RMS     0.000022490
 Search for a local minimum.
 Step number   1 out of a maximum of    2
 All quantities printed in internal units (Hartrees-Bohrs-Radians)
 Second derivative matrix not updated -- analytic derivatives used.
 ITU=  0
     Eigenvalues ---    0.00672   0.01108   0.01186   0.01687   0.01935
     Eigenvalues ---    0.01935   0.02044   0.02689   0.02818   0.03274
     Eigenvalues ---    0.05203   0.06982   0.08274   0.09482   0.12028
     Eigenvalues ---    0.12175   0.12921   0.13257   0.13723   0.14016
     Eigenvalues ---    0.16615   0.17490   0.18522   0.19101   0.27772
     Eigenvalues ---    0.27936   0.30508   0.31862   0.33988   0.35064
     Eigenvalues ---    0.35574   0.35621   0.35684   0.35748   0.36024
     Eigenvalues ---    0.36048   0.49832   0.49881   0.55671
 Angle between quadratic step and forces=  62.65 degrees.
 Linear search not attempted -- first point.
 Iteration  1 RMS(Cart)=  0.00052977 RMS(Int)=  0.00000024
 Iteration  2 RMS(Cart)=  0.00000025 RMS(Int)=  0.00000007
 ClnCor:  largest displacement from symmetrization is 9.98D-09 for atom    11.
 Variable       Old X    -DE/DX   Delta X   Delta X   Delta X     New X
                                 (Linear)    (Quad)   (Total)
    R1        2.56686  -0.00003   0.00000  -0.00017  -0.00017   2.56669
    R2        2.87869   0.00001   0.00000   0.00010   0.00010   2.87879
    R3        2.05598   0.00000   0.00000   0.00002   0.00002   2.05600
    R4        2.76183   0.00010   0.00000   0.00056   0.00056   2.76239
    R5        2.05930  -0.00001   0.00000  -0.00005  -0.00005   2.05925
    R6        2.59320  -0.00007   0.00000  -0.00035  -0.00035   2.59285
    R7        2.05964  -0.00000   0.00000  -0.00001  -0.00001   2.05963
    R8        2.76183   0.00010   0.00000   0.00056   0.00056   2.76239
    R9        2.05964  -0.00000   0.00000  -0.00001  -0.00001   2.05963
   R10        2.56686  -0.00003   0.00000  -0.00017  -0.00017   2.56669
   R11        2.05930  -0.00001   0.00000  -0.00005  -0.00005   2.05925
   R12        2.87869   0.00001   0.00000   0.00010   0.00010   2.87879
   R13        2.05598   0.00000   0.00000   0.00002   0.00002   2.05600
   R14        2.06762  -0.00000   0.00000  -0.00000  -0.00000   2.06762
   R15        2.07682  -0.00000   0.00000  -0.00001  -0.00001   2.07680
    A1        2.10522   0.00001   0.00000   0.00015   0.00015   2.10537
    A2        2.10425  -0.00000   0.00000  -0.00003  -0.00003   2.10423
    A3        2.07350  -0.00001   0.00000  -0.00012  -0.00012   2.07337
    A4        2.17226  -0.00002   0.00000  -0.00016  -0.00016   2.17210
    A5        2.07870   0.00003   0.00000   0.00028   0.00028   2.07898
    A6        2.03168  -0.00001   0.00000  -0.00013  -0.00013   2.03156
    A7        2.18861   0.00001   0.00000  -0.00002  -0.00002   2.18860
    A8        2.03459  -0.00002   0.00000  -0.00021  -0.00021   2.03438
    A9        2.05282   0.00002   0.00000   0.00034   0.00034   2.05316
   A10        2.18861   0.00001   0.00000  -0.00002  -0.00002   2.18860
   A11        2.05282   0.00002   0.00000   0.00034   0.00034   2.05316
   A12        2.03459  -0.00002   0.00000  -0.00021  -0.00021   2.03438
   A13        2.17226  -0.00002   0.00000  -0.00016  -0.00016   2.17210
   A14        2.03168  -0.00001   0.00000  -0.00013  -0.00013   2.03156
   A15        2.07870   0.00003   0.00000   0.00028   0.00028   2.07898
   A16        2.10522   0.00001   0.00000   0.00015   0.00015   2.10537
   A17        2.10425  -0.00000   0.00000  -0.00003  -0.00003   2.10423
   A18        2.07350  -0.00001   0.00000  -0.00012  -0.00012   2.07337
   A19        1.85786   0.00001   0.00000   0.00026   0.00026   1.85812
   A20        1.93586  -0.00001   0.00000  -0.00016  -0.00016   1.93570
   A21        1.91434  -0.00000   0.00000   0.00003   0.00003   1.91437
   A22        1.93586  -0.00001   0.00000  -0.00016  -0.00016   1.93570
   A23        1.91434  -0.00000   0.00000   0.00003   0.00003   1.91437
   A24        1.90516   0.00000   0.00000   0.00001   0.00001   1.90517
    D1        0.12948  -0.00000   0.00000  -0.00073  -0.00073   0.12875
    D2       -3.04863  -0.00001   0.00000  -0.00098  -0.00098  -3.04961
    D3       -3.03465  -0.00000   0.00000  -0.00055  -0.00055  -3.03520
    D4        0.07042  -0.00001   0.00000  -0.00079  -0.00079   0.06962
    D5       -1.21830   0.00000   0.00000   0.00053   0.00053  -1.21777
    D6        2.95735   0.00001   0.00000   0.00066   0.00066   2.95800
    D7        0.85155   0.00000   0.00000   0.00073   0.00073   0.85228
    D8        1.94544  -0.00000   0.00000   0.00035   0.00035   1.94579
    D9       -0.16209   0.00000   0.00000   0.00047   0.00047  -0.16162
   D10       -2.26789   0.00000   0.00000   0.00055   0.00055  -2.26735
   D11        0.59158  -0.00000   0.00000   0.00059   0.00059   0.59216
   D12       -2.68196   0.00002   0.00000   0.00167   0.00167  -2.68029
   D13       -2.51439   0.00001   0.00000   0.00082   0.00082  -2.51357
   D14        0.49526   0.00002   0.00000   0.00190   0.00190   0.49717
   D15       -0.00000   0.00000   0.00000   0.00000  -0.00000  -0.00000
   D16        3.00841   0.00001   0.00000   0.00105   0.00105   3.00946
   D17       -3.00841  -0.00001   0.00000  -0.00105  -0.00105  -3.00946
   D18       -0.00000   0.00000   0.00000  -0.00000   0.00000   0.00000
   D19       -0.59158   0.00000   0.00000  -0.00059  -0.00059  -0.59216
   D20        2.51439  -0.00001   0.00000  -0.00082  -0.00082   2.51357
   D21        2.68196  -0.00002   0.00000  -0.00167  -0.00167   2.68029
   D22       -0.49526  -0.00002   0.00000  -0.00190  -0.00190  -0.49717
   D23       -0.12948   0.00000   0.00000   0.00073   0.00073  -0.12875
   D24        3.03465   0.00000   0.00000   0.00055   0.00055   3.03520
   D25        3.04863   0.00001   0.00000   0.00098   0.00098   3.04961
   D26       -0.07042   0.00001   0.00000   0.00079   0.00079  -0.06962
   D27        1.21830  -0.00000   0.00000  -0.00053  -0.00053   1.21777
   D28       -2.95735  -0.00001   0.00000  -0.00066  -0.00066  -2.95800
   D29       -0.85155  -0.00000   0.00000  -0.00073  -0.00073  -0.85228
   D30       -1.94544   0.00000   0.00000  -0.00035  -0.00035  -1.94579
   D31        0.16209  -0.00000   0.00000  -0.00047  -0.00047   0.16162
   D32        2.26789  -0.00000   0.00000  -0.00055  -0.00055   2.26735
         Item               Value     Threshold  Converged?
 Maximum Force            0.000104     0.000450     YES
 RMS     Force            0.000022     0.000300     YES
 Maximum Displacement     0.002027     0.001800     NO 
 RMS     Displacement     0.000530     0.001200     YES
 Predicted change in Energy=-2.273324D-07
                           ----------------------------
                           ! Non-Optimized Parameters !
                           ! (Angstroms and Degrees)  !
 --------------------------                            --------------------------
 ! Name  Definition              Value          Derivative Info.                !
 --------------------------------------------------------------------------------
 ! R1    R(1,2)                  1.3582         -DE/DX =    0.0                 !
 ! R2    R(1,7)                  1.5234         -DE/DX =    0.0                 !
 ! R3    R(1,8)                  1.088          -DE/DX =    0.0                 !
 ! R4    R(2,3)                  1.4618         -DE/DX =    0.0001              !
 ! R5    R(2,9)                  1.0897         -DE/DX =    0.0                 !
 ! R6    R(3,4)                  1.3721         -DE/DX =   -0.0001              !
 ! R7    R(3,10)                 1.0899         -DE/DX =    0.0                 !
 ! R8    R(4,5)                  1.4618         -DE/DX =    0.0001              !
 ! R9    R(4,11)                 1.0899         -DE/DX =    0.0                 !
 ! R10   R(5,6)                  1.3582         -DE/DX =    0.0                 !
 ! R11   R(5,12)                 1.0897         -DE/DX =    0.0                 !
 ! R12   R(6,7)                  1.5234         -DE/DX =    0.0                 !
 ! R13   R(6,13)                 1.088          -DE/DX =    0.0                 !
 ! R14   R(7,14)                 1.0941         -DE/DX =    0.0                 !
 ! R15   R(7,15)                 1.099          -DE/DX =    0.0                 !
 ! A1    A(2,1,7)              120.629          -DE/DX =    0.0                 !
 ! A2    A(2,1,8)              120.5634         -DE/DX =    0.0                 !
 ! A3    A(7,1,8)              118.7955         -DE/DX =    0.0                 !
 ! A4    A(1,2,3)              124.4522         -DE/DX =    0.0                 !
 ! A5    A(1,2,9)              119.1169         -DE/DX =    0.0                 !
 ! A6    A(3,2,9)              116.3998         -DE/DX =    0.0                 !
 ! A7    A(2,3,4)              125.3973         -DE/DX =    0.0                 !
 ! A8    A(2,3,10)             116.5613         -DE/DX =    0.0                 !
 ! A9    A(4,3,10)             117.6374         -DE/DX =    0.0                 !
 ! A10   A(3,4,5)              125.3973         -DE/DX =    0.0                 !
 ! A11   A(3,4,11)             117.6374         -DE/DX =    0.0                 !
 ! A12   A(5,4,11)             116.5613         -DE/DX =    0.0                 !
 ! A13   A(4,5,6)              124.4522         -DE/DX =    0.0                 !
 ! A14   A(4,5,12)             116.3998         -DE/DX =    0.0                 !
 ! A15   A(6,5,12)             119.1169         -DE/DX =    0.0                 !
 ! A16   A(5,6,7)              120.629          -DE/DX =    0.0                 !
 ! A17   A(5,6,13)             120.5634         -DE/DX =    0.0                 !
 ! A18   A(7,6,13)             118.7955         -DE/DX =    0.0                 !
 ! A19   A(1,7,6)              106.4626         -DE/DX =    0.0                 !
 ! A20   A(1,7,14)             110.9075         -DE/DX =    0.0                 !
 ! A21   A(1,7,15)             109.6851         -DE/DX =    0.0                 !
 ! A22   A(6,7,14)             110.9075         -DE/DX =    0.0                 !
 ! A23   A(6,7,15)             109.6851         -DE/DX =    0.0                 !
 ! A24   A(14,7,15)            109.1581         -DE/DX =    0.0                 !
 ! D1    D(7,1,2,3)              7.3768         -DE/DX =    0.0                 !
 ! D2    D(7,1,2,9)           -174.7301         -DE/DX =    0.0                 !
 ! D3    D(8,1,2,3)           -173.9042         -DE/DX =    0.0                 !
 ! D4    D(8,1,2,9)              3.989          -DE/DX =    0.0                 !
 ! D5    D(2,1,7,6)            -69.7731         -DE/DX =    0.0                 !
 ! D6    D(2,1,7,14)           169.4812         -DE/DX =    0.0                 !
 ! D7    D(2,1,7,15)            48.832          -DE/DX =    0.0                 !
 ! D8    D(8,1,7,6)            111.4855         -DE/DX =    0.0                 !
 ! D9    D(8,1,7,14)            -9.2602         -DE/DX =    0.0                 !
 ! D10   D(8,1,7,15)          -129.9094         -DE/DX =    0.0                 !
 ! D11   D(1,2,3,4)             33.9284         -DE/DX =    0.0                 !
 ! D12   D(1,2,3,10)          -153.5693         -DE/DX =    0.0                 !
 ! D13   D(9,2,3,4)           -144.0167         -DE/DX =    0.0                 !
 ! D14   D(9,2,3,10)            28.4856         -DE/DX =    0.0                 !
 ! D15   D(2,3,4,5)              0.0            -DE/DX =    0.0                 !
 ! D16   D(2,3,4,11)           172.4295         -DE/DX =    0.0                 !
 ! D17   D(10,3,4,5)          -172.4295         -DE/DX =    0.0                 !
 ! D18   D(10,3,4,11)            0.0            -DE/DX =    0.0                 !
 ! D19   D(3,4,5,6)            -33.9284         -DE/DX =    0.0                 !
 ! D20   D(3,4,5,12)           144.0167         -DE/DX =    0.0                 !
 ! D21   D(11,4,5,6)           153.5693         -DE/DX =    0.0                 !
 ! D22   D(11,4,5,12)          -28.4856         -DE/DX =    0.0                 !
 ! D23   D(4,5,6,7)             -7.3768         -DE/DX =    0.0                 !
 ! D24   D(4,5,6,13)           173.9042         -DE/DX =    0.0                 !
 ! D25   D(12,5,6,7)           174.7301         -DE/DX =    0.0                 !
 ! D26   D(12,5,6,13)           -3.989          -DE/DX =    0.0                 !
 ! D27   D(5,6,7,1)             69.7731         -DE/DX =    0.0                 !
 ! D28   D(5,6,7,14)          -169.4812         -DE/DX =    0.0                 !
 ! D29   D(5,6,7,15)           -48.832          -DE/DX =    0.0                 !
 ! D30   D(13,6,7,1)          -111.4855         -DE/DX =    0.0                 !
 ! D31   D(13,6,7,14)            9.2602         -DE/DX =    0.0                 !
 ! D32   D(13,6,7,15)          129.9094         -DE/DX =    0.0                 !
 --------------------------------------------------------------------------------
 GradGradGradGradGradGradGradGradGradGradGradGradGradGradGradGradGradGrad


 ----------------------------------------------------------------------

 Electric dipole moment (input orientation):
 (Debye = 10**-18 statcoulomb cm , SI units = C m)
                  (au)            (Debye)         (10**-30 SI)
   Tot        0.106079D+00      0.269625D+00      0.899371D+00
   x         -0.830503D-01     -0.211093D+00     -0.704129D+00
   y         -0.913386D-02     -0.232160D-01     -0.774401D-01
   z         -0.653596D-01     -0.166128D+00     -0.554142D+00

 Dipole polarizability, Alpha (input orientation).
 (esu units = cm**3 , SI units = C**2 m**2 J**-1)
 Alpha(0;0):
               (au)            (10**-24 esu)      (10**-40 SI)
   iso        0.602235D+02      0.892420D+01      0.992951D+01
   aniso      0.426278D+02      0.631679D+01      0.702838D+01
   xx         0.737930D+02      0.109350D+02      0.121668D+02
   yx         0.763524D+01      0.113143D+01      0.125888D+01
   yy         0.632474D+02      0.937229D+01      0.104281D+02
   zx        -0.670599D+01     -0.993726D+00     -0.110567D+01
   zy         0.163748D+02      0.242649D+01      0.269984D+01
   zz         0.436300D+02      0.646530D+01      0.719362D+01

 ----------------------------------------------------------------------

 Dipole orientation:
     6          0.40794712          0.12365792          3.91491163
     6          1.19724095         -1.69940395          2.28941828
     6          2.94115612         -1.27341327          0.19060345
     6          4.90695630          0.41783534          0.19060345
     6          5.58855195          2.07859889          2.28941828
     6          3.90377286          3.13124256          3.91491163
     6          1.07270618          2.88643956          3.45450374
     1         -0.74402021         -0.35913231          5.54798702
     1          0.55838706         -3.63681243          2.57054382
     1          2.79147147         -2.56342096         -1.40801836
     1          6.20485309          0.37323404         -1.40801836
     1          7.59962942          2.42102168          2.57054382
     1          4.55314900          4.19821293          5.54798702
     1          0.00863257          4.12325127          4.72458137
     1          0.63752325          3.39226862          1.48779977

 Electric dipole moment (dipole orientation):
 (Debye = 10**-18 statcoulomb cm , SI units = C m)
                  (au)            (Debye)         (10**-30 SI)
   Tot        0.106079D+00      0.269625D+00      0.899371D+00
   x          0.000000D+00      0.000000D+00      0.000000D+00
   y          0.000000D+00      0.000000D+00      0.000000D+00
   z          0.106079D+00      0.269625D+00      0.899371D+00

 Dipole polarizability, Alpha (dipole orientation).
 (esu units = cm**3 , SI units = C**2 m**2 J**-1)
 Alpha(0;0):
               (au)            (10**-24 esu)      (10**-40 SI)
   iso        0.602235D+02      0.892420D+01      0.992951D+01
   aniso      0.426278D+02      0.631679D+01      0.702838D+01
   xx         0.624782D+02      0.925832D+01      0.103013D+02
   yx         0.942752D+01      0.139701D+01      0.155439D+01
   yy         0.596311D+02      0.883642D+01      0.983184D+01
   zx        -0.147678D+02     -0.218837D+01     -0.243489D+01
   zy         0.171652D+02      0.254362D+01      0.283016D+01
   zz         0.585611D+02      0.867786D+01      0.965542D+01

 ----------------------------------------------------------------------
 Unable to Open any file for archive entry.
 1\1\GINC-BS001\Freq\RMP2-FC\3-21G*\C7H8\PNATT\07-Aug-2026\0\\#N Geom=A
 llCheck Guess=TCheck SCRF=Check GenChk RMP2(FC)/3-21G* Freq\\1,3,5-Cyc
 loheptatriene C7H8 - size6to10_Cs\\0,1\C,-1.4852164912,-0.2525229518,-
 1.4398316194\C,-0.5927507121,0.7644171355,-1.3199123373\C,0.8590263464
 ,0.5971649958,-1.3386891364\C,1.5420769441,-0.3370907098,-2.0760586252
 \C,0.933084743,-1.3225739083,-2.9670882761\C,-0.270532574,-1.913930443
 4,-2.7511120166\C,-1.015128779,-1.7015120537,-1.4392403981\H,-2.550850
 4291,-0.0471964917,-1.5170327951\H,-0.9618340646,1.7862383691,-1.23517
 33707\H,1.4436927672,1.3528206933,-0.8142242642\H,2.6297300796,-0.2694
 04849,-2.0945799651\H,1.4847649658,-1.5601449169,-3.8763356542\H,-0.71
 02591813,-2.564700877,-3.5039951549\H,-1.8635449669,-2.3873854844,-1.3
 561477524\H,-0.3321060037,-1.868739348,-0.5946540974\\Version=ES64L-G1
 6RevC.01\State=1-A'\HF=-268.1764144\MP2=-268.7989648\RMSD=1.107e-09\RM
 SF=5.388e-05\ZeroPoint=0.1291633\Thermal=0.1348514\ETot=-268.6641134\H
 Tot=-268.6631692\GTot=-268.6988711\Dipole=-0.0830503,-0.0091339,-0.065
 3596\DipoleDeriv=0.0549676,-0.1036661,0.0316007,-0.0537702,0.0993967,0
 .0535584,0.0975705,0.0617453,-0.1945869,-0.0452405,-0.0321825,-0.04994
 42,-0.0819934,0.0543107,-0.0069058,-0.0195869,-0.0712235,-0.1981783,0.
 088991,-0.0016027,0.0506873,0.0753727,-0.037676,0.0999008,0.094669,0.1
 311747,-0.1012923,0.1245824,0.0739666,0.0628849,-0.0074669,-0.0943161,
 0.1200925,0.0245515,0.0929482,-0.0802436,-0.1294014,0.0379096,-0.09213
 45,0.0711506,-0.0935771,0.0097452,-0.1014975,0.0894122,0.0338704,0.026
 7989,0.0709141,-0.0338406,-0.0028152,-0.1563858,0.1296519,-0.0696132,0
 .1435427,0.0893642,0.0660073,0.0885306,0.0565131,0.1502066,0.0676552,-
 0.0936652,-0.021631,-0.1507978,0.0549354,-0.103659,0.0432474,-0.006967
 2,0.0401333,0.0126959,-0.0021306,-0.0152371,0.0138483,0.1469029,0.0250
 116,0.0470033,0.0090283,0.0616188,-0.0930519,-0.0328049,-0.0308692,-0.
 0136017,0.1441747,-0.0096517,-0.0561174,-0.0408515,-0.0670923,-0.00697
 58,-0.1007147,-0.0547807,-0.0928449,0.0798606,-0.1209184,-0.0262506,-0
 .0015938,-0.0156317,0.089944,-0.0456736,0.0127865,-0.0532136,0.0942075
 ,0.0192974,-0.0212304,0.0794906,-0.0084871,0.1068547,-0.045063,0.08472
 41,-0.0896096,-0.0500178,0.0482516,-0.0736371,-0.0143532,-0.0748181,0.
 0456008,-0.0922375,-0.0006413,-0.1042377,-0.0379126,-0.052195,-0.10500
 49,0.0331379,-0.0884958,-0.0232965,0.018055,0.0122207,0.0027621,0.0634
 752,0.0071583,0.05812,-0.0836577,0.0020886,0.028821,-0.0118085,-0.0126
 653,0.0400953,-0.0445595\Polar=73.7930189,7.6352409,63.247359,-6.70599
 47,16.3747957,43.6300034\PG=CS [SG(C1H2),X(C6H6)]\NImag=0\\0.73264426,
 0.09429293,0.60994123,0.04716133,0.01397436,0.13452037,-0.26119698,-0.
 15758525,-0.00884813,0.62121579,-0.17273083,-0.30596299,-0.02369510,0.
 06504640,0.74200847,-0.02581513,-0.02530434,-0.05221718,0.01591190,0.0
 7078613,0.13948268,-0.03983336,-0.02033059,-0.01622353,-0.22177964,0.0
 2800015,-0.00466720,0.60412756,-0.02623650,0.01613284,0.00450908,-0.00
 031525,-0.11033892,-0.01572571,-0.01497590,0.53110389,-0.00459803,0.00
 184274,0.00889940,-0.00678747,-0.01362755,-0.06689685,-0.00908992,0.28
 427480,0.32742865,0.00097505,0.00391123,0.00203449,-0.02398722,0.02751
 227,0.01884164,-0.19330678,0.11002216,0.08843270,0.68238810,-0.0061774
 9,-0.01553632,-0.01180628,0.03557362,0.00985979,-0.00146609,0.07216277
 ,-0.22626543,-0.13224081,-0.03255744,0.43278956,-0.00393552,-0.0036455
 8,-0.00728029,0.01569082,0.00108125,0.00218215,0.07119297,-0.14953096,
 -0.15162271,-0.06062024,0.25818126,0.34748242,0.00112361,0.00379113,0.
 00903019,-0.01445924,-0.00298214,0.00160436,0.02979818,0.00582581,-0.0
 0440557,-0.13053713,-0.03529832,-0.01051671,0.64325232,0.00242951,0.00
 796619,0.00639686,-0.01540834,-0.00623284,0.00150716,0.00828934,-0.023
 78091,-0.03009621,-0.04769152,-0.12965725,-0.06153903,0.19434814,0.347
 07278,0.00248777,0.00798256,0.00522520,-0.00788008,0.00106531,-0.00303
 125,-0.00046388,-0.02236342,-0.01796256,-0.03281060,-0.07419015,-0.138
 82102,-0.16869721,0.15116669,0.51238185,-0.01313851,0.00546961,0.00242
 170,0.01588884,-0.00078892,0.00090831,-0.01586169,0.00752050,0.0133399
 8,-0.01941841,-0.03153202,-0.02128421,-0.36202076,-0.14480887,0.070049
 42,0.60519666,0.01795204,-0.01336194,-0.01921326,-0.00530282,-0.002816
 00,-0.00184142,0.00325505,-0.00187643,-0.00170599,-0.02694792,-0.00576
 527,0.00166566,-0.16448322,-0.14609852,-0.00010808,0.26811705,0.372866
 71,0.01087544,-0.01730095,-0.00704275,-0.00164015,0.00266434,0.0012421
 6,-0.00000817,0.00106042,-0.00410345,-0.02294968,-0.01071794,0.0103825
 6,0.05882042,0.00247783,-0.11125788,-0.05288196,0.15134467,0.49904249,
 -0.09748711,0.02819125,-0.00459281,0.00666839,-0.01960455,0.00126352,0
 .00254599,-0.00245284,-0.00078127,-0.00011223,0.00450194,0.00401377,-0
 .02304533,0.00094017,0.03251227,-0.09502366,-0.01217449,0.03670547,0.5
 7279356,0.02625724,-0.17484494,0.00425575,0.01330022,-0.03621538,-0.00
 048459,-0.00187645,0.00138656,0.00278982,0.00055030,-0.00647221,-0.002
 46346,0.00077796,0.00839995,0.01416589,-0.01750311,-0.06438846,-0.0086
 2782,0.09174785,0.47858316,-0.00966473,0.02268205,-0.05043897,-0.01117
 061,-0.00916565,0.00077238,0.00958833,-0.00446143,-0.00589731,-0.00207
 935,0.00791440,0.00461969,0.00346119,-0.00748360,-0.01412923,0.0509792
 3,-0.02032650,-0.16335891,0.05652211,-0.03195153,0.47912801,-0.3288021
 9,0.04894703,-0.02049264,-0.01681822,0.00921100,-0.00106352,-0.0004441
 0,-0.00325984,-0.00220000,0.00057506,-0.00017125,-0.00035927,0.0001829
 9,0.00018501,0.00007844,0.00006935,0.00002581,0.00012086,-0.00344069,-
 0.00287236,-0.00113457,0.34764946,0.05574390,-0.06844290,0.00186410,-0
 .03000251,0.00542000,-0.00052357,-0.00148290,-0.00312717,-0.00093042,-
 0.00017581,-0.00075156,-0.00034365,0.00042782,0.00053400,-0.00055870,-
 0.00043958,-0.00129961,0.00101285,0.02823706,-0.00485718,0.00341353,-0
 .05232333,0.07267551,-0.02122837,0.00201204,-0.03545932,0.00094942,0.0
 0169774,0.00469417,-0.00225867,0.00089217,0.01274461,-0.00159092,-0.00
 211503,-0.00269789,0.00242086,0.00142442,0.00183429,-0.00184175,-0.000
 19016,0.00114341,0.00046016,-0.00317736,0.00167227,0.02332144,-0.00334
 331,0.02378922,0.00838560,-0.02633057,-0.00143009,-0.08858435,0.090090
 82,0.00439158,-0.01158431,0.03264618,0.00454186,-0.00484705,-0.0011134
 7,-0.00188831,0.00016461,0.00005112,-0.00076774,-0.00019120,-0.0000728
 3,0.00065319,-0.00232740,-0.00232588,-0.00083416,0.00081959,0.00005707
 ,0.00016087,0.09774738,0.01176170,-0.02224002,-0.00171845,0.08669077,-
 0.29843330,-0.02297873,-0.00310490,0.00023071,-0.00111686,0.00023678,0
 .00049781,0.00061189,-0.00012336,0.00012994,0.00021817,-0.00020349,0.0
 0026120,0.00038904,-0.00375517,-0.00120125,-0.00135802,-0.00080466,0.0
 0104225,0.00075925,-0.09172249,0.31989502,0.00503814,0.00156768,0.0045
 1387,-0.00379112,-0.02470187,-0.03721758,0.00731823,-0.00154534,0.0002
 1447,-0.00114187,0.00191568,0.00375949,-0.00171527,-0.00155455,-0.0011
 4376,0.00059693,0.00088470,0.00100964,-0.00130409,-0.00067118,0.008019
 65,0.00068553,0.00026053,-0.00629139,-0.00660073,0.02534757,0.02672813
 ,-0.00501763,0.00303426,-0.00079137,-0.01618612,-0.02528566,-0.0143574
 1,-0.13821615,-0.10268580,-0.07458757,0.00990469,0.01651074,0.01213453
 ,-0.00122269,0.00168288,0.00140527,-0.00042323,0.00021144,0.00069408,0
 .00033854,0.00031739,-0.00042246,-0.00112200,-0.00126013,0.00093114,0.
 00058822,0.00057282,0.00015381,0.14944373,0.00096817,0.00192615,-0.000
 58125,0.00222789,0.00419878,0.00284784,-0.09703433,-0.18417938,-0.1040
 7199,-0.01608840,-0.01376999,-0.01025672,0.00310496,0.00260304,-0.0068
 2035,0.00147028,0.00006813,0.00091105,-0.00002631,0.00050406,-0.000696
 97,0.00003498,0.00024978,0.00009060,-0.00051541,0.00054193,0.00045830,
 0.10612411,0.19101321,0.00068615,-0.00184207,0.00033281,0.00682401,0.0
 0236415,0.00379773,-0.07435996,-0.09851691,-0.10297482,-0.00829359,-0.
 01656257,-0.00926652,0.00216471,-0.00589027,0.00745409,-0.00137879,0.0
 0046707,-0.00109628,0.00035122,-0.00097157,0.00125457,0.00043486,-0.00
 022380,-0.00049607,-0.00023842,0.00022453,-0.00049951,0.07438784,0.116
 10825,0.10524575,0.00049975,-0.00021872,-0.00010926,0.00100969,0.00169
 982,0.00183972,-0.01499854,-0.00349644,-0.00076189,-0.33117609,-0.0160
 8747,0.00505701,-0.00913109,-0.00026701,0.00333159,0.00016455,-0.00043
 695,-0.00242079,0.00015206,0.00024022,0.00018938,-0.00005084,-0.000009
 42,-0.00024917,-0.00062037,0.00000350,-0.00004180,0.00139996,0.0008041
 6,-0.00017551,0.35280111,0.00100350,-0.00043177,0.00115091,0.00004577,
 0.00258781,-0.00740831,0.02859732,-0.00093576,-0.00408610,-0.02161350,
 -0.04479609,-0.00951295,-0.02713120,-0.00306301,-0.00006982,0.00002946
 ,-0.00173688,-0.00499092,-0.00003374,0.00096862,-0.00125048,0.00003554
 ,0.00023813,0.00098786,-0.00001901,-0.00012571,-0.00010990,0.00051394,
 -0.00176416,0.00387406,0.01847965,0.05032844,-0.00117992,-0.00070339,-
 0.00151936,0.00137418,-0.00812350,0.00523693,0.02030654,0.00268789,0.0
 0280247,0.00467046,-0.01518423,-0.04939817,-0.01867258,-0.00018766,0.0
 0400448,-0.00187149,-0.00224826,-0.00118634,0.00019827,-0.00040373,0.0
 0097649,0.00005265,0.00001308,-0.00100131,0.00190652,-0.00009221,0.000
 45540,0.00010773,0.00317335,-0.00396085,-0.00634885,0.02088644,0.04257
 315,0.00106490,-0.00072682,0.00007538,-0.00140497,-0.00005180,-0.00032
 569,-0.00013025,-0.00298191,-0.00151209,0.00955512,-0.00278732,-0.0130
 2043,-0.12696131,0.02008949,0.11678620,-0.01085260,0.00770150,0.028325
 72,-0.00224125,-0.00532221,0.00060012,0.00002502,0.00008949,0.00016879
 ,0.00015125,0.00010591,-0.00007411,0.00033931,-0.00107309,0.00041718,0
 .00050006,0.00071789,0.00005314,0.13156444,-0.00089559,-0.00024756,0.0
 0007180,0.00166346,0.00076311,0.00000218,-0.00479601,0.00111294,-0.001
 43422,0.01051663,-0.00948305,-0.02301368,0.02843480,-0.05121153,-0.057
 15482,-0.01488417,0.00364807,0.01475330,-0.00474187,0.00408544,-0.0023
 8183,-0.00000958,0.00016351,-0.00031178,0.00006114,-0.00003273,0.00029
 126,0.00035236,-0.00095651,0.00015123,-0.00015394,0.00001403,0.0007404
 7,-0.01826256,0.05567778,0.00051103,-0.00014649,0.00026230,-0.00133035
 ,0.00034762,-0.00020734,-0.00167084,-0.00230833,-0.00157244,0.01264399
 ,-0.00179165,-0.01121120,0.11870320,-0.06001263,-0.24606240,0.00221044
 ,-0.00289714,-0.00213602,0.00214568,-0.00228226,0.00264680,0.00007880,
 -0.00001422,0.00026503,0.00009606,0.00001017,-0.00015563,0.00053092,-0
 .00117236,0.00032652,-0.00061326,0.00030625,0.00011655,-0.13156768,0.0
 6703954,0.25712831,-0.00055976,-0.00191107,0.00061594,0.00201461,0.000
 75580,0.00027794,-0.00250720,0.00077194,0.00011510,-0.00074139,-0.0056
 0637,0.00324618,-0.00716135,-0.01969947,-0.02121190,-0.09932441,-0.075
 49967,-0.07135822,0.00594789,0.00956272,0.01526654,-0.00013450,0.00024
 763,-0.00032373,0.00013326,-0.00001934,0.00020460,0.00012871,0.0003055
 8,-0.00081762,-0.00041132,-0.00046309,-0.00074895,-0.00077039,0.002496
 45,-0.00143036,0.10305038,0.00036504,0.00142599,0.00039598,-0.00212146
 ,-0.00018645,-0.00078401,0.00262257,-0.00010288,0.00053769,-0.00728921
 ,0.00858019,-0.00167252,-0.00579140,-0.00621837,-0.01336046,-0.0779124
 2,-0.14472292,-0.12311139,-0.00122326,0.00086534,-0.00107890,0.0002930
 7,-0.00013667,0.00020293,0.00003213,0.00005282,-0.00028419,0.00002398,
 -0.00051281,0.00090223,-0.00044715,-0.00151049,-0.00053160,0.00224943,
 -0.00349701,0.00313554,0.08856386,0.14486742,0.00028435,-0.00007835,-0
 .00095308,0.00127340,-0.00032675,0.00072312,-0.00099224,0.00059898,-0.
 00026430,0.00318562,-0.00358228,0.00133453,0.00883745,0.00785953,0.006
 67566,-0.07617723,-0.12732048,-0.18865707,-0.01207822,-0.01331432,-0.0
 1343882,0.00013460,-0.00037491,-0.00038084,-0.00007613,-0.00012608,0.0
 0026748,-0.00010203,0.00022997,-0.00042992,0.00037549,0.00033894,0.000
 55351,-0.00168455,0.00206740,-0.00016215,0.07549339,0.13436668,0.19619
 639,0.01101098,0.01213283,-0.00112777,-0.00093582,0.00232112,-0.000154
 74,-0.00035122,0.00010854,0.00028302,0.00047205,-0.00002735,0.00024317
 ,-0.00049288,0.00063352,0.00333111,-0.01446969,-0.01007702,-0.00122815
 ,-0.21562679,-0.13191476,0.01195866,0.00119800,-0.00065044,-0.00003642
 ,0.00029379,0.00046006,0.00034773,0.00003493,-0.00005501,-0.00003842,-
 0.00003465,-0.00002841,0.00001357,-0.00072305,-0.00031558,0.00019882,0
 .00112604,0.00027035,-0.00021217,0.23458010,-0.02895477,-0.02270786,0.
 00105997,0.00381623,-0.00552118,0.00082283,0.00084963,0.00026451,0.000
 10953,0.00008618,-0.00004555,-0.00022739,0.00069026,0.00023402,-0.0012
 2448,0.00838058,0.00427301,-0.00148391,-0.13049867,-0.15363383,0.01281
 772,0.00009514,0.00177648,0.00003095,-0.00090567,-0.00120686,-0.000633
 58,-0.00007053,0.00000107,-0.00000536,-0.00004533,0.00006039,-0.000000
 94,0.00025882,0.00016359,-0.00018560,-0.00007457,0.00088380,0.00056079
 ,0.14097867,0.17178446,-0.00134026,-0.00069949,-0.00193616,-0.00028368
 ,-0.00028785,0.00037524,-0.00009157,-0.00017574,0.00029586,-0.00046506
 ,-0.00073378,-0.00021735,0.00149385,-0.00155132,-0.00582290,0.02765681
 ,0.02123850,-0.00343637,0.01016447,0.01150595,-0.05326996,-0.00005804,
 0.00011639,0.00058381,-0.00001250,-0.00013589,0.00034046,0.00000132,-0
 .00001582,0.00005795,0.00001494,0.00003958,0.00006821,0.00156167,0.000
 04975,-0.00001314,-0.00069819,0.00010420,0.00154845,-0.01714339,-0.010
 70881,0.05794816,-0.00966863,0.00733274,-0.00772344,-0.00144478,-0.003
 19348,0.00134472,0.00254149,-0.00049065,-0.00198886,0.00025622,0.00260
 942,0.00004622,0.00051006,-0.00077398,0.00184935,0.00940474,-0.0022679
 6,0.01629194,-0.14914197,0.01906087,-0.12325970,0.00029307,0.00154114,
 -0.00088365,-0.00012902,-0.00009814,0.00032402,0.00000972,-0.00024757,
 0.00003633,-0.00010429,-0.00013413,0.00013872,-0.00011628,0.00053447,-
 0.00050645,-0.00079058,0.00036447,0.00173826,-0.01608182,0.00539405,-0
 .02080039,0.16446205,0.02422113,-0.01361610,0.02333553,0.00237127,0.00
 086911,0.00055063,-0.00017577,0.00037543,-0.00024442,-0.00047175,0.000
 81536,0.00066588,-0.00159125,-0.00067750,0.00125165,-0.00291487,0.0009
 4892,-0.00838058,0.02089262,-0.05317987,0.03332721,0.00061342,-0.00348
 458,0.00103969,0.00006687,0.00058819,-0.00122510,-0.00004180,0.0000767
 3,-0.00007897,-0.00006490,0.00016646,-0.00002574,-0.00000683,-0.000200
 08,-0.00002844,0.00056960,0.00021205,-0.00089913,-0.01383652,0.0036739
 2,-0.01874565,-0.02963123,0.06343196,0.00071774,-0.00034077,0.00309318
 ,-0.00029215,-0.00007828,0.00106364,0.00141988,0.00060449,-0.00109101,
 0.00014240,0.00237948,0.00075433,-0.00252891,-0.00251721,0.00065541,-0
 .01272739,0.00025068,-0.03054521,-0.12558055,0.03163040,-0.19855669,0.
 00040087,-0.00036791,-0.00039999,0.00009800,-0.00003439,-0.00000072,-0
 .00008579,-0.00020391,0.00025455,-0.00008760,-0.00015556,0.00027883,0.
 00019633,-0.00087058,0.00077482,0.00136927,0.00117783,-0.00301296,0.00
 356497,-0.00093171,0.00347772,0.13339293,-0.03054257,0.22325410\\-0.00
 003736,-0.00002180,-0.00001820,0.00015803,-0.00001316,-0.00003252,-0.0
 0015588,0.00005581,0.00008222,0.00000317,-0.00016173,-0.00008948,0.000
 05341,0.00012994,0.00008042,-0.00004336,-0.00001359,-0.00001172,0.0000
 0662,0.00000902,-0.00000530,0.00000328,0.00000157,-0.00000737,-0.00002
 006,0.00000303,0.00002877,0.00001930,0.00000775,-0.00002894,-0.0000004
 9,0.00003482,-0.00000758,0.00000732,-0.00003443,-0.00000079,-0.0000012
 3,0.00000773,-0.00000251,0.00000331,-0.00000555,0.00001010,0.00000392,
 0.00000058,0.00000290\\\@
 The archive entry for this job was punched.


 REALITY IS FOR PEOPLE WHO CAN'T FACE SCIENCE FICTION.
 Job cpu time:       0 days  0 hours  2 minutes 48.7 seconds.
 Elapsed time:       0 days  0 hours  0 minutes 21.1 seconds.
 File lengths (MBytes):  RWF=    383 Int=      0 D2E=      0 Chk=      2 Scr=      1
 Normal termination of Gaussian 16 at Fri Aug  7 15:53:06 2026.
